LAMMPS (22 Jul 2025 - Update 1)
OMP_NUM_THREADS environment is not set. Defaulting to 1 thread.
  using 1 OpenMP thread(s) per MPI task
package gpu 1 neigh no
# iteration 4
# generated by aemwater -- do not edit; edit the template instead

units           real
atom_style      full
boundary        p p p

pair_style      lj/cut/coul/long 10.0 10.0
# GAFF2 is a Lorentz-Berthelot force field. The LAMMPS default for lj/cut is
# GEOMETRIC mixing, which silently changes every cross interaction.
pair_modify     mix arithmetic tail yes
kspace_style    pppm 0.0001
bond_style      harmonic
angle_style     harmonic
dihedral_style  charmm
improper_style  cvff
# Amber 1-4 scaling: LJ/2 and Coulomb/1.2. Applied here, so every CHARMM
# dihedral weight in the data file is 0.
special_bonds   lj 0.0 0.0 0.5 coul 0.0 0.0 0.8333333333

read_data       start.data
Reading data file ...
  orthogonal box = (0 0 0) to (25.248271 25.248271 25.248271)
  1 by 1 by 1 MPI processor grid
  reading atoms ...
  1963 atoms
  scanning bonds ...
  4 = max bonds/atom
  scanning angles ...
  6 = max angles/atom
  scanning dihedrals ...
  33 = max dihedrals/atom
  scanning impropers ...
  2 = max impropers/atom
  orthogonal box = (0 0 0) to (25.248271 25.248271 25.248271)
  1 by 1 by 1 MPI processor grid
  reading bonds ...
  1867 bonds
  reading angles ...
  3151 angles
  reading dihedrals ...
  4790 dihedrals
  reading impropers ...
  300 impropers
Finding 1-2 1-3 1-4 neighbors ...
  special bond factors lj:    0        0        0.5     
  special bond factors coul:  0        0        0.8333333333
     4 = max # of 1-2 neighbors
    12 = max # of 1-3 neighbors
    18 = max # of 1-4 neighbors
    22 = max # of special neighbors
  special bonds CPU = 0.003 seconds
  read_data CPU = 0.110 seconds
neighbor        2.0 bin
neigh_modify    delay 0 every 1 check yes
# The ghost-atom cutoff defaults to the pair cutoff + skin. Bonded partners must
# also be within it, and a stretched bond in a freshly packed cell can exceed it,
# which LAMMPS reports as a communication-cutoff warning before losing atoms.
comm_modify     cutoff 12.0

# Molecule IDs are assigned by the data writer in packing order: polymer chains
# first, then counterions, then any water added later. `<>` is LAMMPS's inclusive
# range operator.
group           polymer molecule <> 1 5
1590 atoms in group polymer
group           ions molecule <> 6 55
100 atoms in group ions
group           water type 9 10
273 atoms in group water

thermo          500
thermo_style    custom step temp press vol density etotal ke pe ebond eangle edihed evdwl ecoul elong
thermo_modify   flush yes

timestep        1.0
dump            traj all custom 1000 iter.lammpstrj id mol type q x y z
dump_modify     traj sort id

# ---------------------------------------------------------------- relax -------
# The newly inserted waters were placed in geometric voids, which is not the same
# as an energetically relaxed position. A short NVE/limit run absorbs the initial
# strain without letting any atom move far enough to cross a chain.
fix             nve_settle all nve/limit 0.05
fix             temp_settle all temp/rescale 10 300.0 300.0 10.0 1.0
run             5000

CITE-CITE-CITE-CITE-CITE-CITE-CITE-CITE-CITE-CITE-CITE-CITE-CITE

Your simulation uses code contributions which should be cited:

- GPU package (short-range, long-range and three-body potentials): doi:10.1016/j.cpc.2010.12.021, doi:10.1016/j.cpc.2011.10.012, doi:10.1016/j.cpc.2013.08.002, doi:10.1016/j.commatsci.2014.10.068, doi:10.1016/j.cpc.2016.10.020, doi:10.3233/APC200086

@Article{Brown11,
 author = {W. M. Brown and P. Wang and S. J. Plimpton and A. N. Tharrington},
 title = {Implementing Molecular Dynamics on Hybrid High Performance Computers---Short Range Forces},
 journal = {Comput.\ Phys.\ Commun.},
 year =    2011,
 volume =  182,
 pages =   {898--911},
 doi =     {10.1016/j.cpc.2010.12.021}
}

@Article{Brown12,
 author = {W. M. Brown and A. Kohlmeyer and S. J. Plimpton and A. N. Tharrington},
 title = {Implementing Molecular Dynamics on Hybrid High Performance Computers - Particle-Particle Particle-Mesh},
 journal = {Comput.\ Phys.\ Commun.},
 year =    2012,
 volume =  183,
 doi =     {10.1016/j.cpc.2011.10.012},
 pages =   {449--459}
}

@Article{Brown13,
 author = {W. M. Brown and Y. Masako},
 title = {Implementing Molecular Dynamics on Hybrid High Performance Computers---Three-Body Potentials},
 journal = {Comput.\ Phys.\ Commun.},
 year =    2013,
 volume =  184,
 pages =   {2785--2793},
 doi =     {10.1016/j.cpc.2013.08.002},
}

@Article{Trung15,
 author = {T. D. Nguyen and S. J. Plimpton},
 title = {Accelerating Dissipative Particle Dynamics Simulations for Soft Matter Systems},
 journal = {Comput.\ Mater.\ Sci.},
 year =    2015,
 doi =     {10.1016/j.commatsci.2014.10.068},
 volume =  100,
 pages =   {173--180}
}

@Article{Trung17,
 author = {T. D. Nguyen},
 title = {{GPU}-Accelerated {T}ersoff Potentials for Massively Parallel
    Molecular Dynamics Simulations},
 journal = {Comput.\ Phys.\ Commun.},
 year =    2017,
 doi =     {10.1016/j.cpc.2016.10.020},
 volume =  212,
 pages =   {113--122}
}

@inproceedings{Nikolskiy19,
 author = {V. Nikolskiy and V. Stegailov},
 title = {{GPU} Acceleration of Four-Site Water Models in {LAMMPS}},
 booktitle = {Proceedings of the International Conference on Parallel
    Computing (ParCo 2019), Prague, Czech Republic},
 doi =     {10.3233/APC200086},
 year =    2019
}

CITE-CITE-CITE-CITE-CITE-CITE-CITE-CITE-CITE-CITE-CITE-CITE-CITE

PPPM initialization ...
  using 12-bit tables for long-range coulomb
  G vector (1/distance) = 0.25656699
  grid = 12 12 12
  stencil order = 5
  estimated absolute RMS force accuracy = 0.016605241
  estimated relative force accuracy = 5.000619e-05
  using double precision KISS FFT
  3d grid and FFT values/proc = 4913 1728
Generated 45 of 45 mixed pair_coeff terms from arithmetic mixing rule
Neighbor list info ...
  update: every = 1 steps, delay = 0 steps, check = yes
  max neighbors/atom: 2000, page size: 100000
  master list distance cutoff = 12
  ghost atom cutoff = 12
  binsize = 6, bins = 5 5 5
  1 neighbor lists, perpetual/occasional/extra = 1 0 0
  (1) pair lj/cut/coul/long/gpu, perpetual
      attributes: full, newton on
      pair build: full/bin
      stencil: full/bin/3d
      bin: standard
Per MPI rank memory allocation (min/avg/max) = 29.74 | 29.74 | 29.74 Mbytes
   Step          Temp          Press          Volume        Density         TotEng         KinEng         PotEng         E_bond        E_angle        E_dihed         E_vdwl         E_coul         E_long    
         0   0              3252.3865      16095.146      1.1816916     -3492.8043      0             -3492.8043      548.27529      798.65959      483.88303     -373.12092      5839.7055     -10801.439    
       500   295.66576     -836.39943      16095.146      1.1816916     -1952.6674      1729.1566     -3681.824       715.00718      805.40185      495.72928     -206.93181      5309.1397     -10813.214    
      1000   304.71227      2074.5665      16095.146      1.1816916     -1930.9527      1782.0638     -3713.0166      662.16066      794.04628      518.80622     -189.98936      5299.3743     -10809.033    
      1500   302.04489      2641.5634      16095.146      1.1816916     -1933.5879      1766.464      -3700.0519      713.42505      756.73448      490.2176      -141.93709      5283.0128     -10814.431    
      2000   298.20015      1466.8561      16095.146      1.1816916     -2001.3255      1743.9787     -3745.3041      665.8764       744.00173      523.92194     -180.07811      5304.4833     -10817.396    
      2500   296.37276      1039.7845      16095.146      1.1816916     -1942.0756      1733.2914     -3675.367       699.54334      789.06491      499.27617     -134.96172      5264.74       -10806.228    
      3000   307.16556      2800.5457      16095.146      1.1816916     -1879.793       1796.4115     -3676.2045      667.80716      783.94895      511.83553     -116.33677      5275.1065     -10811.483    
      3500   292.90689      2394.5739      16095.146      1.1816916     -1973.5211      1713.0218     -3686.5429      689.72467      761.48052      501.29503     -109.32676      5270.7556     -10812.021    
      4000   297.69547      278.26109      16095.146      1.1816916     -1935.6427      1741.0271     -3676.6698      671.65095      742.76717      502.28796     -163.86527      5365.429      -10807.221    
      4500   297.80471      1588.8459      16095.146      1.1816916     -1906.4124      1741.666      -3648.0784      706.45185      775.48481      492.56596     -153.71756      5328.7508     -10809.354    
      5000   302.95728      1317.077       16095.146      1.1816916     -1936.6898      1771.8        -3708.4899      647.08239      768.67957      504.19763     -204.0516       5360.2074     -10797.064    
Loop time of 20.0952 on 1 procs for 5000 steps with 1963 atoms

Performance: 21.498 ns/day, 1.116 hours/ns, 248.815 timesteps/s, 488.425 katom-step/s
99.7% CPU use with 1 MPI tasks x 1 OpenMP threads

MPI task timing breakdown:
Section |  min time  |  avg time  |  max time  |%varavg| %total
---------------------------------------------------------------
Pair    | 2.1259     | 2.1259     | 2.1259     |   0.0 | 10.58
Bond    | 3.015      | 3.015      | 3.015      |   0.0 | 15.00
Kspace  | 2.2751     | 2.2751     | 2.2751     |   0.0 | 11.32
Neigh   | 12.08      | 12.08      | 12.08      |   0.0 | 60.11
Comm    | 0.36092    | 0.36092    | 0.36092    |   0.0 |  1.80
Output  | 0.030923   | 0.030923   | 0.030923   |   0.0 |  0.15
Modify  | 0.12764    | 0.12764    | 0.12764    |   0.0 |  0.64
Other   |            | 0.08003    |            |       |  0.40

Nlocal:           1963 ave        1963 max        1963 min
Histogram: 1 0 0 0 0 0 0 0 0 0
Nghost:          12694 ave       12694 max       12694 min
Histogram: 1 0 0 0 0 0 0 0 0 0
Neighs:              0 ave           0 max           0 min
Histogram: 1 0 0 0 0 0 0 0 0 0
FullNghs:  1.73168e+06 ave 1.73168e+06 max 1.73168e+06 min
Histogram: 1 0 0 0 0 0 0 0 0 0

Total # of neighbors = 1731676
Ave neighs/atom = 882.15792
Ave special neighs/atom = 9.5904228
Neighbor list builds = 206
Dangerous builds = 0
unfix           nve_settle
unfix           temp_settle

min_style       cg
minimize        1e-06 1e-06 20000 200000
PPPM initialization ...
  using 12-bit tables for long-range coulomb
  G vector (1/distance) = 0.25656699
  grid = 12 12 12
  stencil order = 5
  estimated absolute RMS force accuracy = 0.016605241
  estimated relative force accuracy = 5.000619e-05
  using double precision KISS FFT
  3d grid and FFT values/proc = 4913 1728
Generated 45 of 45 mixed pair_coeff terms from arithmetic mixing rule
Per MPI rank memory allocation (min/avg/max) = 32.36 | 32.36 | 32.36 Mbytes
   Step          Temp          Press          Volume        Density         TotEng         KinEng         PotEng         E_bond        E_angle        E_dihed         E_vdwl         E_coul         E_long    
      5000   302.95728      1317.0771      16095.146      1.1816916     -1936.6898      1771.8        -3708.4898      647.08239      768.67957      504.19763     -204.05159      5360.2074     -10797.064    
      5280   302.95728      195.48108      16095.146      1.1816916     -3710.1046      1771.8        -5481.9046      222.9249       181.21626      314.16612     -305.41132      4918.6103     -10815.591    
Loop time of 1.1449 on 1 procs for 280 steps with 1963 atoms

99.7% CPU use with 1 MPI tasks x 1 OpenMP threads

Minimization stats:
  Stopping criterion = energy tolerance
  Energy initial, next-to-last, final = 
     -3708.48984674347  -5481.90154424153  -5481.90463099499
  Force two-norm initial, final = 1356.9053 5.6762833
  Force max component initial, final = 84.905232 0.9265068
  Final line search alpha, max atom move = 0.021962119 0.020348053
  Iterations, force evaluations = 280 560

MPI task timing breakdown:
Section |  min time  |  avg time  |  max time  |%varavg| %total
---------------------------------------------------------------
Pair    | 0.15184    | 0.15184    | 0.15184    |   0.0 | 13.26
Bond    | 0.36835    | 0.36835    | 0.36835    |   0.0 | 32.17
Kspace  | 0.25722    | 0.25722    | 0.25722    |   0.0 | 22.47
Neigh   | 0.2989     | 0.2989     | 0.2989     |   0.0 | 26.11
Comm    | 0.03458    | 0.03458    | 0.03458    |   0.0 |  3.02
Output  | 0          | 0          | 0          |   0.0 |  0.00
Modify  | 4.7575e-05 | 4.7575e-05 | 4.7575e-05 |   0.0 |  0.00
Other   |            | 0.03396    |            |       |  2.97

Nlocal:           1963 ave        1963 max        1963 min
Histogram: 1 0 0 0 0 0 0 0 0 0
Nghost:          12674 ave       12674 max       12674 min
Histogram: 1 0 0 0 0 0 0 0 0 0
Neighs:              0 ave           0 max           0 min
Histogram: 1 0 0 0 0 0 0 0 0 0
FullNghs:  1.73222e+06 ave 1.73222e+06 max 1.73222e+06 min
Histogram: 1 0 0 0 0 0 0 0 0 0

Total # of neighbors = 1732222
Ave neighs/atom = 882.43607
Ave special neighs/atom = 9.5904228
Neighbor list builds = 5
Dangerous builds = 0

fix             shake_all all shake 0.0001 20 0 b 9 a 14
Finding SHAKE clusters ...
       0 = # of size 2 clusters
       0 = # of size 3 clusters
       0 = # of size 4 clusters
      91 = # of frozen angles
  find clusters CPU = 0.001 seconds

# ---------------------------------------------------------------- NPT ---------
# Swelling is the point: the box must be free to expand as water goes in, so the
# uptake is measured at constant pressure, not constant volume.
fix             npt_swell all npt temp 300.0 300.0 100.0 iso 1.0 1.0 1000.0
run             25000
PPPM initialization ...
  using 12-bit tables for long-range coulomb
  G vector (1/distance) = 0.25656699
  grid = 12 12 12
  stencil order = 5
  estimated absolute RMS force accuracy = 0.016605241
  estimated relative force accuracy = 5.000619e-05
  using double precision KISS FFT
  3d grid and FFT values/proc = 4913 1728
Generated 45 of 45 mixed pair_coeff terms from arithmetic mixing rule
Per MPI rank memory allocation (min/avg/max) = 32.16 | 32.16 | 32.16 Mbytes
   Step          Temp          Press          Volume        Density         TotEng         KinEng         PotEng         E_bond        E_angle        E_dihed         E_vdwl         E_coul         E_long    
      5280   317.69224      493.32001      16095.146      1.1816916     -3911.7695      1771.8        -5683.5695      51.083886      151.39245      314.16612     -305.41132      4918.6103     -10815.591    
      5500   191.89691     -1053.9954      15978.51       1.1903175     -3131.5308      1070.2274     -4201.7582      316.1557       537.36338      424.15373     -339.00322      5663.5482     -10811.412    
      6000   311.51953     -1824.9634      16425.972      1.1578919     -1771.4297      1737.3742     -3508.8039      501.00784      751.47106      514.62501     -322.49021      5836.8736     -10802.752    
      6500   291.1916       655.08015      16461.413      1.1553989     -1930.2221      1624.0034     -3554.2255      471.01636      740.73747      504.52806     -303.95564      5830.9959     -10809.697    
      7000   293.53753     -543.64263      16272.911      1.1687828     -1949.4728      1637.0869     -3586.5596      491.41711      705.29171      488.17734     -329.44233      5858.9635     -10811.889    
      7500   293.64362     -1764.019       16670.723      1.1408923     -1888.8593      1637.6786     -3526.5378      510.24048      720.33982      505.50813     -368.78405      5902.2632     -10807.107    
      8000   301.88089      2759.2635      16253.538      1.170176      -1890.539       1683.6186     -3574.1576      507.30572      722.57896      500.84827     -347.62195      5835.8563     -10804.203    
      8500   303.06343     -1033.6243      16344.465      1.1636661     -1831.9881      1690.2137     -3522.2018      523.29803      748.27832      505.57271     -306.11291      5801.4423     -10808.111    
      9000   300.85949     -1891.2267      16230.719      1.1718211     -1917.6409      1677.9222     -3595.5631      515.23266      723.0222       492.66612     -308.67981      5784.2788     -10813.551    
      9500   304.27112      1277.3124      16221.041      1.1725203     -1863.2786      1696.9491     -3560.2277      521.50537      758.17672      490.33824     -280.93717      5744.5921     -10805.667    
     10000   306.05721     -358.76869      16444.154      1.1566116     -1805.7285      1706.9103     -3512.6388      537.80355      744.93835      508.16717     -321.23313      5799.4076     -10795.025    
     10500   301.37922      896.96765      16191.306      1.1746736     -1875.2864      1680.8207     -3556.1072      515.42765      740.58609      509.56851     -284.89727      5754.4771     -10804.122    
     11000   299.43658      89.450656      16288.147      1.1676896     -1868.9754      1669.9864     -3538.9618      564.34611      745.78411      488.35759     -315.64931      5771.2251     -10806.43     
     11500   298.53091      347.01838      16296.814      1.1670686     -1836.9196      1664.9354     -3501.855       570.77698      753.71593      512.72008     -267.1735       5724.3018     -10809.955    
     12000   307.75729     -59.602746      16258.658      1.1698075     -1848.034       1716.3918     -3564.4259      520.77937      757.78967      486.82258     -262.09072      5724.7241     -10804.292    
     12500   300.56888     -1758.2095      16359.225      1.1626162     -1914.303       1676.3014     -3590.6044      536.29614      714.33458      497.86799     -363.74638      5824.4761     -10812.014    
     13000   290.79547      55.328945      16335.156      1.1643293     -1986.0613      1621.7941     -3607.8554      526.9141       725.82446      491.96066     -307.30644      5748.6962     -10807.039    
     13500   287.00777      1358.4454      16297.17       1.1670431     -1960.5143      1600.6698     -3561.184       536.25817      759.61063      483.70466     -269.61379      5727.8797     -10809.509    
     14000   302.2648       3008.5923      16224.277      1.1722864     -1912.5749      1685.7597     -3598.3345      508.18249      752.56227      483.27564     -262.06446      5720.0291     -10811.083    
     14500   304.40534      217.73422      16237.729      1.1713153     -1902.2297      1697.6977     -3599.9274      523.63616      735.27642      485.99875     -287.44176      5734.8029     -10802.977    
     15000   303.67384     -634.78747      16203.698      1.1737753     -1828.6841      1693.6181     -3522.3021      574.38188      761.05368      491.44568     -326.13457      5772.4468     -10806.869    
     15500   300.13848     -787.34026      16261.647      1.1695925     -1824.1577      1673.901      -3498.0587      550.30292      766.65702      501.6669      -270.33757      5745.5204     -10804.442    
     16000   297.12618      283.68087      16231.87       1.171738      -1880.6967      1657.1011     -3537.7978      568.37854      734.68179      487.14249     -310.75283      5774.7767     -10803.143    
     16500   298.61085     -582.51204      16378.222      1.1612676     -1891.0121      1665.3813     -3556.3933      542.00669      781.89142      468.34224     -297.47789      5739.1674     -10799.658    
     17000   298.62436     -625.36171      16188.595      1.1748703     -1841.6729      1665.4566     -3507.1295      559.67833      789.57884      501.41167     -272.82542      5704.5893     -10801.186    
     17500   311.73108      2703.8095      16226.52       1.1721244     -1814.7549      1738.554      -3553.3089      551.40337      781.48679      479.73273     -270.45069      5701.1157     -10807.746    
     18000   307.33942      1123.2144      16252.649      1.17024       -1877.8939      1714.0613     -3591.9552      562.38169      712.5825       466.76197     -315.0547       5767.4371     -10796.23     
     18500   295.55325      1576.9477      15998.207      1.1888519     -1933.2606      1648.3287     -3581.5893      532.66149      770.65895      497.40497     -272.67261      5685.0419     -10806.621    
     19000   303.37684      1191.5773      16225.544      1.1721949     -1905.0482      1691.9616     -3597.0099      541.8175       739.52896      493.86345     -313.14175      5728.5768     -10799.153    
     19500   293.55614      72.684901      16236.924      1.1713733     -1921.4176      1637.1907     -3558.6082      560.2561       778.84632      509.95373     -326.5883       5713.1856     -10806.61     
     20000   296.49361     -82.40709       16077.518      1.1829873     -1958.2903      1653.5732     -3611.8634      542.20582      768.27679      484.78086     -323.23063      5711.1837     -10806.885    
     20500   301.40369      738.34192      16208.155      1.1734524     -1906.5949      1680.9572     -3587.5521      541.49888      764.55253      459.18831     -299.73685      5745.2084     -10808.7      
     21000   308.12715      1210.0361      16170.388      1.1761932     -1887.2574      1718.4546     -3605.712       568.60191      735.91456      478.75177     -321.84366      5729.2949     -10807.112    
     21500   295.08277     -523.76385      16040.742      1.1856995     -1959.8959      1645.7048     -3605.6008      550.73176      758.10295      499.27584     -281.3989       5665.6552     -10809.212    
     22000   293.75434      194.20219      16177.412      1.1756825     -1981.1084      1638.296      -3619.4045      537.19917      771.91413      468.41894     -300.87098      5691.6596     -10798.605    
     22500   288.6169      -1443.8505      15999.035      1.1887904     -2003.9311      1609.644      -3613.5751      556.37863      762.75667      482.30286     -313.13737      5690.5395     -10804.135    
     23000   300.27594      1527.6243      16148.479      1.1777889     -1919.1889      1674.6676     -3593.8566      526.28195      787.3636       495.42773     -306.78544      5692.4136     -10800.362    
     23500   303.5779      -81.364349      16041.829      1.1856192     -1926.4517      1693.0829     -3619.5347      532.57569      759.44143      476.64028     -329.52883      5733.4639     -10803.47     
     24000   289.38099     -2929.0899      16111.09       1.1805222     -1943.7775      1613.9054     -3557.6829      568.91412      778.22837      495.27778     -334.14843      5711.3979     -10792.295    
     24500   288.83878      4230.7007      15983.123      1.1899739     -1990.611       1610.8815     -3601.4924      530.12015      798.47125      461.77447     -247.33526      5641.9522     -10796.956    
     25000   296.60021      443.8687       15923.154      1.1944555     -1944.596       1654.1677     -3598.7637      545.77277      758.31019      487.27885     -290.46963      5684.5242     -10795.551    
     25500   299.81393     -1480.0909      16174.61       1.1758861     -1895.4398      1672.091      -3567.5308      581.82157      765.08065      488.09959     -315.03039      5690.7786     -10789.684    
     26000   297.92816      1481.9065      16032.846      1.1862834     -1929.6232      1661.5738     -3591.1971      544.52277      803.6514       476.76054     -326.4744       5702.0306     -10803.282    
     26500   290.37144     -3292.4132      16179.235      1.17555       -2030.845       1619.4293     -3650.2743      557.04359      754.64036      476.89485     -328.66114      5672.3309     -10794.908    
     27000   296.27818     -3261.7961      16150.672      1.177629      -1969.6758      1652.3717     -3622.0475      576.98611      747.04921      467.40785     -318.32875      5689.6249     -10795.858    
     27500   298.65514      527.7837       16045.487      1.1853489     -1923.4071      1665.6283     -3589.0353      542.76421      781.42094      477.04457     -295.32981      5703.0638     -10810.032    
     28000   304.56358     -1381.8119      16006.527      1.188234      -1884.9995      1698.5802     -3583.5797      582.44068      766.57838      474.02745     -301.57808      5682.1351     -10798.822    
     28500   299.1265      -1915.0614      16078.134      1.182942      -1943.2077      1668.2571     -3611.4648      568.69383      770.68698      484.52655     -317.9133       5674.7295     -10802.95     
     29000   301.02245     -2058.6407      16097.927      1.1814875     -1903.436       1678.831      -3582.2669      554.15306      792.18576      488.80579     -312.35407      5679.6345     -10796.723    
     29500   307.55134     -2331.921       16198.722      1.1741358     -1893.3741      1715.2432     -3608.6173      549.9878       793.66129      480.73908     -338.32925      5695.9326     -10802.798    
     30000   305.4044       2522.2795      15938.419      1.1933116     -1943.2531      1703.2696     -3646.5227      542.45486      777.41302      479.63229     -297.84458      5639.1114     -10800.711    
     30280   304.88156      1116.3117      16197.417      1.1742304     -1856.2869      1700.3536     -3556.6405      559.22591      806.04664      462.8394      -336.98107      5739.7115     -10796.9      
Loop time of 118.806 on 1 procs for 25000 steps with 1963 atoms

Performance: 18.181 ns/day, 1.320 hours/ns, 210.428 timesteps/s, 413.069 katom-step/s
99.8% CPU use with 1 MPI tasks x 1 OpenMP threads

MPI task timing breakdown:
Section |  min time  |  avg time  |  max time  |%varavg| %total
---------------------------------------------------------------
Pair    | 10.707     | 10.707     | 10.707     |   0.0 |  9.01
Bond    | 16.066     | 16.066     | 16.066     |   0.0 | 13.52
Kspace  | 11.524     | 11.524     | 11.524     |   0.0 |  9.70
Neigh   | 63.552     | 63.552     | 63.552     |   0.0 | 53.49
Comm    | 1.6532     | 1.6532     | 1.6532     |   0.0 |  1.39
Output  | 0.14709    | 0.14709    | 0.14709    |   0.0 |  0.12
Modify  | 14.692     | 14.692     | 14.692     |   0.0 | 12.37
Other   |            | 0.4643     |            |       |  0.39

Nlocal:           1963 ave        1963 max        1963 min
Histogram: 1 0 0 0 0 0 0 0 0 0
Nghost:          12554 ave       12554 max       12554 min
Histogram: 1 0 0 0 0 0 0 0 0 0
Neighs:              0 ave           0 max           0 min
Histogram: 1 0 0 0 0 0 0 0 0 0
FullNghs:  1.72315e+06 ave 1.72315e+06 max 1.72315e+06 min
Histogram: 1 0 0 0 0 0 0 0 0 0

Total # of neighbors = 1723146
Ave neighs/atom = 877.81253
Ave special neighs/atom = 9.5904228
Neighbor list builds = 1094
Dangerous builds = 0

variable        dens equal density
variable        vol_ equal vol
fix             avg all ave/time 500 10 5000 v_dens v_vol_ file density.dat
run             25000
PPPM initialization ...
  using 12-bit tables for long-range coulomb
  G vector (1/distance) = 0.25638346
  grid = 12 12 12
  stencil order = 5
  estimated absolute RMS force accuracy = 0.016709359
  estimated relative force accuracy = 5.031974e-05
  using double precision KISS FFT
  3d grid and FFT values/proc = 4913 1728
Generated 45 of 45 mixed pair_coeff terms from arithmetic mixing rule
Per MPI rank memory allocation (min/avg/max) = 32.16 | 32.16 | 32.16 Mbytes
   Step          Temp          Press          Volume        Density         TotEng         KinEng         PotEng         E_bond        E_angle        E_dihed         E_vdwl         E_coul         E_long    
     30280   304.88156      1137.8479      16197.417      1.1742304     -1856.2888      1700.3536     -3556.6425      559.22591      806.04664      462.8394      -336.98108      5732.2001     -10789.39     
     30500   302.62529     -1116.9088      16116.407      1.1801328     -1935.8846      1687.7702     -3623.6547      571.39394      771.55042      493.27112     -336.28619      5659.936      -10796.722    
     31000   306.50447     -680.55456      16112.281      1.180435      -1875.0589      1709.4047     -3584.4636      566.40389      784.26901      497.55533     -313.24795      5662.5001     -10794.66     
     31500   308.90251      1724.8578      16029.087      1.1865617     -1950.346       1722.7789     -3673.1248      531.68689      768.16583      472.51633     -297.05634      5632.4515     -10792.864    
     32000   293.72233     -1225.2854      15957.791      1.1918629     -1934.5664      1638.1175     -3572.6838      566.99194      797.45438      481.37294     -310.97662      5678.1793     -10797.133    
     32500   312.83178      285.31238      16105.14       1.1809583     -1886.0866      1744.6928     -3630.7794      586.03669      762.3278       469.49673     -323.11005      5659.397      -10796.717    
     33000   302.98675     -1401.5085      15970.063      1.1909471     -1945.3347      1689.7861     -3635.1208      544.99351      780.80399      476.33668     -322.86757      5675.0124     -10802.198    
     33500   297.63866      2678.7437      16061.444      1.1841712     -1946.7649      1659.9593     -3606.7241      567.42081      777.07783      466.44781     -281.51338      5632.3937     -10778.822    
     34000   306.92462      268.5411       16031.52       1.1863815     -1907.7536      1711.748      -3619.5015      579.69027      742.23113      471.7763      -339.93164      5711.2349     -10795.865    
     34500   308.20476      1670.3404      16016.879      1.187466      -1914.4239      1718.8874     -3633.3114      535.85663      746.27355      472.50067     -322.26782      5722.3115     -10798.288    
     35000   298.85782     -699.02166      16149.846      1.1776892     -1911.0324      1666.7586     -3577.791       564.75527      791.0202       462.96089     -327.00249      5716.9061     -10796.577    
     35500   295.55953      4015.2746      16057.943      1.1844294     -1966.0661      1648.3638     -3614.4298      553.87329      770.22407      480.38509     -251.528        5623.3027     -10801.451    
     36000   300.816        345.6011       16025.687      1.1868134     -1957.1391      1677.6796     -3634.8187      563.54005      745.85622      481.79224     -269.52856      5624.3759     -10793.019    
     36500   307.95396     -1351.1038      16046.866      1.185247      -1859.2465      1717.4887     -3576.7352      590.57763      762.64396      495.80166     -350.80231      5712.338      -10799.403    
     37000   302.80537      2539.1558      15945.026      1.1928171     -1874.2621      1688.7745     -3563.0366      566.54397      784.66937      490.5714      -355.95955      5737.5109     -10799.734    
     37500   306.88694     -891.0539       16061.339      1.1841789     -1916.2241      1711.5378     -3627.762       561.11426      797.04317      471.24977     -312.97059      5639.3848     -10794.967    
     38000   299.35236      780.63573      16009.028      1.1880483     -1927.5068      1669.5167     -3597.0235      558.51649      796.56699      470.89466     -326.31098      5689.13       -10797.411    
     38500   306.87141     -1165.6382      16023.658      1.1869636     -1882.6276      1711.4512     -3594.0788      583.94423      787.00878      492.04677     -293.11344      5622.0229     -10798.185    
     39000   306.35438      3309.874       16137.062      1.1786222     -1931.1609      1708.5677     -3639.7286      536.37999      770.42003      476.91352     -298.0698       5658.4748     -10795.343    
     39500   305.50318     -639.64926      15989.985      1.1894633     -1968.6526      1703.8205     -3672.473       553.63787      748.93446      477.30761     -328.59061      5659.6226     -10795.427    
     40000   303.39055      1258.5659      16043.853      1.1854695     -1938.9316      1692.0381     -3630.9697      557.34606      780.84345      473.79482     -344.78614      5682.6806     -10792.064    
     40500   289.74845     -6.3388018      16031.875      1.1863553     -2001.8946      1615.9548     -3617.8494      549.62793      787.98715      490.69397     -290.55732      5631.404      -10799.751    
     41000   302.42337     -251.82981      16119.326      1.179919      -1899.7152      1686.6441     -3586.3593      559.16965      791.90436      466.77028     -360.96862      5740.0877     -10795.105    
     41500   301.83164     -911.13245      16012.548      1.1877872     -1936.3231      1683.3439     -3619.667       569.50782      761.12076      468.15537     -310.21877      5678.3017     -10796.282    
     42000   295.71781      1826.4871      15941.916      1.1930498     -2030.1941      1649.2465     -3679.4406      541.38094      756.74953      459.95506     -309.73606      5657.2731     -10795.382    
     42500   300.53364     -945.12568      16072.268      1.1833737     -1968.4386      1676.1048     -3644.5434      566.27333      763.95933      463.09191     -336.95372      5680.0124     -10792.464    
     43000   298.26377     -668.82307      16047.768      1.1851804     -1948.3779      1663.4456     -3611.8235      576.17962      760.50483      465.84348     -291.35556      5659.9148     -10794.83     
     43500   306.55044      754.68373      16004.188      1.1884076     -1905.73        1709.6611     -3615.3911      569.54151      785.42129      481.52642     -334.30152      5671.366      -10799.087    
     44000   303.49004     -201.46879      15988.669      1.1895612     -1880.5778      1692.593      -3573.1708      570.85081      780.49337      481.58825     -336.26996      5712.0627     -10794.64     
     44500   304.1237      -451.57163      15930.71       1.193889      -1907.8816      1696.127      -3604.0086      587.71035      777.16635      481.92328     -288.72157      5624.2571     -10799.135    
     45000   295.34774      28.77747       16123.625      1.1796044     -1990.2358      1647.1826     -3637.4184      552.89433      768.31241      446.14938     -312.00505      5697.0413     -10800.133    
     45500   300.77845      1760.0974      16128.84       1.1792231     -1962.8602      1677.4702     -3640.3304      570.45832      782.59481      464.6558      -329.86323      5662.2721     -10801.751    
     46000   302.69178     -1877.8811      16012.608      1.1877828     -1967.4878      1688.141      -3655.6288      584.61621      732.32021      473.04287     -334.18812      5680.7434     -10803.003    
     46500   302.3953      -419.75023      15983.946      1.1899126     -1893.2824      1686.4875     -3579.7699      576.18379      807.95041      474.46726     -354.36233      5699.8644     -10795.496    
     47000   298.53782     -2401.7881      16251.332      1.1703348     -1907.9451      1664.974      -3572.9191      594.31376      765.68858      489.52506     -322.42628      5681.9235     -10794.632    
     47500   297.69745     -2189.7395      16047.37       1.1852097     -1965.522       1660.2871     -3625.8091      563.31579      778.02757      490.40526     -360.88863      5680.9916     -10789.185    
     48000   298.24658     -2502.0418      16027.546      1.1866757     -1997.771       1663.3497     -3661.1208      552.65643      788.12187      478.46123     -327.26137      5628.6709     -10793.679    
     48500   301.91388     -614.37179      16130.304      1.179116      -1884.5944      1683.8026     -3568.397       595.45525      792.55537      470.75559     -320.06976      5679.9362     -10797.611    
     49000   308.51833     -1910.448       16010.438      1.1879437     -1905.312       1720.6362     -3625.9483      593.00654      760.52904      471.52986     -361.83033      5703.7197     -10802.299    
     49500   303.78686      2550.2062      15928.961      1.1940201     -1968.0608      1694.2483     -3662.3092      557.47717      768.46137      467.13757     -289.92974      5619.7891     -10796.001    
     50000   298.53123      1446.3192      15986.839      1.1896973     -1961.8985      1664.9372     -3626.8357      593.81922      769.64104      463.85687     -284.37906      5602.3059     -10783.109    
     50500   304.37013      1237.8932      15892.136      1.1967869     -2006.0819      1697.5013     -3703.5832      554.17067      758.57209      472.11526     -329.07057      5629.3148     -10799.135    
     51000   294.2117      -614.14213      16012.945      1.1877578     -2059.01        1640.8468     -3699.8568      587.49305      741.65633      477.85311     -262.31371      5539.7975     -10796.26     
     51500   302.33386     -2990.3973      16027.509      1.1866785     -1944.3689      1686.1448     -3630.5138      559.28828      789.47401      477.36005     -358.64021      5689.1695     -10798.419    
     52000   299.9248      -622.85274      15969.867      1.1909617     -1996.5933      1672.7093     -3669.3026      557.3101       773.65832      478.79284     -294.57267      5595.6843     -10792.375    
     52500   304.64053     -1271.4482      16126.301      1.1794087     -1937.1199      1699.0094     -3636.1292      579.54853      772.63416      479.10348     -321.14304      5634.0741     -10792.299    
     53000   309.69388      621.14875      15993.188      1.189225      -1830.1798      1727.1924     -3557.3721      597.58021      814.5971       472.73551     -323.35898      5665.4452     -10795.641    
     53500   304.55138      836.29903      15923.948      1.194396      -1977.4412      1698.5121     -3675.9534      537.02761      768.6749       469.63278     -357.3934       5693.1607     -10798.666    
     54000   297.54138     -1239.4624      15979.319      1.1902572     -2010.9934      1659.4167     -3670.4101      569.2678       759.71093      477.69603     -349.25304      5663.7758     -10802.793    
     54500   297.88511      1121.6791      16010.538      1.1879363     -2041.4625      1661.3337     -3702.7963      535.59648      753.35331      468.8794      -349.20838      5671.2668     -10793.32     
     55000   297.70681     -288.02173      15977.523      1.190391      -2021.5161      1660.3394     -3681.8555      580.24106      726.48354      486.56368     -308.3715       5616.8072     -10794.965    
     55280   295.59092     -734.97582      15948.277      1.1925739     -2025.5222      1648.5388     -3674.061       569.57431      758.10435      454.83858     -309.30082      5639.7664     -10797.774    
Loop time of 115.033 on 1 procs for 25000 steps with 1963 atoms

Performance: 18.777 ns/day, 1.278 hours/ns, 217.329 timesteps/s, 426.617 katom-step/s
99.8% CPU use with 1 MPI tasks x 1 OpenMP threads

MPI task timing breakdown:
Section |  min time  |  avg time  |  max time  |%varavg| %total
---------------------------------------------------------------
Pair    | 10.401     | 10.401     | 10.401     |   0.0 |  9.04
Bond    | 16.051     | 16.051     | 16.051     |   0.0 | 13.95
Kspace  | 11.467     | 11.467     | 11.467     |   0.0 |  9.97
Neigh   | 60.119     | 60.119     | 60.119     |   0.0 | 52.26
Comm    | 1.6511     | 1.6511     | 1.6511     |   0.0 |  1.44
Output  | 0.14533    | 0.14533    | 0.14533    |   0.0 |  0.13
Modify  | 14.734     | 14.734     | 14.734     |   0.0 | 12.81
Other   |            | 0.4637     |            |       |  0.40

Nlocal:           1963 ave        1963 max        1963 min
Histogram: 1 0 0 0 0 0 0 0 0 0
Nghost:          12671 ave       12671 max       12671 min
Histogram: 1 0 0 0 0 0 0 0 0 0
Neighs:              0 ave           0 max           0 min
Histogram: 1 0 0 0 0 0 0 0 0 0
FullNghs:  1.74697e+06 ave 1.74697e+06 max 1.74697e+06 min
Histogram: 1 0 0 0 0 0 0 0 0 0

Total # of neighbors = 1746966
Ave neighs/atom = 889.94702
Ave special neighs/atom = 9.5904228
Neighbor list builds = 1034
Dangerous builds = 0

# ------------------------------------------------------------- chemical pot ---
# Widom insertion of a test water into the swollen membrane, to be compared with
# the same quantity in bulk water. The comparison is only meaningful if both
# sides use identical cutoff, kspace accuracy and water model -- see bulk.in.j2.
#
# The test particle is inserted but never kept, so this measures the free energy
# the *next* water would pay, which is exactly the saturation question.
molecule        h2o h2o.mol
Read molecule template h2o:
# Rigid water for Widom test insertions.
  1 molecules
  0 fragments
  0 bodies
  3 atoms with max type 10
  2 bonds with max type 9
  1 angles with max type 14
  0 dihedrals with max type 0
  0 impropers with max type 0
fix             w all widom 100 400 0 87235 300.0 mol h2o full_energy
WARNING: Molecule attributes do not match system attributes
For more information see https://docs.lammps.org/err0026 (src/molecule.cpp:3634)
variable        muex equal f_w[1]
variable        boltz equal f_w[2]
variable        wvol equal f_w[3]
# Preserve one observation per Widom burst.  Python groups this raw time series
# into contiguous blocks; averaging a whole block here leaves only n_blocks
# values and makes the effective-sample-size diagnostic impossible.
fix             muavg all ave/time 100 1 100 v_muex v_boltz v_wvol file mu.dat
run             50000
PPPM initialization ...
  using 12-bit tables for long-range coulomb
  G vector (1/distance) = 0.25683242
  grid = 12 12 12
  stencil order = 5
  estimated absolute RMS force accuracy = 0.016455653
  estimated relative force accuracy = 4.9555711e-05
  using double precision KISS FFT
  3d grid and FFT values/proc = 4913 1728
Generated 45 of 45 mixed pair_coeff terms from arithmetic mixing rule
0 atoms in group FixWidom:widom_exclusion_group:w
0 atoms in group FixWidom:rotation_gas_atoms:w
WARNING: Neighbor exclusions used with KSpace solver may give inconsistent Coulombic energies (src/neighbor.cpp:671)
Per MPI rank memory allocation (min/avg/max) = 32.16 | 32.16 | 32.16 Mbytes
   Step          Temp          Press          Volume        Density         TotEng         KinEng         PotEng         E_bond        E_angle        E_dihed         E_vdwl         E_coul         E_long    
     55280   295.59092     -743.41593      15948.277      1.1925739     -2025.5261      1648.5388     -3674.065       569.57431      758.10435      454.83858     -309.30082      5658.1735     -10816.186    
     55500   308.62048     -1116.8614      15972.264      1.1907829     -1919.4104      1721.2059     -3640.6163      560.12025      785.06221      473.67531     -349.00443      5693.365      -10816.48     
     56000   290.08398     -2943.9129      16026.11       1.1867821     -1971.4831      1617.8261     -3589.3092      596.91296      791.14512      484.53566     -343.47836      5686.1576     -10816.656    
     56500   282.29671      1521.2585      15956.91       1.1919288     -2048.7962      1574.3957     -3623.1919      562.61622      792.54854      465.76309     -294.13969      5654.773      -10815.855    
     57000   289.57002      117.17079      16024.239      1.1869206     -2022.3522      1614.9597     -3637.3119      553.92546      766.55851      484.73716     -340.13882      5697.5531     -10812.086    
     57500   298.46376     -1684.9732      16117.861      1.1800263     -1966.9122      1664.5609     -3631.4731      592.68173      742.95214      483.48503     -317.76328      5662.0235     -10807.18     
     58000   296.03939      1687.2241      16007.666      1.1881495     -1984.9364      1651.04       -3635.9764      557.88085      752.82337      477.64823     -294.24457      5667.5724     -10808.981    
     58500   313.22997      152.43569      15975.356      1.1905524     -1934.3612      1746.9135     -3681.2747      562.9584       734.7389       487.8545      -297.90644      5641.5619     -10820.879    
     59000   302.23559      2225.6558      16059.598      1.1843073     -1954.1943      1685.5968     -3639.7911      544.28308      755.75235      507.38596     -305.00636      5655.5318     -10811.45     
     59500   296.92821      2767.6422      15932.021      1.1937908     -1975.7746      1655.997      -3631.7716      544.59884      784.29243      467.57176     -299.29037      5679.0294     -10818.028    
     60000   295.84471     -618.98882      15952.918      1.192227      -2032.8859      1649.9542     -3682.8401      576.8484       735.10348      465.35943     -305.5636       5652.9114     -10818.288    
     60500   296.7732      -199.77869      16039.81       1.1857684     -1951.1056      1655.1325     -3606.2381      570.67208      760.99558      474.7806      -301.88058      5683.5811     -10805.241    
     61000   304.00108      1735.3962      16117.111      1.1800812     -1938.1214      1695.4431     -3633.5645      572.12109      760.65677      478.28331     -299.35821      5649.6528     -10807.252    
     61500   311.91419      1969.8373      15913.619      1.1951712     -1956.273       1739.5753     -3695.8483      546.76675      738.78385      463.90515     -260.32282      5618.567      -10813.506    
     62000   305.66957      4117.229       15913.051      1.1952139     -1894.4924      1704.7484     -3599.2409      553.53736      798.76969      467.30755     -280.33713      5665.9166     -10814.975    
     62500   297.50221      1622.8316      15925.527      1.1942776     -1900.057       1659.1983     -3559.2552      579.57322      793.65148      473.98135     -285.31407      5674.9362     -10806.55     
     63000   297.97799      473.21988      16046.135      1.185301      -1984.6122      1661.8517     -3646.4639      533.51911      769.21348      469.78464     -325.54951      5703.2463     -10808.518    
     63500   298.08649     -480.20053      16039.208      1.1858129     -1973.6212      1662.4568     -3636.0781      562.64073      775.55253      489.76263     -306.11982      5646.0431     -10815.454    
     64000   308.798       -989.07453      15944.629      1.1928468     -1952.0802      1722.196      -3674.2762      551.08545      754.4899       476.65037     -314.88071      5665.0243     -10818.197    
     64500   291.05197     -660.72376      16008.887      1.1880588     -2014.587       1623.2247     -3637.8117      555.04102      760.51706      492.52347     -310.57341      5670.2827     -10817.246    
     65000   300.52234      3094.2835      15916.124      1.1949831     -1977.6184      1676.0418     -3653.6602      557.43939      746.07327      476.54161     -310.23365      5683.0684     -10818.298    
     65500   303.40738     -2042.5999      16019.226      1.1872921     -1903.0106      1692.132      -3595.1425      566.5659       792.86639      472.48634     -352.488        5729.1459     -10815.814    
     66000   304.6273      -685.49038      16010.092      1.1879694     -1972.0024      1698.9356     -3670.9379      566.92343      759.17285      477.3891      -331.44182      5658.277      -10813.83     
     66500   307.14671     -868.68364      16005.726      1.1882935     -1960.7582      1712.9866     -3673.7448      543.7311       752.69516      496.11308     -331.52256      5659.8292     -10808.163    
     67000   308.314        997.46413      15956.166      1.1919843     -1897.6142      1719.4966     -3617.1108      559.13476      786.64269      491.98208     -316.3217       5664.5528     -10816.644    
     67500   308.84128     -364.95948      16091.154      1.1819848     -1914.2972      1722.4373     -3636.7345      580.58561      761.16116      486.70633     -290.78395      5627.5409     -10815.477    
     68000   307.25594     -1275.7321      15986.45       1.1897263     -1942.9536      1713.5957     -3656.5494      590.64742      727.02368      484.74031     -349.04443      5686.7738     -10808.89     
     68500   292.39844     -1467.9216      16047.82       1.1851765     -2050.8864      1630.734      -3681.6205      528.53496      759.56226      472.55285     -295.2276       5652.4017     -10811.188    
     69000   299.51805      1760.3106      15904.941      1.1958233     -1972.9503      1670.4408     -3643.3911      515.32713      795.66207      474.33939     -284.26737      5662.5676     -10818.603    
     69500   307.76502      937.03774      16000.107      1.1887108     -1928.047       1716.435      -3644.4819      546.48741      767.38921      496.88677     -326.18538      5677.2951     -10817.971    
     70000   298.50361     -1290.8942      16012.602      1.1877832     -1941.0141      1664.7832     -3605.7972      599.14519      754.40246      467.73447     -293.8143       5666.9771     -10810.775    
     70500   294.12442      692.56022      16013.458      1.1877197     -1993.4266      1640.36       -3633.7867      557.061        779.17744      486.24793     -296.67567      5639.5867     -10811.32     
     71000   304.97611      3048.1358      16003.543      1.1884556     -1975.4624      1700.8809     -3676.3433      533.12172      755.03927      461.38669     -289.33954      5664.4987     -10811.886    
     71500   305.01173     -775.9149       16115.365      1.180209      -1912.5792      1701.0796     -3613.6588      601.74098      744.19891      450.09755     -322.44212      5724.1116     -10821.539    
     72000   304.49076     -870.26746      15999.189      1.188779      -1926.8476      1698.1741     -3625.0217      543.04548      759.12891      484.00451     -299.61581      5689.7039     -10812.538    
     72500   297.14095      538.98965      15956.773      1.191939      -1969.3721      1657.1835     -3626.5556      546.8417       745.52202      480.10913     -300.49742      5709.7268     -10818.832    
     73000   299.24681      613.23588      16134.344      1.1788207     -1989.4811      1668.9281     -3658.4091      537.02248      736.44576      468.42473     -329.63899      5732.2576     -10814.493    
     73500   298.92841      2539.3345      16096.713      1.1815766     -2011.1401      1667.1523     -3678.2924      536.13867      726.53929      465.88687     -245.38205      5644.8204     -10817.191    
     74000   295.88746      909.73315      15923.556      1.1944254     -1973.8472      1650.1927     -3624.0398      557.71647      776.58581      487.57271     -302.61994      5662.0948     -10817.348    
     74500   292.3557       55.061683      16149.498      1.1777146     -1950.4069      1630.4957     -3580.9026      580.55895      770.00213      480.63038     -325.75775      5712.0324     -10810.808    
     75000   300.19455      1355.0959      16063.747      1.1840014     -2000.303       1674.2137     -3674.5168      546.07852      750.48427      488.62157     -295.89274      5642.3997     -10817.022    
     75500   297.57888      1666.5997      16026.743      1.1867352     -2013.9313      1659.6258     -3673.5571      537.70298      756.29073      500.39804     -267.92606      5601.347      -10813.021    
     76000   305.57805      1645.0956      16135.209      1.1787576     -1904.3419      1704.238      -3608.5799      526.84049      817.53112      477.36507     -260.8421       5626.8772     -10806.398    
     76500   290.64075      591.33508      15916.652      1.1949435     -2034.2425      1620.9312     -3655.1738      550.69608      780.84655      460.43864     -277.2455       5632.8217     -10814.902    
     77000   302.92348      628.68707      15989.313      1.1895132     -1984.0399      1689.4332     -3673.4731      538.77312      769.25899      466.69878     -288.06904      5639.5666     -10810.377    
     77500   302.49912     -2116.0012      16006.046      1.1882697     -1933.5115      1687.0665     -3620.578       566.50058      805.52572      476.41879     -290.95174      5624.8568     -10814.514    
     78000   301.25342      3193.5177      15914.11       1.1951344     -1951.9971      1680.1191     -3632.1162      560.03036      797.87635      482.20823     -330.64468      5659.3632     -10811.452    
     78500   299.02041      1890.1427      15860.301      1.1991891     -1964.6581      1667.6654     -3632.3235      552.39031      768.10577      492.18397     -328.81725      5687.3396     -10816.281    
     79000   297.61795     -2858.2609      16082.362      1.182631      -1984.866       1659.8438     -3644.7098      557.69447      750.61079      480.26688     -370.42205      5730.4991     -10804.92     
     79500   298.27635     -632.92758      15962.043      1.1915455     -2008.2743      1663.5157     -3671.79        538.32477      782.44652      463.65247     -338.8093       5677.4184     -10806.94     
     80000   300.61688      2252.2157      15868.675      1.1985562     -1991.6805      1676.5691     -3668.2496      557.12182      766.83114      476.96042     -280.6738       5614.984      -10814.575    
     80500   307.67163      2337.2094      15947.573      1.1926266     -1830.1061      1715.9141     -3546.0202      566.92682      822.31605      475.84292     -332.03394      5723.7336     -10814.357    
     81000   295.26014     -131.84294      16041.452      1.185647      -1976.12        1646.694      -3622.814       566.89775      786.38784      467.22833     -359.82215      5712.8465     -10808.109    
     81500   298.34865      791.97431      15916.473      1.1949569     -1987.1924      1663.919      -3651.1114      566.48177      763.64757      484.24472     -292.06105      5626.7747     -10811.719    
     82000   307.94787      1979.7318      16084.34       1.1824856     -1909.2703      1717.4547     -3626.725       558.36007      779.62341      462.29675     -333.9975       5710.2904     -10812.544    
     82500   297.03541     -1452.9358      16086.466      1.1823293     -1957.672       1656.5949     -3614.2669      582.58877      776.10832      470.03225     -276.66833      5629.2671     -10806.045    
     83000   297.21155      99.694035      15977.512      1.1903918     -2014.8713      1657.5773     -3672.4486      558.72116      733.74392      481.73088     -309.57793      5662.1231     -10812.026    
     83500   292.96555     -168.83252      16066.961      1.1837646     -1963.2762      1633.8969     -3597.173       543.05714      808.20043      475.38103     -327.4509       5702.3762     -10811.337    
     84000   302.30781      616.8761       15828.714      1.2015821     -1929.6071      1685.9995     -3615.6067      555.37858      786.83623      474.25686     -307.90534      5677.6852     -10812.729    
     84500   303.01793     -1457.345       16003.827      1.1884345     -1929.9436      1689.96       -3619.9036      571.8812       796.13986      474.49284     -279.22144      5617.0229     -10811.287    
     85000   304.2564      -1889.1287      15932.438      1.1937595     -1931.2309      1696.867      -3628.098       544.42136      787.9456       486.07711     -335.71368      5691.6346     -10814.139    
     85500   304.6469       1680.7603      16080.713      1.1827523     -1975.0873      1699.0449     -3674.1321      516.80559      784.45094      476.44115     -356.90391      5711.144      -10817.411    
     86000   292.1217      -7.0613573      15854.842      1.199602      -2046.5791      1629.1907     -3675.7698      570.30747      746.41941      482.04862     -295.12533      5621.9364     -10813.261    
     86500   300.97623      350.81923      15972.916      1.1907343     -1940.5725      1678.5732     -3619.1457      572.97082      754.78296      480.77311     -268.12205      5643.4786     -10816.512    
     87000   303.22907      925.47259      15912.778      1.1952344     -1922.0622      1691.1375     -3613.1997      563.29954      782.46291      495.12666     -317.97625      5659.1005     -10808.078    
     87500   306.20031      2142.0232      15901.025      1.1961179     -1897.6513      1707.7084     -3605.3597      576.09852      778.24289      494.58989     -317.62804      5674.9321     -10824.005    
     88000   305.78102      1954.7647      15819.093      1.2023129     -1905.2156      1705.37       -3610.5856      562.75104      762.83531      530.31879     -308.5046       5646.3619     -10819.563    
     88500   299.11377     -1717.5832      16053.967      1.1847227     -2014.4588      1668.1861     -3682.6449      555.89901      766.95017      473.29075     -374.96908      5703.0883     -10818.754    
     89000   291.17902     -1843.4311      15977.439      1.1903973     -2059.289       1623.9332     -3683.2223      548.41712      765.90571      474.77398     -314.9944       5648.9568     -10816.934    
     89500   301.75834     -477.16385      15939.785      1.1932093     -1970.4958      1682.9351     -3653.4309      566.29342      763.57243      482.21323     -310.38969      5634.9846     -10803.259    
     90000   298.5885       90.791163      15942.768      1.192986      -1919.4444      1665.2566     -3584.7011      580.60643      786.49813      476.30216     -265.81797      5642.091      -10814.648    
     90500   301.47169      899.00641      15975.264      1.1905593     -1944.6062      1681.3365     -3625.9427      553.33995      768.65115      496.58436     -284.3921       5635.6378     -10808.383    
     91000   291.49165     -241.78197      15989.647      1.1894884     -2014.7279      1625.6768     -3640.4047      568.18867      765.53001      475.58838     -323.37011      5677.4048     -10815.069    
     91500   302.77652     -116.09719      15824.25       1.2019211     -1975.9984      1688.6136     -3664.612       562.10141      755.67629      466.16226     -312.1889       5665.8842     -10814.216    
     92000   312.00113      24.940659      15982.627      1.1900109     -1860.2584      1740.0602     -3600.3185      566.5577       792.25163      471.35271     -335.15473      5712.7752     -10818.097    
     92500   301.97953     -2107.0065      15966.093      1.1912432     -1945.578       1684.1687     -3629.7467      590.5746       768.196        482.63855     -347.81367      5680.7261     -10815.23     
     93000   288.42754      2535.1467      15914.6        1.1950975     -1982.4073      1608.5879     -3590.9953      570.44174      787.71027      474.3284      -259.78699      5636.7915     -10811.946    
     93500   292.81072      248.52509      15838.536      1.200837      -2044.7274      1633.0334     -3677.7608      557.94998      769.7478       473.47551     -319.05334      5646.1578     -10817.952    
     94000   296.98148     -227.08928      15899.559      1.1962281     -2050.4246      1656.2941     -3706.7187      544.53812      720.08641      475.17688     -291.0538       5641.9142     -10808.793    
     94500   303.10704      1202.5767      15890.931      1.1968776     -2006.706       1690.4569     -3697.1629      532.90537      737.79974      468.00332     -341.9885       5705.3933     -10812.033    
     95000   308.45717     -1869.6208      15890.818      1.1968861     -1958.4741      1720.2951     -3678.7692      568.27676      747.1046       479.80103     -319.25011      5648.6722     -10815.719    
     95500   304.23233     -4939.1192      16130.686      1.1790881     -1912.9042      1696.7328     -3609.637       585.25805      786.46627      475.74436     -357.19787      5701.9636     -10814.566    
     96000   301.66336      193.90135      15896.215      1.1964798     -1993.4364      1682.4054     -3675.8418      546.00628      795.08403      458.771       -355.17439      5679.6951     -10811.47     
     96500   302.19352     -964.88107      15793.715      1.2042448     -1979.2019      1685.3621     -3664.564       574.01783      767.68259      471.45413     -339.97337      5661.6978     -10811.727    
     97000   304.06232      921.16403      15951.675      1.1923199     -1951.3682      1695.7846     -3647.1528      561.87286      759.45802      486.22544     -321.59029      5676.5403     -10820.945    
     97500   301.61347     -768.37395      15848.194      1.2001052     -1987.9792      1682.1272     -3670.1063      576.65376      747.30327      478.06985     -356.72392      5688.178      -10813.141    
     98000   304.71284     -736.57025      16008.1        1.1881172     -1920.2054      1699.4126     -3619.618       563.01731      801.46042      470.78435     -352.17246      5694.5634     -10808.989    
     98500   303.52041      1085.3395      15932.602      1.1937472     -1986.0329      1692.7624     -3678.7953      548.41763      769.37033      461.72499     -340.61137      5689.7203     -10817.717    
     99000   305.09487     -2809.1593      15976.147      1.1904936     -1944.4788      1701.5432     -3646.0221      584.25282      806.06695      467.39487     -323.71164      5624.9443     -10815.919    
     99500   310.37396     -757.28505      16006.791      1.1882144     -1917.5531      1730.9853     -3648.5383      582.16955      766.08159      484.09206     -336.70579      5657.4502     -10813.306    
    100000   305.81873      479.63196      15865.019      1.1988324     -1969.753       1705.5803     -3675.3333      531.76106      787.59929      477.79469     -299.09899      5633.2517     -10818.858    
    100500   295.14166     -84.612902      15939.515      1.1932295     -1995.8978      1646.0332     -3641.9311      570.10217      773.05024      493.52898     -320.98459      5645.6467     -10816.791    
    101000   296.16407      702.82172      15876.678      1.1979521     -2060.1259      1651.7353     -3711.8612      553.36569      756.99846      475.60233     -335.53347      5647.254      -10819.683    
    101500   302.12146      296.11831      15845.503      1.200309      -2047.0707      1684.9603     -3732.031       529.57863      775.96507      459.63912     -317.36294      5623.3456     -10814.425    
    102000   299.24258      1724.6537      15950.534      1.1924052     -1956.1478      1668.9045     -3625.0522      573.15513      793.25465      455.08976     -288.23845      5641.6552     -10810.242    
    102500   304.3353       755.97948      15835.542      1.201064      -1972.0388      1697.3071     -3669.3459      545.13517      789.38407      480.3876      -302.77378      5624.4841     -10816.763    
    103000   297.60147     -2.4653274      15843.944      1.2004271     -2019.6407      1659.7518     -3679.3925      579.80265      762.39993      456.72243     -276.91458      5596.3545     -10808.046    
    103500   297.8656      -2284.2276      15957.618      1.1918758     -2036.054       1661.2249     -3697.2789      555.17372      776.07345      455.24961     -355.29854      5676.7522     -10814.783    
    104000   305.12533     -2405.6625      15999.115      1.1887845     -2019.204       1701.7131     -3720.9171      536.33023      772.60298      472.34679     -355.13823      5661.4321     -10819.26     
    104500   302.92725     -2349.911       15860.509      1.1991733     -2004.8056      1689.4542     -3694.2598      559.59492      796.84445      461.23524     -367.27248      5661.0329     -10817.27     
    105000   306.69773     -1565.0274      15886.821      1.1971872     -1956.358       1710.4826     -3666.8405      571.69349      783.08836      460.65047     -349.05448      5672.7599     -10816.274    
    105280   299.93396      677.12007      15927.205      1.1941518     -1998.9034      1672.7603     -3671.6638      583.69007      738.7158       470.73622     -295.89896      5631.469      -10811.378    
Loop time of 25032.1 on 1 procs for 50000 steps with 1963 atoms

Performance: 0.173 ns/day, 139.067 hours/ns, 1.997 timesteps/s, 3.921 katom-step/s
100.0% CPU use with 1 MPI tasks x 1 OpenMP threads

MPI task timing breakdown:
Section |  min time  |  avg time  |  max time  |%varavg| %total
---------------------------------------------------------------
Pair    | 36.888     | 36.888     | 36.888     |   0.0 |  0.15
Bond    | 32.243     | 32.243     | 32.243     |   0.0 |  0.13
Kspace  | 23.057     | 23.057     | 23.057     |   0.0 |  0.09
Neigh   | 263.32     | 263.32     | 263.32     |   0.0 |  1.05
Comm    | 3.3735     | 3.3735     | 3.3735     |   0.0 |  0.01
Output  | 0.29695    | 0.29695    | 0.29695    |   0.0 |  0.00
Modify  | 29.854     | 29.854     | 29.854     |   0.0 |  0.12
Other   |            | 2.464e+04  |            |       | 98.45

Nlocal:           1963 ave        1963 max        1963 min
Histogram: 1 0 0 0 0 0 0 0 0 0
Nghost:          12649 ave       12649 max       12649 min
Histogram: 1 0 0 0 0 0 0 0 0 0
Neighs:              0 ave           0 max           0 min
Histogram: 1 0 0 0 0 0 0 0 0 0
FullNghs:  1.74909e+06 ave 1.74909e+06 max 1.74909e+06 min
Histogram: 1 0 0 0 0 0 0 0 0 0

Total # of neighbors = 1749092
Ave neighs/atom = 891.03006
Ave special neighs/atom = 9.5904228
Neighbor list builds = 202812
Dangerous builds = 0
unfix           w
unfix           muavg

# Written WITH coefficients: each stage reads the previous stage's data file, so
# the file has to be self-contained. `nocoeff` would force every downstream stage
# to re-derive the force field, and any drift between the two paths would be
# silent.
write_data      relaxed.data
System init for write_data ...
PPPM initialization ...
  using 12-bit tables for long-range coulomb
  G vector (1/distance) = 0.25687068
  grid = 12 12 12
  stencil order = 5
  estimated absolute RMS force accuracy = 0.016434185
  estimated relative force accuracy = 4.9491059e-05
  using double precision KISS FFT
  3d grid and FFT values/proc = 4913 1728
Generated 45 of 45 mixed pair_coeff terms from arithmetic mixing rule
write_restart   relaxed.restart
System init for write_restart ...
PPPM initialization ...
  using 12-bit tables for long-range coulomb
  G vector (1/distance) = 0.25687068
  grid = 12 12 12
  stencil order = 5
  estimated absolute RMS force accuracy = 0.016434185
  estimated relative force accuracy = 4.9491059e-05
  using double precision KISS FFT
  3d grid and FFT values/proc = 4913 1728
Generated 45 of 45 mixed pair_coeff terms from arithmetic mixing rule
Total wall time: 7:01:27
