LAMMPS data file written by aemwater

1963 atoms
1867 bonds
3151 angles
4790 dihedrals
300 impropers

10 atom types
9 bond types
14 angle types
10 dihedral types
1 improper types

0.0 25.248271 xlo xhi
0.0 25.248271 ylo yhi
0.0 25.248271 zlo zhi

Masses

1 12.010000  # c3
2 12.010000  # ca
3 14.010000  # n4
4 1.008000  # hc
5 1.008000  # ha
6 1.008000  # hx
7 15.999400  # O_OH
8 1.008000  # H_OH
9 15.999400  # OW_spce
10 1.008000  # HW_spce

Pair Coeffs # lj/cut/coul/long

1 0.10780000 3.39770953  # c3
2 0.09880000 3.31521231  # ca
3 3.87480000 2.49950544  # n4
4 0.02080000 2.60017700  # hc
5 0.01610000 2.62547852  # ha
6 0.02080000 1.88745802  # hx
7 0.15530000 3.16600000  # O_OH
8 0.00000000 0.00000000  # H_OH
9 0.15530000 3.16600000  # OW_spce
10 0.00000000 0.00000000  # HW_spce

Bond Coeffs # harmonic

1 228.890000 1.535400
2 243.910000 1.514700
3 354.250000 1.398600
4 215.860000 1.516700
5 345.250000 1.096200
6 360.690000 1.086000
7 352.860000 1.091100
8 553.000000 0.980000
9 553.000000 1.000000

Angle Coeffs # harmonic

1 60.330000 112.420048
2 59.870000 112.630048
3 60.740000 120.830052
4 63.670000 120.020052
5 63.530000 115.670050
6 76.020000 109.360047
7 43.270000 109.680047
8 43.610000 110.630047
9 44.900000 119.880051
10 43.480000 111.410048
11 46.790000 108.170046
12 35.800000 107.730046
13 35.630000 109.790047
14 100.000000 109.470000

Dihedral Coeffs # charmm

1 0.240000 2 180 0.0
2 0.520000 3 0 0.0
3 3.625000 2 180 0.0
4 0.155556 3 0 0.0
5 0.000000 2 0 0.0
6 0.700000 2 0 0.0
7 0.156000 3 0 0.0
8 0.130000 3 0 0.0
9 0.000000 1 0 0.0
10 0.120000 3 0 0.0

Improper Coeffs # cvff

1 1.100000 -1 2

Atoms # full

1 1 1 -0.072264 58.751176 7.463971 -3.216937 0 0 0
2 1 1 -0.036264 59.875603 7.490841 -2.181895 0 0 0
3 1 2 -0.011164 60.179952 6.098740 -1.681354 0 0 0
4 1 2 -0.120364 59.261851 5.527095 -0.687898 0 0 0
5 1 2 -0.098364 59.494119 4.189997 -0.245329 0 0 0
6 1 2 -0.188164 60.650737 3.449722 -0.705567 0 0 0
7 1 1 0.188236 60.940462 2.055606 -0.093700 0 0 0
8 1 3 -0.606800 60.370252 0.895674 -0.812932 0 0 0
9 1 1 0.090236 60.937760 0.849743 -2.222702 0 0 0
10 1 1 0.090236 58.842383 1.044493 -0.876031 0 0 0
11 1 1 0.090236 60.774794 -0.380117 -0.066162 0 0 0
12 1 2 -0.098364 61.579816 4.127648 -1.510891 0 0 0
13 1 2 -0.120364 61.339063 5.418449 -2.028024 0 0 0
14 1 1 -0.094964 57.350599 6.905705 -2.851039 0 0 0
15 1 4 0.046836 58.615156 8.434022 -3.585267 0 0 0
16 1 4 0.046836 59.143576 6.839578 -4.004941 0 0 0
17 1 4 0.069836 60.705387 7.825933 -2.832319 0 0 0
18 1 5 0.160636 58.405239 6.058446 -0.299141 0 0 0
19 1 5 0.137136 58.909137 3.665676 0.517868 0 0 0
20 1 6 0.100836 60.495857 1.960022 0.888291 0 0 0
21 1 6 0.100836 61.986253 1.850057 -0.002169 0 0 0
22 1 6 0.102614 60.686878 1.807898 -2.666446 0 0 0
23 1 6 0.102614 60.525592 0.068600 -2.854761 0 0 0
24 1 6 0.102614 62.050052 0.894811 -2.243075 0 0 0
25 1 6 0.102614 58.435321 0.948861 0.127852 0 0 0
26 1 6 0.102614 58.481497 2.032098 -1.246757 0 0 0
27 1 6 0.102614 58.545239 0.257145 -1.607391 0 0 0
28 1 6 0.102614 60.229295 -1.224199 -0.641907 0 0 0
29 1 6 0.102614 60.380856 -0.359893 0.998639 0 0 0
30 1 6 0.102614 61.865865 -0.553940 -0.101007 0 0 0
31 1 5 0.137136 62.458588 3.594027 -1.694263 0 0 0
32 1 5 0.160636 61.998793 5.799352 -2.742558 0 0 0
33 1 1 -0.072264 59.489770 8.682530 -1.155082 0 0 0
34 1 1 -0.036264 60.728121 9.435701 -0.456734 0 0 0
35 1 2 -0.011164 61.651494 8.488880 0.301073 0 0 0
36 1 2 -0.120364 61.164881 7.834805 1.433989 0 0 0
37 1 2 -0.098364 62.036738 6.993717 2.167168 0 0 0
38 1 2 -0.188164 63.364913 6.864512 1.789365 0 0 0
39 1 1 0.188236 64.251600 5.855494 2.457802 0 0 0
40 1 3 -0.606800 64.270098 4.599122 1.678101 0 0 0
41 1 1 0.090236 64.992188 4.708395 0.391620 0 0 0
42 1 1 0.090236 62.874208 4.089731 1.508740 0 0 0
43 1 1 0.090236 64.837466 3.517023 2.582885 0 0 0
44 1 2 -0.098364 63.845343 7.520363 0.606739 0 0 0
45 1 2 -0.120364 62.946682 8.278862 -0.107274 0 0 0
46 1 4 0.046836 59.016400 9.520617 -1.701954 0 0 0
47 1 4 0.046836 58.708871 8.357252 -0.454181 0 0 0
48 1 4 0.069836 60.226360 10.060295 0.302533 0 0 0
49 1 5 0.160636 60.122102 8.092393 1.749847 0 0 0
50 1 5 0.137136 61.701450 6.316573 2.966105 0 0 0
51 1 6 0.100836 63.835705 5.647959 3.521064 0 0 0
52 1 6 0.100836 65.318656 6.090364 2.452024 0 0 0
53 1 6 0.102614 65.050519 3.811513 -0.150692 0 0 0
54 1 6 0.102614 66.027599 5.044245 0.592047 0 0 0
55 1 6 0.102614 64.493927 5.436606 -0.243530 0 0 0
56 1 6 0.102614 62.903352 3.093729 1.035512 0 0 0
57 1 6 0.102614 62.264872 4.702255 0.839628 0 0 0
58 1 6 0.102614 62.482363 4.040367 2.470948 0 0 0
59 1 6 0.102614 64.293041 3.526996 3.517527 0 0 0
60 1 6 0.102614 64.757945 2.546461 2.098656 0 0 0
61 1 6 0.102614 65.863934 3.797336 2.897832 0 0 0
62 1 5 0.137136 64.877767 7.415127 0.228899 0 0 0
63 1 5 0.160636 63.244695 8.756923 -1.007737 0 0 0
64 1 1 -0.072264 61.473639 10.416067 -1.421777 0 0 0
65 1 1 -0.036264 62.324263 11.527983 -0.617453 0 0 0
66 1 2 -0.011164 61.547111 12.760997 -0.818287 0 0 0
67 1 2 -0.120364 60.497706 13.089843 -0.038409 0 0 0
68 1 2 -0.098364 59.650952 14.178384 -0.249237 0 0 0
69 1 2 -0.188164 59.970885 15.046567 -1.330928 0 0 0
70 1 1 0.188236 59.079986 16.306159 -1.471940 0 0 0
71 1 3 -0.606800 58.075758 16.176531 -2.605259 0 0 0
72 1 1 0.090236 56.986382 15.189644 -2.083706 0 0 0
73 1 1 0.090236 57.412903 17.616384 -2.785940 0 0 0
74 1 1 0.090236 58.654584 15.836966 -3.964035 0 0 0
75 1 2 -0.098364 61.033093 14.722020 -2.206483 0 0 0
76 1 2 -0.120364 61.770020 13.595144 -1.978491 0 0 0
77 1 4 0.046836 62.009357 9.861805 -2.157443 0 0 0
78 1 4 0.046836 60.764547 10.811909 -2.138493 0 0 0
79 1 4 0.069836 62.241423 11.256650 0.391327 0 0 0
80 1 5 0.160636 60.325629 12.607500 0.906627 0 0 0
81 1 5 0.137136 58.839059 14.341830 0.530637 0 0 0
82 1 6 0.100836 58.571870 16.420990 -0.558182 0 0 0
83 1 6 0.100836 59.702904 17.214363 -1.650760 0 0 0
84 1 6 0.102614 57.383692 14.208814 -1.749128 0 0 0
85 1 6 0.102614 56.055232 15.041165 -2.734260 0 0 0
86 1 6 0.102614 56.565132 15.558194 -1.096781 0 0 0
87 1 6 0.102614 58.265119 18.316723 -2.727221 0 0 0
88 1 6 0.102614 57.078302 17.618083 -3.831845 0 0 0
89 1 6 0.102614 56.589486 17.872261 -2.074244 0 0 0
90 1 6 0.102614 57.795988 15.834637 -4.577384 0 0 0
91 1 6 0.102614 59.064524 14.803727 -3.920655 0 0 0
92 1 6 0.102614 59.400851 16.562400 -4.201943 0 0 0
93 1 5 0.137136 61.316230 15.307780 -3.083105 0 0 0
94 1 5 0.160636 62.521982 13.246885 -2.678735 0 0 0
95 1 1 -0.072264 63.855155 11.713240 -0.931857 0 0 0
96 1 1 -0.036264 64.821352 12.036667 0.331096 0 0 0
97 1 2 -0.011164 64.817009 13.447180 0.897420 0 0 0
98 1 2 -0.120364 63.927134 14.449003 0.541093 0 0 0
99 1 2 -0.098364 63.836672 15.661701 1.184164 0 0 0
100 1 2 -0.188164 64.651513 15.886830 2.264381 0 0 0
101 1 1 0.188236 64.629479 17.291028 2.885016 0 0 0
102 1 3 -0.606800 65.459382 18.195782 2.090975 0 0 0
103 1 1 0.090236 66.808585 17.610439 1.799329 0 0 0
104 1 1 0.090236 64.729901 18.566124 0.823003 0 0 0
105 1 1 0.090236 65.540260 19.532104 2.942314 0 0 0
106 1 2 -0.098364 65.512284 14.956447 2.699325 0 0 0
107 1 2 -0.120364 65.621504 13.754183 2.005907 0 0 0
108 1 4 0.046836 64.061355 12.323679 -1.781236 0 0 0
109 1 4 0.046836 64.128566 10.773011 -1.360393 0 0 0
110 1 4 0.069836 64.488233 11.323623 1.062285 0 0 0
111 1 5 0.160636 63.387657 14.373920 -0.364253 0 0 0
112 1 5 0.137136 63.218194 16.479538 0.770139 0 0 0
113 1 6 0.100836 65.031679 17.276211 3.912444 0 0 0
114 1 6 0.100836 63.556300 17.665258 2.835108 0 0 0
115 1 6 0.102614 67.103479 17.066213 2.675897 0 0 0
116 1 6 0.102614 66.737308 16.972814 0.912913 0 0 0
117 1 6 0.102614 67.409552 18.485775 1.543520 0 0 0
118 1 6 0.102614 65.236487 19.416384 0.352374 0 0 0
119 1 6 0.102614 64.526657 17.810068 0.069006 0 0 0
120 1 6 0.102614 63.800728 19.032280 1.070478 0 0 0
121 1 6 0.102614 66.400858 20.192264 2.603843 0 0 0
122 1 6 0.102614 65.851766 19.204405 3.887585 0 0 0
123 1 6 0.102614 64.605788 20.097952 2.885998 0 0 0
124 1 5 0.137136 66.167951 15.095428 3.559956 0 0 0
125 1 5 0.160636 66.196145 12.947215 2.436082 0 0 0
126 1 1 -0.072264 66.262904 11.498156 0.124253 0 0 0
127 1 1 -0.036264 67.370423 12.491753 -0.410652 0 0 0
128 1 2 -0.011164 68.819384 11.889143 -0.347101 0 0 0
129 1 2 -0.120364 69.361871 10.785950 -1.049110 0 0 0
130 1 2 -0.098364 70.696296 10.318521 -0.779235 0 0 0
131 1 2 -0.188164 71.587691 10.978188 0.041096 0 0 0
132 1 1 0.188236 72.932003 10.354083 0.399871 0 0 0
133 1 3 -0.606800 74.234691 11.001363 -0.056073 0 0 0
134 1 1 0.090236 74.374996 12.497111 0.434878 0 0 0
135 1 1 0.090236 74.342181 10.982914 -1.641543 0 0 0
136 1 1 0.090236 75.381508 10.148348 0.456091 0 0 0
137 1 2 -0.098364 71.166133 12.134981 0.669390 0 0 0
138 1 2 -0.120364 69.853798 12.575917 0.476326 0 0 0
139 1 4 0.046836 66.196845 10.586816 -0.483173 0 0 0
140 1 4 0.046836 66.722624 11.130027 1.074677 0 0 0
141 1 4 0.069836 67.367048 13.315903 0.306998 0 0 0
142 1 5 0.160636 68.716020 10.090984 -1.584884 0 0 0
143 1 5 0.137136 71.091451 9.401571 -1.167483 0 0 0
144 1 6 0.100836 72.948026 9.302688 0.051941 0 0 0
145 1 6 0.100836 72.968462 10.291671 1.527036 0 0 0
146 1 6 0.102614 73.527785 13.082121 0.090122 0 0 0
147 1 6 0.102614 74.606118 12.608028 1.522322 0 0 0
148 1 6 0.102614 75.235354 12.824336 -0.105968 0 0 0
149 1 6 0.102614 73.929009 10.051137 -1.945369 0 0 0
150 1 6 0.102614 73.813066 11.711773 -2.164068 0 0 0
151 1 6 0.102614 75.384848 11.010511 -1.958019 0 0 0
152 1 6 0.102614 76.191095 10.496241 -0.210877 0 0 0
153 1 6 0.102614 75.067922 9.087204 0.297028 0 0 0
154 1 6 0.102614 75.601637 10.317269 1.564524 0 0 0
155 1 5 0.137136 71.752117 12.618125 1.440119 0 0 0
156 1 5 0.160636 69.518447 13.407490 1.093744 0 0 0
157 1 1 -0.072264 67.171132 12.982995 -1.805883 0 0 0
158 1 1 -0.036264 67.330721 14.506416 -2.133249 0 0 0
159 1 2 -0.011164 66.292700 14.787876 -3.214709 0 0 0
160 1 2 -0.120364 66.466597 14.199197 -4.447860 0 0 0
161 1 2 -0.098364 65.460297 14.406518 -5.425274 0 0 0
162 1 2 -0.188164 64.333163 15.190286 -5.138208 0 0 0
163 1 1 0.188236 63.356277 15.392051 -6.358458 0 0 0
164 1 3 -0.606800 62.356737 14.436369 -6.681036 0 0 0
165 1 1 0.090236 61.696957 14.962624 -8.032818 0 0 0
166 1 1 0.090236 61.234453 14.380279 -5.616553 0 0 0
167 1 1 0.090236 62.924776 13.022112 -6.713056 0 0 0
168 1 2 -0.098364 64.136775 15.731283 -3.856866 0 0 0
169 1 2 -0.120364 65.163268 15.563713 -2.875710 0 0 0
170 1 4 0.046836 67.887836 12.534821 -2.420099 0 0 0
171 1 4 0.046836 66.205273 12.632522 -2.248699 0 0 0
172 1 4 0.069836 67.062379 15.127357 -1.268320 0 0 0
173 1 5 0.160636 67.351952 13.541579 -4.641930 0 0 0
174 1 5 0.137136 65.644616 14.039679 -6.414983 0 0 0
175 1 6 0.100836 63.939705 15.529760 -7.226796 0 0 0
176 1 6 0.100836 62.888876 16.423628 -6.158775 0 0 0
177 1 6 0.102614 61.178687 15.797937 -7.699954 0 0 0
178 1 6 0.102614 62.473282 15.245918 -8.799122 0 0 0
179 1 6 0.102614 60.956467 14.276089 -8.486936 0 0 0
180 1 6 0.102614 60.722068 15.330579 -5.594178 0 0 0
181 1 6 0.102614 61.719535 14.209484 -4.692741 0 0 0
182 1 6 0.102614 60.516077 13.592127 -5.850444 0 0 0
183 1 6 0.102614 62.315611 12.422621 -7.384016 0 0 0
184 1 6 0.102614 62.890678 12.595606 -5.672522 0 0 0
185 1 6 0.102614 63.957845 12.959391 -7.094139 0 0 0
186 1 5 0.137136 63.199841 16.271009 -3.600524 0 0 0
187 1 5 0.160636 64.979329 15.941325 -1.896566 0 0 0
188 1 1 -0.072264 68.717207 14.955362 -2.543521 0 0 0
189 1 1 -0.036264 69.120417 16.528891 -2.412107 0 0 0
190 1 2 -0.011164 67.983946 17.438248 -2.820801 0 0 0
191 1 2 -0.120364 67.278972 18.217060 -1.890331 0 0 0
192 1 2 -0.098364 66.146543 18.855177 -2.352208 0 0 0
193 1 2 -0.188164 65.581477 18.625560 -3.574022 0 0 0
194 1 1 0.188236 64.224797 19.051282 -3.971906 0 0 0
195 1 3 -0.606800 64.023524 20.457809 -4.632480 0 0 0
196 1 1 0.090236 64.558699 21.518925 -3.725733 0 0 0
197 1 1 0.090236 64.893915 20.516762 -5.920312 0 0 0
198 1 1 0.090236 62.599085 20.658078 -4.871927 0 0 0
199 1 2 -0.098364 66.386079 17.967652 -4.525845 0 0 0
200 1 2 -0.120364 67.587585 17.425979 -4.153018 0 0 0
201 1 4 0.046836 69.406609 14.413621 -1.870243 0 0 0
202 1 4 0.046836 68.964721 14.440099 -3.500005 0 0 0
203 1 4 0.069836 69.278457 16.771690 -1.366148 0 0 0
204 1 5 0.160636 67.600975 18.403300 -0.862937 0 0 0
205 1 5 0.137136 65.527683 19.430926 -1.708883 0 0 0
206 1 6 0.100836 63.698553 18.293864 -4.633420 0 0 0
207 1 6 0.100836 63.659555 19.182759 -3.082445 0 0 0
208 1 6 0.102614 64.578670 22.518280 -4.260479 0 0 0
209 1 6 0.102614 65.593210 21.184917 -3.583786 0 0 0
210 1 6 0.102614 63.988734 21.530046 -2.746398 0 0 0
211 1 6 0.102614 65.028625 21.570373 -6.169798 0 0 0
212 1 6 0.102614 65.903600 20.083500 -5.759752 0 0 0
213 1 6 0.102614 64.416524 19.986167 -6.719903 0 0 0
214 1 6 0.102614 62.421267 21.708731 -5.122072 0 0 0
215 1 6 0.102614 62.273902 20.022742 -5.664107 0 0 0
216 1 6 0.102614 62.081820 20.309977 -3.947756 0 0 0
217 1 5 0.137136 66.033721 17.672358 -5.485416 0 0 0
218 1 5 0.160636 68.095562 16.849794 -4.934830 0 0 0
219 1 1 -0.072264 70.429007 16.916665 -3.023674 0 0 0
220 1 1 -0.036264 71.563309 17.302812 -2.127158 0 0 0
221 1 2 -0.011164 71.454253 18.824458 -1.736378 0 0 0
222 1 2 -0.120364 70.799833 19.168501 -0.518600 0 0 0
223 1 2 -0.098364 70.536685 20.489727 -0.138206 0 0 0
224 1 2 -0.188164 71.024306 21.459101 -1.014807 0 0 0
225 1 1 0.188236 70.482921 22.823232 -0.621036 0 0 0
226 1 3 -0.606800 70.834389 24.151358 -1.332415 0 0 0
227 1 1 0.090236 69.951489 25.352698 -0.723562 0 0 0
228 1 1 0.090236 72.303560 24.494411 -1.335845 0 0 0
229 1 1 0.090236 70.386886 23.947610 -2.814179 0 0 0
230 1 2 -0.098364 71.791315 21.251574 -2.156124 0 0 0
231 1 2 -0.120364 71.936463 19.886125 -2.540830 0 0 0
232 1 4 0.046836 70.637837 16.038569 -3.659842 0 0 0
233 1 4 0.046836 70.239579 17.786897 -3.716805 0 0 0
234 1 4 0.069836 71.472294 16.737594 -1.237172 0 0 0
235 1 5 0.160636 70.377798 18.488834 0.137458 0 0 0
236 1 5 0.137136 69.939266 20.688754 0.706651 0 0 0
237 1 6 0.100836 70.845660 22.858838 0.444678 0 0 0
238 1 6 0.100836 69.419688 22.826833 -0.509563 0 0 0
239 1 6 0.102614 69.571456 26.069701 -1.431724 0 0 0
240 1 6 0.102614 69.180361 25.001335 -0.038560 0 0 0
241 1 6 0.102614 70.522286 25.985512 -0.000595 0 0 0
242 1 6 0.102614 72.564854 25.479839 -1.793726 0 0 0
243 1 6 0.102614 72.592102 24.501569 -0.290824 0 0 0
244 1 6 0.102614 72.918143 23.781552 -1.942276 0 0 0
245 1 6 0.102614 69.297930 24.051728 -2.747872 0 0 0
246 1 6 0.102614 70.687191 24.729552 -3.489663 0 0 0
247 1 6 0.102614 70.505962 22.935505 -3.243615 0 0 0
248 1 5 0.137136 72.150572 22.040370 -2.812731 0 0 0
249 1 5 0.160636 72.222873 19.597856 -3.556891 0 0 0
250 1 1 -0.072264 72.966958 17.035876 -2.769030 0 0 0
251 1 1 -0.036264 73.763182 15.700784 -2.706166 0 0 0
252 1 2 -0.011164 72.976403 14.575208 -3.385887 0 0 0
253 1 2 -0.120364 73.256673 14.120477 -4.688731 0 0 0
254 1 2 -0.098364 72.572798 13.057165 -5.200373 0 0 0
255 1 2 -0.188164 71.454487 12.472970 -4.531706 0 0 0
256 1 1 0.188236 70.448131 11.434400 -4.921572 0 0 0
257 1 3 -0.606800 71.078813 10.017136 -5.056138 0 0 0
258 1 1 0.090236 71.909504 9.634906 -3.818078 0 0 0
259 1 1 0.090236 69.873857 9.075287 -5.420242 0 0 0
260 1 1 0.090236 71.955164 9.931246 -6.381888 0 0 0
261 1 2 -0.098364 71.209217 12.901258 -3.261602 0 0 0
262 1 2 -0.120364 71.965445 13.877957 -2.647676 0 0 0
263 1 4 0.046836 73.663895 17.665369 -2.229882 0 0 0
264 1 4 0.046836 73.061497 17.348675 -3.825249 0 0 0
265 1 4 0.069836 73.921426 15.308914 -1.687543 0 0 0
266 1 5 0.160636 74.091268 14.565684 -5.168720 0 0 0
267 1 5 0.137136 72.860602 12.729174 -6.161431 0 0 0
268 1 6 0.100836 69.998604 11.622485 -5.937542 0 0 0
269 1 6 0.100836 69.544261 11.417680 -4.274288 0 0 0
270 1 6 0.102614 72.827883 10.230635 -3.813151 0 0 0
271 1 6 0.102614 72.091918 8.583725 -3.847386 0 0 0
272 1 6 0.102614 71.346670 9.916306 -2.919586 0 0 0
273 1 6 0.102614 69.396087 8.923638 -4.477653 0 0 0
274 1 6 0.102614 69.262166 9.580545 -6.171034 0 0 0
275 1 6 0.102614 70.300361 8.124964 -5.831490 0 0 0
276 1 6 0.102614 71.353867 10.240178 -7.196000 0 0 0
277 1 6 0.102614 72.227562 8.884132 -6.447879 0 0 0
278 1 6 0.102614 72.871780 10.513143 -6.331558 0 0 0
279 1 5 0.137136 70.369978 12.558906 -2.646510 0 0 0
280 1 5 0.160636 71.712161 14.171048 -1.645667 0 0 0
281 1 1 -0.072264 75.273360 15.897733 -3.161048 0 0 0
282 1 1 -0.036264 76.113609 16.873117 -2.218415 0 0 0
283 1 2 -0.011164 77.168064 17.601644 -3.067707 0 0 0
284 1 2 -0.120364 78.330590 16.940318 -3.417950 0 0 0
285 1 2 -0.098364 79.404811 17.566917 -4.172807 0 0 0
286 1 2 -0.188164 79.216373 18.909246 -4.598849 0 0 0
287 1 1 0.188236 80.276584 19.548146 -5.398582 0 0 0
288 1 3 -0.606800 80.233524 19.103200 -6.914378 0 0 0
289 1 1 0.090236 80.806752 17.690335 -7.109213 0 0 0
290 1 1 0.090236 78.851052 19.203999 -7.478380 0 0 0
291 1 1 0.090236 81.101255 20.010267 -7.770797 0 0 0
292 1 2 -0.098364 78.001078 19.605245 -4.244393 0 0 0
293 1 2 -0.120364 76.997971 18.962844 -3.439773 0 0 0
294 1 4 0.046836 75.832230 14.957223 -3.341059 0 0 0
295 1 4 0.046836 75.270126 16.429703 -4.118672 0 0 0
296 1 1 -0.088964 76.669117 16.011964 -1.017207 0 0 0
297 1 4 0.069836 75.473154 17.664819 -1.706429 0 0 0
298 1 5 0.160636 78.468790 15.939087 -3.100850 0 0 0
299 1 5 0.137136 80.369580 17.018064 -4.290301 0 0 0
300 1 6 0.100836 81.329209 19.301509 -5.038811 0 0 0
301 1 6 0.100836 80.111104 20.628545 -5.372529 0 0 0
302 1 6 0.102614 80.934143 17.493709 -8.202335 0 0 0
303 1 6 0.102614 80.066506 17.057747 -6.671946 0 0 0
304 1 6 0.102614 81.810195 17.674234 -6.635750 0 0 0
305 1 6 0.102614 78.487538 20.223682 -7.302384 0 0 0
306 1 6 0.102614 78.896707 18.969026 -8.512957 0 0 0
307 1 6 0.102614 78.245176 18.507774 -6.880716 0 0 0
308 1 6 0.102614 80.909186 19.838407 -8.814783 0 0 0
309 1 6 0.102614 82.095918 19.937132 -7.453493 0 0 0
310 1 6 0.102614 80.784763 20.992042 -7.631575 0 0 0
311 1 5 0.137136 77.800164 20.600705 -4.504444 0 0 0
312 1 5 0.160636 76.091349 19.494110 -3.248930 0 0 0
313 1 4 0.045503 56.727949 7.063525 -3.764388 0 0 0
314 1 4 0.045503 57.323301 5.840766 -2.594536 0 0 0
315 1 4 0.045503 56.934050 7.413281 -1.932330 0 0 0
316 1 4 0.045503 75.911631 15.605385 -0.356844 0 0 0
317 1 4 0.045503 77.305224 15.191145 -1.349339 0 0 0
318 1 4 0.045503 77.291127 16.745731 -0.424795 0 0 0
319 2 1 -0.072264 69.358291 29.506952 24.753069 0 0 0
320 2 1 -0.036264 69.549414 30.833032 23.955309 0 0 0
321 2 2 -0.011164 68.224455 31.311994 23.437572 0 0 0
322 2 2 -0.120364 68.198097 32.576120 22.743235 0 0 0
323 2 2 -0.098364 67.061086 33.075124 22.121155 0 0 0
324 2 2 -0.188164 65.892027 32.286235 22.061063 0 0 0
325 2 1 0.188236 64.717488 32.751784 21.224611 0 0 0
326 2 3 -0.606800 64.719920 33.961748 20.300047 0 0 0
327 2 1 0.090236 64.659188 35.219409 21.205592 0 0 0
328 2 1 0.090236 63.567122 34.001149 19.308528 0 0 0
329 2 1 0.090236 65.873227 33.961579 19.351228 0 0 0
330 2 2 -0.098364 65.895367 31.048230 22.723625 0 0 0
331 2 2 -0.120364 67.002028 30.573003 23.383823 0 0 0
332 2 1 -0.094964 70.537072 29.197161 25.698944 0 0 0
333 2 4 0.046836 68.479512 29.645259 25.460756 0 0 0
334 2 4 0.046836 69.100302 28.533917 24.191465 0 0 0
335 2 4 0.069836 69.768271 31.584881 24.755866 0 0 0
336 2 5 0.160636 69.099768 33.278752 22.798074 0 0 0
337 2 5 0.137136 67.002762 34.089263 21.712478 0 0 0
338 2 6 0.100836 63.736893 32.799337 21.787231 0 0 0
339 2 6 0.100836 64.649567 31.951951 20.535859 0 0 0
340 2 6 0.102614 63.624070 35.360038 21.560961 0 0 0
341 2 6 0.102614 64.961985 36.077217 20.528905 0 0 0
342 2 6 0.102614 65.335400 35.102903 22.104034 0 0 0
343 2 6 0.102614 63.593090 33.076383 18.703575 0 0 0
344 2 6 0.102614 62.566463 34.096091 19.692482 0 0 0
345 2 6 0.102614 63.897850 34.884514 18.706804 0 0 0
346 2 6 0.102614 66.077711 32.885420 19.132313 0 0 0
347 2 6 0.102614 66.714359 34.373974 19.851205 0 0 0
348 2 6 0.102614 65.700806 34.438817 18.379852 0 0 0
349 2 5 0.137136 64.997410 30.328873 22.690167 0 0 0
350 2 5 0.160636 66.968791 29.618644 23.993376 0 0 0
351 2 1 -0.072264 70.694748 30.805300 22.866906 0 0 0
352 2 1 -0.036264 70.746451 29.585497 21.810409 0 0 0
353 2 2 -0.011164 69.426788 29.161658 21.219054 0 0 0
354 2 2 -0.120364 68.864692 27.898622 21.472757 0 0 0
355 2 2 -0.098364 67.589557 27.539421 20.952672 0 0 0
356 2 2 -0.188164 66.820188 28.453241 20.203581 0 0 0
357 2 1 0.188236 65.580957 27.944800 19.480850 0 0 0
358 2 3 -0.606800 64.251744 27.679787 20.272088 0 0 0
359 2 1 0.090236 64.486996 26.952348 21.616120 0 0 0
360 2 1 0.090236 63.230445 26.873226 19.442304 0 0 0
361 2 1 0.090236 63.456261 28.968789 20.551925 0 0 0
362 2 2 -0.098364 67.415648 29.724270 19.990612 0 0 0
363 2 2 -0.120364 68.678652 30.076252 20.448110 0 0 0
364 2 4 0.046836 70.689474 31.719921 22.306073 0 0 0
365 2 4 0.046836 71.591463 30.748050 23.467245 0 0 0
366 2 4 0.069836 71.229694 28.730015 22.316470 0 0 0
367 2 5 0.160636 69.415286 27.130622 22.091654 0 0 0
368 2 5 0.137136 67.271808 26.536696 21.090604 0 0 0
369 2 6 0.100836 65.787451 27.110467 18.889724 0 0 0
370 2 6 0.100836 65.255746 28.626233 18.706274 0 0 0
371 2 6 0.102614 64.855518 27.645993 22.389624 0 0 0
372 2 6 0.102614 65.302749 26.280233 21.534756 0 0 0
373 2 6 0.102614 63.564135 26.506615 21.950774 0 0 0
374 2 6 0.102614 63.645844 25.998138 18.968473 0 0 0
375 2 6 0.102614 62.907524 27.444029 18.557703 0 0 0
376 2 6 0.102614 62.369128 26.525977 20.033601 0 0 0
377 2 6 0.102614 63.995051 29.715938 21.187465 0 0 0
378 2 6 0.102614 63.264183 29.469228 19.652028 0 0 0
379 2 6 0.102614 62.463292 28.762454 21.008945 0 0 0
380 2 5 0.137136 66.883549 30.378124 19.281626 0 0 0
381 2 5 0.160636 69.099729 31.033463 20.205734 0 0 0
382 2 1 -0.072264 71.792225 29.765310 20.692085 0 0 0
383 2 1 -0.036264 72.282841 28.468002 19.882424 0 0 0
384 2 2 -0.011164 73.728208 28.734021 19.444010 0 0 0
385 2 2 -0.120364 74.762477 27.805388 19.729977 0 0 0
386 2 2 -0.098364 76.167485 28.084985 19.390550 0 0 0
387 2 2 -0.188164 76.437199 29.265329 18.697282 0 0 0
388 2 1 0.188236 77.764566 29.483371 17.989353 0 0 0
389 2 3 -0.606800 78.840778 30.099181 18.884143 0 0 0
390 2 1 0.090236 80.179676 29.983853 18.193488 0 0 0
391 2 1 0.090236 78.613270 31.609178 19.080768 0 0 0
392 2 1 0.090236 78.981959 29.368733 20.217058 0 0 0
393 2 2 -0.098364 75.423509 30.234843 18.387904 0 0 0
394 2 2 -0.120364 74.048563 29.955165 18.781369 0 0 0
395 2 4 0.046836 71.435622 30.471510 19.891146 0 0 0
396 2 4 0.046836 72.619150 30.266694 21.238942 0 0 0
397 2 4 0.069836 72.275385 27.604030 20.501606 0 0 0
398 2 5 0.160636 74.601043 26.898210 20.215309 0 0 0
399 2 5 0.137136 76.930031 27.383655 19.545566 0 0 0
400 2 6 0.100836 78.063352 28.503564 17.689925 0 0 0
401 2 6 0.100836 77.635376 30.106689 17.140098 0 0 0
402 2 6 0.102614 80.367295 28.965441 17.932396 0 0 0
403 2 6 0.102614 80.890096 30.537469 18.840113 0 0 0
404 2 6 0.102614 80.034984 30.468934 17.169985 0 0 0
405 2 6 0.102614 77.915652 31.723239 19.867879 0 0 0
406 2 6 0.102614 79.446037 32.185933 19.459419 0 0 0
407 2 6 0.102614 78.202858 32.014683 18.103875 0 0 0
408 2 6 0.102614 79.776793 29.855565 20.759568 0 0 0
409 2 6 0.102614 79.184534 28.327440 20.101930 0 0 0
410 2 6 0.102614 78.074718 29.518276 20.773712 0 0 0
411 2 5 0.137136 75.650442 31.209658 17.914847 0 0 0
412 2 5 0.160636 73.193919 30.618107 18.503176 0 0 0
413 2 1 -0.072264 71.322473 28.159748 18.713482 0 0 0
414 2 1 -0.036264 71.817178 27.176726 17.662764 0 0 0
415 2 2 -0.011164 71.096299 27.347342 16.317059 0 0 0
416 2 2 -0.120364 69.651560 27.237859 16.207934 0 0 0
417 2 2 -0.098364 69.109130 27.209730 14.875398 0 0 0
418 2 2 -0.188164 69.916432 27.375445 13.700192 0 0 0
419 2 1 0.188236 69.324919 27.074032 12.340013 0 0 0
420 2 3 -0.606800 69.795012 25.791480 11.732256 0 0 0
421 2 1 0.090236 71.301299 25.746882 11.476050 0 0 0
422 2 1 0.090236 69.426365 24.681005 12.626240 0 0 0
423 2 1 0.090236 69.187010 25.597904 10.412162 0 0 0
424 2 2 -0.098364 71.256399 27.630449 13.838479 0 0 0
425 2 2 -0.120364 71.842401 27.550868 15.141467 0 0 0
426 2 4 0.046836 71.033693 29.108493 18.222496 0 0 0
427 2 4 0.046836 70.315917 27.757633 19.051015 0 0 0
428 2 4 0.069836 72.841993 27.530218 17.504919 0 0 0
429 2 5 0.160636 69.060165 27.079135 17.023756 0 0 0
430 2 5 0.137136 68.021273 27.150216 14.725431 0 0 0
431 2 6 0.100836 69.487219 27.889319 11.698249 0 0 0
432 2 6 0.100836 68.186350 27.096729 12.384676 0 0 0
433 2 6 0.102614 71.637344 24.817501 11.015299 0 0 0
434 2 6 0.102614 71.513501 26.621440 10.915615 0 0 0
435 2 6 0.102614 71.844451 25.854939 12.461234 0 0 0
436 2 6 0.102614 69.942403 24.838461 13.571020 0 0 0
437 2 6 0.102614 68.285867 24.598513 12.793075 0 0 0
438 2 6 0.102614 69.595307 23.640440 12.216019 0 0 0
439 2 6 0.102614 69.670197 26.246879 9.643158 0 0 0
440 2 6 0.102614 68.198235 25.980455 10.403850 0 0 0
441 2 6 0.102614 69.017569 24.541107 10.114357 0 0 0
442 2 5 0.137136 71.856588 27.724971 12.965567 0 0 0
443 2 5 0.160636 72.910456 27.757633 15.243563 0 0 0
444 2 1 -0.072264 71.838614 25.720283 18.094413 0 0 0
445 2 1 -0.036264 72.348278 24.813312 16.981475 0 0 0
446 2 2 -0.011164 73.805115 25.106390 16.575843 0 0 0
447 2 2 -0.120364 74.839933 24.868870 17.552027 0 0 0
448 2 2 -0.098364 76.138492 25.173491 17.163655 0 0 0
449 2 2 -0.188164 76.501914 25.513011 15.830292 0 0 0
450 2 1 0.188236 78.014267 25.384750 15.404911 0 0 0
451 2 3 -0.606800 78.933687 26.632780 15.825624 0 0 0
452 2 1 0.090236 78.479390 28.008101 15.344670 0 0 0
453 2 1 0.090236 80.321656 26.433776 15.311553 0 0 0
454 2 1 0.090236 79.118970 26.644683 17.346677 0 0 0
455 2 2 -0.098364 75.549609 25.619911 14.865533 0 0 0
456 2 2 -0.120364 74.186495 25.496945 15.270851 0 0 0
457 2 4 0.046836 70.834763 25.306903 18.314764 0 0 0
458 2 4 0.046836 72.411075 25.567828 18.994062 0 0 0
459 2 4 0.069836 71.654621 25.038534 16.154796 0 0 0
460 2 5 0.160636 74.555083 24.702548 18.570378 0 0 0
461 2 5 0.137136 76.903609 25.050943 17.965160 0 0 0
462 2 6 0.100836 77.969539 25.309862 14.250470 0 0 0
463 2 6 0.100836 78.421288 24.533230 15.897180 0 0 0
464 2 6 0.102614 78.605532 28.023166 14.259069 0 0 0
465 2 6 0.102614 77.430632 28.144099 15.626268 0 0 0
466 2 6 0.102614 79.121027 28.810691 15.727738 0 0 0
467 2 6 0.102614 80.953505 27.092952 15.796908 0 0 0
468 2 6 0.102614 80.557719 25.409601 15.580296 0 0 0
469 2 6 0.102614 80.419139 26.614412 14.236614 0 0 0
470 2 6 0.102614 78.115203 26.648163 17.802522 0 0 0
471 2 6 0.102614 79.742229 27.456613 17.564805 0 0 0
472 2 6 0.102614 79.750647 25.735286 17.639528 0 0 0
473 2 5 0.137136 75.813358 25.809784 13.851072 0 0 0
474 2 5 0.160636 73.462279 25.544923 14.532403 0 0 0
475 2 1 -0.072264 72.192239 23.228146 17.257134 0 0 0
476 2 1 -0.036264 70.837437 22.668721 17.548214 0 0 0
477 2 2 -0.011164 69.637914 23.334272 16.745454 0 0 0
478 2 2 -0.120364 68.547292 23.920885 17.399736 0 0 0
479 2 2 -0.098364 67.311451 24.129428 16.828438 0 0 0
480 2 2 -0.188164 67.045846 23.600057 15.580569 0 0 0
481 2 1 0.188236 65.688143 23.747776 14.838123 0 0 0
482 2 3 -0.606800 64.951778 25.043551 14.665983 0 0 0
483 2 1 0.090236 65.841426 26.158422 14.473386 0 0 0
484 2 1 0.090236 64.110553 25.249657 15.931043 0 0 0
485 2 1 0.090236 63.988753 24.848607 13.525135 0 0 0
486 2 2 -0.098364 68.143285 23.078939 14.877060 0 0 0
487 2 2 -0.120364 69.395120 23.008969 15.369965 0 0 0
488 2 4 0.046836 72.728419 22.754860 16.485214 0 0 0
489 2 4 0.046836 72.871526 22.907244 18.027091 0 0 0
490 2 4 0.069836 71.011530 21.742158 17.049939 0 0 0
491 2 5 0.160636 68.790512 24.397545 18.376569 0 0 0
492 2 5 0.137136 66.528814 24.666384 17.366614 0 0 0
493 2 6 0.100836 64.978031 22.991327 15.244730 0 0 0
494 2 6 0.100836 65.866328 23.461242 13.728950 0 0 0
495 2 6 0.102614 65.182197 27.001502 14.466918 0 0 0
496 2 6 0.102614 66.592859 26.250145 15.261715 0 0 0
497 2 6 0.102614 66.321212 26.161720 13.502594 0 0 0
498 2 6 0.102614 63.548292 24.352106 16.303770 0 0 0
499 2 6 0.102614 63.390082 26.080635 15.931238 0 0 0
500 2 6 0.102614 64.831009 25.424647 16.812709 0 0 0
501 2 6 0.102614 63.811986 23.782848 13.401692 0 0 0
502 2 6 0.102614 64.355713 25.306275 12.548496 0 0 0
503 2 6 0.102614 63.088140 25.238755 13.922600 0 0 0
504 2 5 0.137136 68.052068 22.821260 13.729414 0 0 0
505 2 5 0.160636 70.232751 22.573763 14.680596 0 0 0
506 2 1 -0.072264 70.477215 22.396117 19.053109 0 0 0
507 2 1 -0.036264 69.321543 21.373811 19.306193 0 0 0
508 2 2 -0.011164 68.584021 21.844773 20.563882 0 0 0
509 2 2 -0.120364 67.533130 22.759803 20.453691 0 0 0
510 2 2 -0.098364 66.937688 23.394007 21.585492 0 0 0
511 2 2 -0.188164 67.193850 22.847079 22.873006 0 0 0
512 2 1 0.188236 66.721779 23.555171 24.136887 0 0 0
513 2 3 -0.606800 65.268215 23.518881 24.684418 0 0 0
514 2 1 0.090236 64.928558 21.965600 24.911198 0 0 0
515 2 1 0.090236 65.025822 24.221358 25.958196 0 0 0
516 2 1 0.090236 64.407601 24.193537 23.728027 0 0 0
517 2 2 -0.098364 67.950145 21.646897 22.960591 0 0 0
518 2 2 -0.120364 68.788810 21.223422 21.843197 0 0 0
519 2 4 0.046836 71.399670 22.090232 19.596494 0 0 0
520 2 4 0.046836 70.252533 23.312261 19.528935 0 0 0
521 2 4 0.069836 68.615887 21.451354 18.478892 0 0 0
522 2 5 0.160636 67.209663 23.081781 19.488351 0 0 0
523 2 5 0.137136 66.275664 24.226753 21.509639 0 0 0
524 2 6 0.100836 67.368681 23.136658 24.927219 0 0 0
525 2 6 0.100836 66.993815 24.625723 24.119772 0 0 0
526 2 6 0.102614 64.561011 21.522507 24.055042 0 0 0
527 2 6 0.102614 64.114345 21.865762 25.618144 0 0 0
528 2 6 0.102614 65.769273 21.437547 25.337573 0 0 0
529 2 6 0.102614 64.052438 24.021187 26.229717 0 0 0
530 2 6 0.102614 65.724815 23.911919 26.804350 0 0 0
531 2 6 0.102614 64.944886 25.309740 25.838912 0 0 0
532 2 6 0.102614 64.804117 25.222950 23.634162 0 0 0
533 2 6 0.102614 64.405183 23.762483 22.780919 0 0 0
534 2 6 0.102614 63.423754 23.980814 24.134081 0 0 0
535 2 5 0.137136 67.971256 21.229180 23.939850 0 0 0
536 2 5 0.160636 69.498497 20.440940 21.945315 0 0 0
537 2 1 -0.072264 69.847569 19.882964 19.359926 0 0 0
538 2 1 -0.036264 70.154811 19.153699 18.079008 0 0 0
539 2 2 -0.011164 68.950022 18.952839 17.144791 0 0 0
540 2 2 -0.120364 68.447090 20.051952 16.328660 0 0 0
541 2 2 -0.098364 67.121680 20.167877 15.947017 0 0 0
542 2 2 -0.188164 66.137951 19.230195 16.402659 0 0 0
543 2 1 0.188236 64.741580 19.553418 15.906890 0 0 0
544 2 3 -0.606800 63.688244 18.517053 15.983845 0 0 0
545 2 1 0.090236 62.459751 19.040795 15.233361 0 0 0
546 2 1 0.090236 64.155274 17.159371 15.412342 0 0 0
547 2 1 0.090236 63.345932 18.262192 17.449319 0 0 0
548 2 2 -0.098364 66.618540 18.043625 17.034725 0 0 0
549 2 2 -0.120364 67.955740 18.020651 17.462662 0 0 0
550 2 4 0.046836 70.765367 19.913665 19.973465 0 0 0
551 2 4 0.046836 69.081065 19.308888 19.916315 0 0 0
552 2 4 0.069836 70.821348 19.750303 17.512134 0 0 0
553 2 5 0.160636 69.222575 20.681406 15.880658 0 0 0
554 2 5 0.137136 66.857206 20.986276 15.377605 0 0 0
555 2 6 0.100836 64.705496 20.105927 14.977614 0 0 0
556 2 6 0.100836 64.341678 20.435859 16.516813 0 0 0
557 2 6 0.102614 62.781112 19.030316 14.187069 0 0 0
558 2 6 0.102614 61.680272 18.282509 15.409714 0 0 0
559 2 6 0.102614 62.277880 20.035422 15.641224 0 0 0
560 2 6 0.102614 65.030995 16.752557 15.753661 0 0 0
561 2 6 0.102614 63.312596 16.526074 15.474939 0 0 0
562 2 6 0.102614 64.258549 17.300974 14.302383 0 0 0
563 2 6 0.102614 64.236102 17.952650 18.009650 0 0 0
564 2 6 0.102614 62.945469 19.165113 17.973685 0 0 0
565 2 6 0.102614 62.548604 17.492300 17.540016 0 0 0
566 2 5 0.137136 66.043239 17.113248 17.270655 0 0 0
567 2 5 0.160636 68.225887 17.190984 18.070214 0 0 0
568 2 1 -0.072264 70.962380 17.857192 18.395979 0 0 0
569 2 1 -0.036264 71.522409 17.126706 17.289699 0 0 0
570 2 2 -0.011164 72.564890 17.877784 16.473303 0 0 0
571 2 2 -0.120364 73.780918 18.157486 17.021871 0 0 0
572 2 2 -0.098364 74.821238 18.860135 16.296820 0 0 0
573 2 2 -0.188164 74.627463 19.205820 14.925544 0 0 0
574 2 1 0.188236 75.687542 19.923133 14.034957 0 0 0
575 2 3 -0.606800 75.584657 21.483398 13.953683 0 0 0
576 2 1 0.090236 74.155974 22.004991 13.430991 0 0 0
577 2 1 0.090236 75.717519 22.062304 15.343661 0 0 0
578 2 1 0.090236 76.692807 21.914887 13.024916 0 0 0
579 2 2 -0.098364 73.359358 18.863621 14.361381 0 0 0
580 2 2 -0.120364 72.347966 18.247226 15.115484 0 0 0
581 2 4 0.046836 70.359116 17.183811 18.973311 0 0 0
582 2 4 0.046836 71.778734 18.071726 19.060954 0 0 0
583 2 4 0.069836 70.662732 16.865307 16.669776 0 0 0
584 2 5 0.160636 74.055133 17.966680 18.039376 0 0 0
585 2 5 0.137136 75.802329 19.021078 16.786983 0 0 0
586 2 6 0.100836 75.656158 19.511612 13.010481 0 0 0
587 2 6 0.100836 76.630959 19.652615 14.447929 0 0 0
588 2 6 0.102614 74.024114 22.072099 12.313720 0 0 0
589 2 6 0.102614 74.029378 22.959291 13.889156 0 0 0
590 2 6 0.102614 73.366217 21.349734 13.773383 0 0 0
591 2 6 0.102614 75.464159 23.077707 15.380449 0 0 0
592 2 6 0.102614 75.004202 21.625524 16.014354 0 0 0
593 2 6 0.102614 76.726322 21.975841 15.678352 0 0 0
594 2 6 0.102614 76.627462 22.972070 12.850020 0 0 0
595 2 6 0.102614 76.803772 21.251586 12.181624 0 0 0
596 2 6 0.102614 77.668411 21.850737 13.431436 0 0 0
597 2 5 0.137136 73.264158 19.087380 13.303102 0 0 0
598 2 5 0.160636 71.359725 17.993481 14.715436 0 0 0
599 2 1 -0.072264 72.186437 15.766252 17.733639 0 0 0
600 2 1 -0.036264 72.209507 14.581829 16.714589 0 0 0
601 2 2 -0.011164 73.393189 13.616185 16.669550 0 0 0
602 2 2 -0.120364 73.141613 12.265618 16.497082 0 0 0
603 2 2 -0.098364 74.177034 11.355922 16.254248 0 0 0
604 2 2 -0.188164 75.506512 11.810852 16.360524 0 0 0
605 2 1 0.188236 76.690169 10.922832 16.127368 0 0 0
606 2 3 -0.606800 77.265878 10.045321 17.285642 0 0 0
607 2 1 0.090236 78.476272 9.351707 16.791045 0 0 0
608 2 1 0.090236 77.738363 10.875224 18.479331 0 0 0
609 2 1 0.090236 76.168559 9.062513 17.679046 0 0 0
610 2 2 -0.098364 75.757451 13.177559 16.551336 0 0 0
611 2 2 -0.120364 74.708713 14.070652 16.641674 0 0 0
612 2 4 0.046836 73.131261 15.969319 18.202956 0 0 0
613 2 4 0.046836 71.762928 15.485936 18.676466 0 0 0
614 2 1 -0.088964 72.131357 14.945591 15.226820 0 0 0
615 2 4 0.069836 71.290375 13.907636 16.830344 0 0 0
616 2 5 0.160636 72.128334 11.973151 16.476377 0 0 0
617 2 5 0.137136 74.028163 10.406573 15.949821 0 0 0
618 2 6 0.100836 77.474499 11.542073 15.786322 0 0 0
619 2 6 0.100836 76.453397 10.240904 15.284774 0 0 0
620 2 6 0.102614 78.145641 8.695627 15.945364 0 0 0
621 2 6 0.102614 78.940005 8.902815 17.621965 0 0 0
622 2 6 0.102614 79.227769 10.094690 16.417255 0 0 0
623 2 6 0.102614 78.171334 11.817877 18.236557 0 0 0
624 2 6 0.102614 76.942621 11.199727 19.141470 0 0 0
625 2 6 0.102614 78.369796 10.261263 19.072124 0 0 0
626 2 6 0.102614 75.258319 9.510871 18.134781 0 0 0
627 2 6 0.102614 76.422815 8.355970 18.395027 0 0 0
628 2 6 0.102614 75.829680 8.401872 16.888189 0 0 0
629 2 5 0.137136 76.777447 13.529385 16.600790 0 0 0
630 2 5 0.160636 74.891557 15.161263 16.763674 0 0 0
631 2 4 0.045503 70.704346 29.849772 26.561679 0 0 0
632 2 4 0.045503 70.464739 28.155085 26.033312 0 0 0
633 2 4 0.045503 71.504184 29.247182 25.197935 0 0 0
634 2 4 0.045503 71.160797 15.379191 14.976821 0 0 0
635 2 4 0.045503 72.836497 15.795999 14.897889 0 0 0
636 2 4 0.045503 72.430993 14.098893 14.518768 0 0 0
637 3 1 -0.072264 80.563186 34.245113 6.413960 0 0 0
638 3 1 -0.036264 81.651189 34.924524 7.370193 0 0 0
639 3 2 -0.011164 81.552334 34.524459 8.924556 0 0 0
640 3 2 -0.120364 82.545401 34.988710 9.808658 0 0 0
641 3 2 -0.098364 82.522322 34.544423 11.161387 0 0 0
642 3 2 -0.188164 81.639055 33.573759 11.563372 0 0 0
643 3 1 0.188236 81.561803 33.036230 12.998704 0 0 0
644 3 3 -0.606800 80.949203 33.902976 14.099878 0 0 0
645 3 1 0.090236 81.785553 35.193224 14.396650 0 0 0
646 3 1 0.090236 80.772187 33.100819 15.329116 0 0 0
647 3 1 0.090236 79.556206 34.431326 13.627556 0 0 0
648 3 2 -0.098364 80.604205 33.183436 10.629579 0 0 0
649 3 2 -0.120364 80.521552 33.658707 9.350844 0 0 0
650 3 1 -0.094964 80.854770 34.339163 4.879340 0 0 0
651 3 4 0.046836 80.488433 33.194303 6.610197 0 0 0
652 3 4 0.046836 79.522638 34.665955 6.568096 0 0 0
653 3 4 0.069836 82.684550 34.472203 7.102055 0 0 0
654 3 5 0.160636 83.364104 35.547461 9.428508 0 0 0
655 3 5 0.137136 83.360309 34.869500 11.764339 0 0 0
656 3 6 0.100836 82.581853 32.788689 13.358311 0 0 0
657 3 6 0.100836 81.035835 32.090362 12.937761 0 0 0
658 3 6 0.102614 82.803210 34.979482 14.665176 0 0 0
659 3 6 0.102614 81.263109 35.627407 15.253671 0 0 0
660 3 6 0.102614 81.798170 35.816385 13.455894 0 0 0
661 3 6 0.102614 81.026525 33.709017 16.154520 0 0 0
662 3 6 0.102614 79.703593 32.952981 15.386786 0 0 0
663 3 6 0.102614 81.301234 32.158834 15.538714 0 0 0
664 3 6 0.102614 79.102891 33.596502 13.116040 0 0 0
665 3 6 0.102614 79.692504 35.249956 12.950206 0 0 0
666 3 6 0.102614 78.997480 34.732744 14.426258 0 0 0
667 3 5 0.137136 79.856619 32.521260 11.018190 0 0 0
668 3 5 0.160636 79.866265 33.159122 8.700407 0 0 0
669 3 1 -0.072264 81.758690 36.474855 7.207902 0 0 0
670 3 1 -0.036264 80.421596 37.259149 7.308980 0 0 0
671 3 2 -0.011164 80.679284 38.598532 8.117067 0 0 0
672 3 2 -0.120364 80.069468 38.675960 9.351517 0 0 0
673 3 2 -0.098364 80.112420 39.882941 10.130112 0 0 0
674 3 2 -0.188164 80.727651 41.065211 9.563558 0 0 0
675 3 1 0.188236 80.709064 42.414754 10.306602 0 0 0
676 3 3 -0.606800 79.695261 43.490034 9.804927 0 0 0
677 3 1 0.090236 78.292483 42.881931 9.474583 0 0 0
678 3 1 0.090236 80.192747 44.083674 8.437767 0 0 0
679 3 1 0.090236 79.540789 44.584038 10.885007 0 0 0
680 3 2 -0.098364 81.266455 40.953889 8.258065 0 0 0
681 3 2 -0.120364 81.329130 39.725282 7.593426 0 0 0
682 3 4 0.046836 82.460621 36.888408 7.996874 0 0 0
683 3 4 0.046836 82.279353 36.655869 6.281050 0 0 0
684 3 4 0.069836 79.613723 36.702222 7.763994 0 0 0
685 3 5 0.160636 79.586162 37.846411 9.859508 0 0 0
686 3 5 0.137136 79.604921 39.795397 11.070999 0 0 0
687 3 6 0.100836 81.657192 42.988840 10.239852 0 0 0
688 3 6 0.100836 80.433528 42.350577 11.346274 0 0 0
689 3 6 0.102614 78.048476 42.072239 10.166536 0 0 0
690 3 6 0.102614 78.320325 42.330015 8.539743 0 0 0
691 3 6 0.102614 77.600930 43.702157 9.528181 0 0 0
692 3 6 0.102614 80.006925 43.404662 7.589850 0 0 0
693 3 6 0.102614 81.262050 44.367572 8.366278 0 0 0
694 3 6 0.102614 79.479019 44.844774 8.197316 0 0 0
695 3 6 0.102614 79.327815 45.506867 10.344670 0 0 0
696 3 6 0.102614 78.708805 44.301132 11.533918 0 0 0
697 3 6 0.102614 80.468737 44.775300 11.435921 0 0 0
698 3 5 0.137136 81.718811 41.922890 7.942656 0 0 0
699 3 5 0.160636 81.856330 39.626863 6.700677 0 0 0
700 3 1 -0.072264 79.918644 37.708974 5.913009 0 0 0
701 3 1 -0.036264 78.686207 38.727719 5.925566 0 0 0
702 3 2 -0.011164 77.623455 38.223823 6.875933 0 0 0
703 3 2 -0.120364 77.422985 38.971335 8.078096 0 0 0
704 3 2 -0.098364 76.717048 38.415836 9.128277 0 0 0
705 3 2 -0.188164 76.133514 37.195709 9.025868 0 0 0
706 3 1 0.188236 75.324237 36.618957 10.194560 0 0 0
707 3 3 -0.606800 76.069698 35.716801 11.173449 0 0 0
708 3 1 0.090236 75.277710 35.511460 12.492718 0 0 0
709 3 1 0.090236 76.116447 34.312098 10.587101 0 0 0
710 3 1 0.090236 77.503119 36.237335 11.525502 0 0 0
711 3 2 -0.098364 76.347002 36.458299 7.834544 0 0 0
712 3 2 -0.120364 77.063729 36.944224 6.736517 0 0 0
713 3 4 0.046836 80.600165 38.376722 5.408927 0 0 0
714 3 4 0.046836 79.783221 36.897764 5.277284 0 0 0
715 3 4 0.069836 79.023527 39.691339 6.287197 0 0 0
716 3 5 0.160636 77.884433 39.961302 8.138100 0 0 0
717 3 5 0.137136 76.616632 38.916028 10.081874 0 0 0
718 3 6 0.100836 75.079415 37.523934 10.789373 0 0 0
719 3 6 0.100836 74.460425 36.107731 9.791089 0 0 0
720 3 6 0.102614 74.200214 35.306893 12.223843 0 0 0
721 3 6 0.102614 75.340371 36.310113 13.246277 0 0 0
722 3 6 0.102614 75.706129 34.617322 13.013321 0 0 0
723 3 6 0.102614 75.199505 34.072779 10.093214 0 0 0
724 3 6 0.102614 76.826678 34.392483 9.709712 0 0 0
725 3 6 0.102614 76.554185 33.569322 11.333412 0 0 0
726 3 6 0.102614 77.738586 35.758288 12.440385 0 0 0
727 3 6 0.102614 77.536027 37.300151 11.666472 0 0 0
728 3 6 0.102614 78.261800 35.922700 10.760220 0 0 0
729 3 5 0.137136 76.010193 35.432278 7.805357 0 0 0
730 3 5 0.160636 77.261416 36.263756 5.921256 0 0 0
731 3 1 -0.072264 78.158390 38.997263 4.461156 0 0 0
732 3 1 -0.036264 76.933983 39.905327 4.428475 0 0 0
733 3 2 -0.011164 75.714837 39.060561 4.597460 0 0 0
734 3 2 -0.120364 75.593378 37.794915 3.918465 0 0 0
735 3 2 -0.098364 74.636263 36.926221 4.307239 0 0 0
736 3 2 -0.188164 73.848822 37.101836 5.442783 0 0 0
737 3 1 0.188236 72.888338 35.917347 5.856473 0 0 0
738 3 3 -0.606800 71.452376 35.881555 5.280677 0 0 0
739 3 1 0.090236 70.551995 36.780425 6.292700 0 0 0
740 3 1 0.090236 71.493513 36.410139 3.912564 0 0 0
741 3 1 0.090236 70.988988 34.446877 5.199115 0 0 0
742 3 2 -0.098364 74.037385 38.289337 6.172902 0 0 0
743 3 2 -0.120364 74.890912 39.296777 5.737368 0 0 0
744 3 4 0.046836 78.038806 37.992157 3.961194 0 0 0
745 3 4 0.046836 78.990638 39.503406 3.931630 0 0 0
746 3 4 0.069836 76.966349 40.603456 5.232267 0 0 0
747 3 5 0.160636 76.234832 37.503364 3.034862 0 0 0
748 3 5 0.137136 74.521094 35.995338 3.844586 0 0 0
749 3 6 0.100836 72.664692 35.993252 6.974557 0 0 0
750 3 6 0.100836 73.299365 34.946170 5.714134 0 0 0
751 3 6 0.102614 69.592879 37.143159 5.826771 0 0 0
752 3 6 0.102614 70.251880 36.233474 7.122563 0 0 0
753 3 6 0.102614 71.084926 37.684013 6.604314 0 0 0
754 3 6 0.102614 70.522756 36.672779 3.496461 0 0 0
755 3 6 0.102614 72.099146 37.289095 3.985440 0 0 0
756 3 6 0.102614 71.995813 35.700971 3.246810 0 0 0
757 3 6 0.102614 71.625570 33.879582 4.585586 0 0 0
758 3 6 0.102614 70.017560 34.302415 4.661885 0 0 0
759 3 6 0.102614 70.833031 34.045039 6.200416 0 0 0
760 3 5 0.137136 73.367229 38.524264 7.071448 0 0 0
761 3 5 0.160636 74.918006 40.238384 6.294153 0 0 0
762 3 1 -0.072264 76.906390 40.817823 3.169773 0 0 0
763 3 1 -0.036264 76.039514 42.091822 3.489435 0 0 0
764 3 2 -0.011164 76.645302 42.986512 4.512574 0 0 0
765 3 2 -0.120364 77.854935 43.574938 4.166488 0 0 0
766 3 2 -0.098364 78.375386 44.578540 5.021980 0 0 0
767 3 2 -0.188164 77.687120 44.880531 6.229821 0 0 0
768 3 1 0.188236 78.172876 46.112211 6.949404 0 0 0
769 3 3 -0.606800 77.449986 47.370446 6.382166 0 0 0
770 3 1 0.090236 78.139787 48.555566 7.020905 0 0 0
771 3 1 0.090236 76.072521 47.136507 7.011444 0 0 0
772 3 1 0.090236 77.376864 47.493314 4.868961 0 0 0
773 3 2 -0.098364 76.612513 44.084356 6.683283 0 0 0
774 3 2 -0.120364 76.124728 43.176576 5.846314 0 0 0
775 3 4 0.046836 76.714296 40.240867 2.265649 0 0 0
776 3 4 0.046836 77.917604 41.121585 2.930973 0 0 0
777 3 4 0.069836 75.094315 41.774014 3.928324 0 0 0
778 3 5 0.160636 78.437029 43.308782 3.217263 0 0 0
779 3 5 0.137136 79.216466 45.200595 4.776361 0 0 0
780 3 6 0.100836 79.256869 46.334975 6.982919 0 0 0
781 3 6 0.100836 77.923961 46.183169 8.027992 0 0 0
782 3 6 0.102614 79.173936 48.753634 6.648698 0 0 0
783 3 6 0.102614 77.622558 49.479681 6.742385 0 0 0
784 3 6 0.102614 78.160168 48.430734 8.157308 0 0 0
785 3 6 0.102614 76.168164 46.980934 8.057130 0 0 0
786 3 6 0.102614 75.368194 47.995658 6.872185 0 0 0
787 3 6 0.102614 75.543313 46.278389 6.562348 0 0 0
788 3 6 0.102614 77.102828 46.478963 4.647499 0 0 0
789 3 6 0.102614 78.359826 47.760343 4.493481 0 0 0
790 3 6 0.102614 76.695960 48.237304 4.489647 0 0 0
791 3 5 0.137136 76.062846 44.309024 7.627339 0 0 0
792 3 5 0.160636 75.273463 42.519193 6.123085 0 0 0
793 3 1 -0.072264 75.635890 42.902658 2.227626 0 0 0
794 3 1 -0.036264 74.782357 44.170958 2.570761 0 0 0
795 3 2 -0.011164 73.434041 43.747871 2.998792 0 0 0
796 3 2 -0.120364 72.542249 43.129349 2.092434 0 0 0
797 3 2 -0.098364 71.382891 42.563572 2.576088 0 0 0
798 3 2 -0.188164 71.009466 42.706143 3.907394 0 0 0
799 3 1 0.188236 69.825892 42.023653 4.515780 0 0 0
800 3 3 -0.606800 70.035677 40.511119 4.830380 0 0 0
801 3 1 0.090236 70.763984 39.649128 3.807165 0 0 0
802 3 1 0.090236 68.668161 39.937913 5.204411 0 0 0
803 3 1 0.090236 70.872884 40.453561 6.099372 0 0 0
804 3 2 -0.098364 71.762487 43.461200 4.736632 0 0 0
805 3 2 -0.120364 73.004799 43.966837 4.342471 0 0 0
806 3 4 0.046836 76.509832 43.265706 1.745035 0 0 0
807 3 4 0.046836 75.045799 42.350976 1.476332 0 0 0
808 3 4 0.069836 75.209232 44.587206 3.454228 0 0 0
809 3 5 0.160636 72.847739 42.906786 1.048747 0 0 0
810 3 5 0.137136 70.718323 42.042775 1.903907 0 0 0
811 3 6 0.100836 68.985185 42.027018 3.777632 0 0 0
812 3 6 0.100836 69.395433 42.516393 5.386546 0 0 0
813 3 6 0.102614 71.808565 39.824970 3.994942 0 0 0
814 3 6 0.102614 70.531235 38.581580 3.961482 0 0 0
815 3 6 0.102614 70.477148 39.942589 2.823787 0 0 0
816 3 6 0.102614 67.965110 40.155417 4.473178 0 0 0
817 3 6 0.102614 68.253305 40.553704 5.992234 0 0 0
818 3 6 0.102614 68.717497 38.855174 5.444078 0 0 0
819 3 6 0.102614 71.846490 40.853699 5.760895 0 0 0
820 3 6 0.102614 71.100746 39.395991 6.441767 0 0 0
821 3 6 0.102614 70.369665 41.105128 6.905337 0 0 0
822 3 5 0.137136 71.484411 43.702363 5.794465 0 0 0
823 3 5 0.160636 73.563880 44.553183 5.006054 0 0 0
824 3 1 -0.072264 74.807464 45.266260 1.557122 0 0 0
825 3 1 -0.036264 74.229883 46.729061 1.765614 0 0 0
826 3 2 -0.011164 75.115614 47.652651 0.937767 0 0 0
827 3 2 -0.120364 75.036561 47.597036 -0.430131 0 0 0
828 3 2 -0.098364 75.761298 48.452782 -1.291660 0 0 0
829 3 2 -0.188164 76.759262 49.371862 -0.704715 0 0 0
830 3 1 0.188236 77.584880 50.270223 -1.525607 0 0 0
831 3 3 -0.606800 76.989761 51.730291 -1.709634 0 0 0
832 3 1 0.090236 77.675958 52.227508 -2.984723 0 0 0
833 3 1 0.090236 75.433072 51.725492 -1.946022 0 0 0
834 3 1 0.090236 77.284036 52.627681 -0.483021 0 0 0
835 3 2 -0.098364 76.825043 49.430244 0.689875 0 0 0
836 3 2 -0.120364 76.026916 48.585974 1.442424 0 0 0
837 3 4 0.046836 75.902239 45.393207 1.485920 0 0 0
838 3 4 0.046836 74.366124 44.899840 0.632680 0 0 0
839 3 4 0.069836 73.223605 46.849330 1.314777 0 0 0
840 3 5 0.160636 74.275189 46.900474 -0.831091 0 0 0
841 3 5 0.137136 75.713568 48.295318 -2.395132 0 0 0
842 3 6 0.100836 78.571298 50.329828 -1.052741 0 0 0
843 3 6 0.100836 77.666599 49.780127 -2.561656 0 0 0
844 3 6 0.102614 77.624887 51.476167 -3.755837 0 0 0
845 3 6 0.102614 78.708575 52.290437 -2.829581 0 0 0
846 3 6 0.102614 77.240858 53.215879 -3.344755 0 0 0
847 3 6 0.102614 75.128351 50.953996 -2.687491 0 0 0
848 3 6 0.102614 74.957660 51.583518 -0.949796 0 0 0
849 3 6 0.102614 75.093413 52.736229 -2.248062 0 0 0
850 3 6 0.102614 76.728999 52.517981 0.444768 0 0 0
851 3 6 0.102614 78.395699 52.384766 -0.253401 0 0 0
852 3 6 0.102614 77.215519 53.729197 -0.754927 0 0 0
853 3 5 0.137136 77.608606 50.091276 1.121855 0 0 0
854 3 5 0.160636 76.169454 48.545759 2.506628 0 0 0
855 3 1 -0.072264 74.071992 47.143630 3.257971 0 0 0
856 3 1 -0.036264 73.521548 48.549801 3.600413 0 0 0
857 3 2 -0.011164 73.640007 48.920346 5.128005 0 0 0
858 3 2 -0.120364 74.491916 49.963303 5.486098 0 0 0
859 3 2 -0.098364 74.499218 50.585455 6.810437 0 0 0
860 3 2 -0.188164 73.757450 49.989055 7.843860 0 0 0
861 3 1 0.188236 73.756285 50.599690 9.248479 0 0 0
862 3 3 -0.606800 74.872084 49.855538 10.058701 0 0 0
863 3 1 0.090236 76.245403 50.346981 9.676666 0 0 0
864 3 1 0.090236 74.598591 50.107515 11.543742 0 0 0
865 3 1 0.090236 74.807723 48.361268 9.861820 0 0 0
866 3 2 -0.098364 72.820246 49.033687 7.471603 0 0 0
867 3 2 -0.120364 72.734600 48.508402 6.204406 0 0 0
868 3 4 0.046836 73.422297 46.471684 3.647929 0 0 0
869 3 4 0.046836 75.016760 47.072875 3.768353 0 0 0
870 3 4 0.069836 74.101669 49.241413 3.036711 0 0 0
871 3 5 0.160636 75.173310 50.201256 4.764954 0 0 0
872 3 5 0.137136 75.174117 51.415666 7.049630 0 0 0
873 3 6 0.100836 72.786540 50.363616 9.789278 0 0 0
874 3 6 0.100836 74.055828 51.619285 9.264911 0 0 0
875 3 6 0.102614 76.905790 49.844793 10.461958 0 0 0
876 3 6 0.102614 76.463393 50.075289 8.618083 0 0 0
877 3 6 0.102614 76.385445 51.371017 9.948711 0 0 0
878 3 6 0.102614 75.028742 49.315813 12.150690 0 0 0
879 3 6 0.102614 75.076215 51.060034 11.859737 0 0 0
880 3 6 0.102614 73.503163 50.107707 11.594530 0 0 0
881 3 6 0.102614 74.470184 48.089636 8.784658 0 0 0
882 3 6 0.102614 75.743762 47.856809 10.050045 0 0 0
883 3 6 0.102614 74.106920 47.866651 10.512793 0 0 0
884 3 5 0.137136 72.270643 48.539925 8.281952 0 0 0
885 3 5 0.160636 71.899267 47.786291 6.082140 0 0 0
886 3 1 -0.072264 71.997670 48.726678 3.109501 0 0 0
887 3 1 -0.036264 71.124628 49.889131 3.729367 0 0 0
888 3 2 -0.011164 71.912557 51.226050 3.603646 0 0 0
889 3 2 -0.120364 72.358316 51.744436 2.373840 0 0 0
890 3 2 -0.098364 73.109161 52.942598 2.355171 0 0 0
891 3 2 -0.188164 73.472438 53.670101 3.613454 0 0 0
892 3 1 0.188236 74.434189 54.862082 3.593719 0 0 0
893 3 3 -0.606800 75.901100 54.582994 3.783155 0 0 0
894 3 1 0.090236 76.388157 55.782508 4.620424 0 0 0
895 3 1 0.090236 76.098305 53.243357 4.450309 0 0 0
896 3 1 0.090236 76.509980 54.522949 2.350376 0 0 0
897 3 2 -0.098364 72.857437 53.132394 4.791253 0 0 0
898 3 2 -0.120364 72.187837 51.886246 4.799460 0 0 0
899 3 4 0.046836 71.329376 47.880860 3.381581 0 0 0
900 3 4 0.046836 72.096984 49.016952 2.034597 0 0 0
901 3 4 0.069836 70.930000 49.635442 4.813110 0 0 0
902 3 5 0.160636 72.125001 51.300218 1.410923 0 0 0
903 3 5 0.137136 73.379017 53.363756 1.391017 0 0 0
904 3 6 0.100836 74.227066 55.516070 4.484044 0 0 0
905 3 6 0.100836 74.252897 55.538048 2.723483 0 0 0
906 3 6 0.102614 76.375485 56.729915 4.032511 0 0 0
907 3 6 0.102614 77.337287 55.548738 5.092218 0 0 0
908 3 6 0.102614 75.587262 55.952550 5.402092 0 0 0
909 3 6 0.102614 77.097670 53.164172 4.783131 0 0 0
910 3 6 0.102614 75.552559 53.073070 5.336175 0 0 0
911 3 6 0.102614 75.940419 52.477120 3.698433 0 0 0
912 3 6 0.102614 77.560007 54.408845 2.415736 0 0 0
913 3 6 0.102614 76.346439 55.432613 1.851809 0 0 0
914 3 6 0.102614 76.017759 53.725392 1.898929 0 0 0
915 3 5 0.137136 73.003016 53.607172 5.785387 0 0 0
916 3 5 0.160636 71.839382 51.470475 5.686908 0 0 0
917 3 1 -0.072264 69.709052 49.966530 3.007097 0 0 0
918 3 1 -0.036264 68.998104 51.336739 3.043012 0 0 0
919 3 2 -0.011164 69.009062 51.993890 4.442148 0 0 0
920 3 2 -0.120364 68.772786 51.396461 5.679089 0 0 0
921 3 2 -0.098364 68.786169 52.137316 6.875762 0 0 0
922 3 2 -0.188164 69.078650 53.509582 6.891712 0 0 0
923 3 1 0.188236 69.352412 54.250713 8.236915 0 0 0
924 3 3 -0.606800 70.813264 54.740282 8.490446 0 0 0
925 3 1 0.090236 71.013507 55.974017 7.671462 0 0 0
926 3 1 0.090236 70.946695 55.136786 9.986793 0 0 0
927 3 1 0.090236 71.768927 53.573973 8.137530 0 0 0
928 3 2 -0.098364 69.158243 54.139998 5.662599 0 0 0
929 3 2 -0.120364 69.069696 53.380460 4.514046 0 0 0
930 3 4 0.046836 69.900805 49.780529 1.914272 0 0 0
931 3 4 0.046836 68.951418 49.185396 3.228808 0 0 0
932 3 1 -0.088964 67.546969 51.381113 2.411091 0 0 0
933 3 4 0.069836 69.627638 51.947101 2.388801 0 0 0
934 3 5 0.160636 68.599038 50.353760 5.717347 0 0 0
935 3 5 0.137136 68.644873 51.558319 7.802585 0 0 0
936 3 6 0.100836 69.020095 53.550898 8.993676 0 0 0
937 3 6 0.100836 68.715102 55.134594 8.326810 0 0 0
938 3 6 0.102614 70.901120 55.709779 6.545239 0 0 0
939 3 6 0.102614 72.003095 56.213428 7.932998 0 0 0
940 3 6 0.102614 70.429703 56.828074 8.006674 0 0 0
941 3 6 0.102614 70.773517 54.186937 10.464277 0 0 0
942 3 6 0.102614 71.967329 55.441241 10.133951 0 0 0
943 3 6 0.102614 70.191010 55.860237 10.345274 0 0 0
944 3 6 0.102614 71.372406 53.106568 7.280425 0 0 0
945 3 6 0.102614 71.737243 52.979631 8.971510 0 0 0
946 3 6 0.102614 72.848678 53.884002 8.069245 0 0 0
947 3 5 0.137136 69.408322 55.156294 5.474922 0 0 0
948 3 5 0.160636 69.118713 53.980465 3.600165 0 0 0
949 3 4 0.045503 81.310059 35.316597 4.733030 0 0 0
950 3 4 0.045503 81.421887 33.482679 4.620907 0 0 0
951 3 4 0.045503 79.886934 34.233145 4.288336 0 0 0
952 3 4 0.045503 67.670743 51.524823 1.301383 0 0 0
953 3 4 0.045503 66.972824 50.522935 2.772169 0 0 0
954 3 4 0.045503 67.026212 52.214911 2.839694 0 0 0
955 4 1 -0.072264 46.756536 41.214211 10.648573 0 0 0
956 4 1 -0.036264 47.306562 40.044870 11.500240 0 0 0
957 4 2 -0.011164 48.760692 40.240746 12.005275 0 0 0
958 4 2 -0.120364 49.358334 39.182017 12.662844 0 0 0
959 4 2 -0.098364 50.706005 39.273601 13.127159 0 0 0
960 4 2 -0.188164 51.461468 40.480297 12.945038 0 0 0
961 4 1 0.188236 52.927060 40.600278 13.570030 0 0 0
962 4 3 -0.606800 53.174030 41.702246 14.698010 0 0 0
963 4 1 0.090236 53.962211 42.961994 14.078777 0 0 0
964 4 1 0.090236 53.962818 40.828626 15.765572 0 0 0
965 4 1 0.090236 51.967419 42.135473 15.460323 0 0 0
966 4 2 -0.098364 50.837864 41.585291 12.233073 0 0 0
967 4 2 -0.120364 49.511232 41.415901 11.706478 0 0 0
968 4 1 -0.094964 47.484773 41.511968 9.272489 0 0 0
969 4 4 0.046836 45.756302 40.978699 10.409294 0 0 0
970 4 4 0.046836 46.727220 42.178672 11.213077 0 0 0
971 4 4 0.069836 46.649289 40.015371 12.357203 0 0 0
972 4 5 0.160636 48.797607 38.293954 12.835525 0 0 0
973 4 5 0.137136 51.210167 38.404315 13.524763 0 0 0
974 4 6 0.100836 53.594322 40.936649 12.781857 0 0 0
975 4 6 0.100836 53.368215 39.709752 13.853158 0 0 0
976 4 6 0.102614 54.208113 43.682684 14.877407 0 0 0
977 4 6 0.102614 53.290931 43.355023 13.397413 0 0 0
978 4 6 0.102614 54.772691 42.639451 13.452209 0 0 0
979 4 6 0.102614 53.398443 39.904338 15.808641 0 0 0
980 4 6 0.102614 54.873955 40.594221 15.227254 0 0 0
981 4 6 0.102614 54.070283 41.436685 16.682234 0 0 0
982 4 6 0.102614 51.580540 41.179008 15.902281 0 0 0
983 4 6 0.102614 51.408925 42.682523 14.749301 0 0 0
984 4 6 0.102614 52.274183 42.734754 16.263270 0 0 0
985 4 5 0.137136 51.364927 42.497455 12.181573 0 0 0
986 4 5 0.160636 49.009885 42.331343 11.416763 0 0 0
987 4 1 -0.072264 47.135712 38.748264 10.610972 0 0 0
988 4 1 -0.036264 46.591152 37.403608 11.297698 0 0 0
989 4 2 -0.011164 45.478035 37.664081 12.355978 0 0 0
990 4 2 -0.120364 45.751782 37.356382 13.677154 0 0 0
991 4 2 -0.098364 44.693109 37.289093 14.636003 0 0 0
992 4 2 -0.188164 43.355581 37.619441 14.330552 0 0 0
993 4 1 0.188236 42.299663 37.820154 15.367319 0 0 0
994 4 3 -0.606800 41.968345 36.810113 16.388667 0 0 0
995 4 1 0.090236 41.810779 35.432183 15.839611 0 0 0
996 4 1 0.090236 40.672509 37.175125 17.096376 0 0 0
997 4 1 0.090236 43.053711 36.778754 17.529638 0 0 0
998 4 2 -0.098364 43.067192 38.004992 13.003085 0 0 0
999 4 2 -0.120364 44.127546 37.957591 12.046070 0 0 0
1000 4 4 0.046836 46.551824 38.899676 9.671587 0 0 0
1001 4 4 0.046836 48.071553 38.423759 10.206864 0 0 0
1002 4 4 0.069836 47.426318 36.848048 11.780275 0 0 0
1003 4 5 0.160636 46.794820 36.989667 13.929532 0 0 0
1004 4 5 0.137136 44.894345 36.905058 15.599668 0 0 0
1005 4 6 0.100836 41.380903 37.918949 14.788767 0 0 0
1006 4 6 0.100836 42.331040 38.813241 15.870856 0 0 0
1007 4 6 0.102614 40.937189 35.381908 15.264357 0 0 0
1008 4 6 0.102614 41.543945 34.934286 16.807398 0 0 0
1009 4 6 0.102614 42.673929 34.987094 15.354296 0 0 0
1010 4 6 0.102614 40.865581 37.804224 17.978731 0 0 0
1011 4 6 0.102614 40.120029 36.282627 17.370266 0 0 0
1012 4 6 0.102614 40.073888 37.665244 16.353538 0 0 0
1013 4 6 0.102614 42.749140 36.045923 18.289702 0 0 0
1014 4 6 0.102614 43.983789 36.383998 17.125601 0 0 0
1015 4 6 0.102614 43.249358 37.742982 17.894470 0 0 0
1016 4 5 0.137136 42.073855 38.275932 12.699764 0 0 0
1017 4 5 0.160636 43.900964 38.293987 11.041953 0 0 0
1018 4 1 -0.072264 46.049873 36.525530 10.179854 0 0 0
1019 4 1 -0.036264 45.250730 35.180981 10.561559 0 0 0
1020 4 2 -0.011164 46.097018 34.225462 11.390776 0 0 0
1021 4 2 -0.120364 46.022018 34.213342 12.841057 0 0 0
1022 4 2 -0.098364 46.957018 33.585062 13.557107 0 0 0
1023 4 2 -0.188164 48.021802 32.795825 12.977346 0 0 0
1024 4 1 0.188236 49.174328 32.166659 13.726041 0 0 0
1025 4 3 -0.606800 48.975480 30.672738 14.122309 0 0 0
1026 4 1 0.090236 48.051564 30.646596 15.299724 0 0 0
1027 4 1 0.090236 48.467127 29.825713 12.995967 0 0 0
1028 4 1 0.090236 50.300086 30.106413 14.432796 0 0 0
1029 4 2 -0.098364 48.070529 32.813148 11.521213 0 0 0
1030 4 2 -0.120364 47.067298 33.384318 10.771028 0 0 0
1031 4 4 0.046836 45.535763 37.185237 9.540886 0 0 0
1032 4 4 0.046836 46.948034 36.288695 9.654524 0 0 0
1033 4 4 0.069836 44.432220 35.398721 11.246410 0 0 0
1034 4 5 0.160636 45.263285 34.754586 13.374301 0 0 0
1035 4 5 0.137136 46.847289 33.499726 14.686630 0 0 0
1036 4 6 0.100836 50.142916 32.191798 13.214184 0 0 0
1037 4 6 0.100836 49.259833 32.656695 14.748141 0 0 0
1038 4 6 0.102614 48.100396 29.579975 15.642245 0 0 0
1039 4 6 0.102614 47.026290 31.023413 14.920309 0 0 0
1040 4 6 0.102614 48.507382 31.322724 16.086056 0 0 0
1041 4 6 0.102614 48.252945 28.787467 13.287697 0 0 0
1042 4 6 0.102614 47.465293 30.163268 12.610471 0 0 0
1043 4 6 0.102614 49.202884 29.786184 12.181492 0 0 0
1044 4 6 0.102614 50.169917 29.025654 14.689838 0 0 0
1045 4 6 0.102614 50.803632 30.752195 15.103818 0 0 0
1046 4 6 0.102614 50.896386 30.118854 13.378620 0 0 0
1047 4 5 0.137136 48.886539 32.251832 10.998577 0 0 0
1048 4 5 0.160636 47.311718 33.293492 9.725229 0 0 0
1049 4 1 -0.072264 44.616617 34.713166 9.199753 0 0 0
1050 4 1 -0.036264 43.397755 33.827303 9.002629 0 0 0
1051 4 2 -0.011164 43.096729 33.761772 7.494961 0 0 0
1052 4 2 -0.120364 42.822944 34.916900 6.752799 0 0 0
1053 4 2 -0.098364 42.565002 34.821529 5.381609 0 0 0
1054 4 2 -0.188164 42.626154 33.597496 4.642818 0 0 0
1055 4 1 0.188236 42.240746 33.535170 3.154572 0 0 0
1056 4 3 -0.606800 43.347574 33.640292 2.072134 0 0 0
1057 4 1 0.090236 42.816813 33.302988 0.693947 0 0 0
1058 4 1 0.090236 43.890123 35.101549 2.132903 0 0 0
1059 4 1 0.090236 44.493680 32.678107 2.446536 0 0 0
1060 4 2 -0.098364 42.788792 32.416016 5.394054 0 0 0
1061 4 2 -0.120364 43.131000 32.505132 6.788987 0 0 0
1062 4 4 0.046836 45.407739 34.368216 8.529549 0 0 0
1063 4 4 0.046836 44.188477 35.677839 8.863641 0 0 0
1064 4 4 0.069836 43.707198 32.882066 9.439251 0 0 0
1065 4 5 0.160636 42.817157 35.890934 7.228036 0 0 0
1066 4 5 0.137136 42.418324 35.740902 4.825575 0 0 0
1067 4 6 0.100836 41.640949 34.379707 2.936958 0 0 0
1068 4 6 0.100836 41.655907 32.576250 3.003904 0 0 0
1069 4 6 0.102614 42.226407 34.088435 0.224550 0 0 0
1070 4 6 0.102614 43.647776 33.185070 0.046951 0 0 0
1071 4 6 0.102614 42.210205 32.384547 0.802695 0 0 0
1072 4 6 0.102614 44.934643 35.226366 1.719911 0 0 0
1073 4 6 0.102614 43.107871 35.567717 1.518092 0 0 0
1074 4 6 0.102614 43.891287 35.393892 3.124287 0 0 0
1075 4 6 0.102614 45.283242 32.472143 1.737095 0 0 0
1076 4 6 0.102614 43.924557 31.745765 2.467854 0 0 0
1077 4 6 0.102614 44.907325 32.948410 3.377147 0 0 0
1078 4 5 0.137136 42.684922 31.429956 4.897132 0 0 0
1079 4 5 0.160636 43.262891 31.628438 7.471833 0 0 0
1080 4 1 -0.072264 42.107666 34.027498 9.810487 0 0 0
1081 4 1 -0.036264 41.245446 32.704520 9.810642 0 0 0
1082 4 2 -0.011164 41.381515 32.010075 11.153831 0 0 0
1083 4 2 -0.120364 40.881510 32.675050 12.291016 0 0 0
1084 4 2 -0.098364 40.923566 32.086798 13.554873 0 0 0
1085 4 2 -0.188164 41.660381 30.886476 13.780423 0 0 0
1086 4 1 0.188236 41.969818 30.355910 15.217239 0 0 0
1087 4 3 -0.606800 43.141590 31.046746 15.823416 0 0 0
1088 4 1 0.090236 44.334587 31.227734 14.838979 0 0 0
1089 4 1 0.090236 43.543767 30.196536 17.037300 0 0 0
1090 4 1 0.090236 42.609963 32.338983 16.358353 0 0 0
1091 4 2 -0.098364 42.093687 30.187808 12.604898 0 0 0
1092 4 2 -0.120364 41.931502 30.758625 11.336427 0 0 0
1093 4 4 0.046836 41.510722 34.834007 9.418930 0 0 0
1094 4 4 0.046836 42.297081 34.342293 10.875455 0 0 0
1095 4 4 0.069836 41.589476 31.943072 9.062227 0 0 0
1096 4 5 0.160636 40.604625 33.726965 12.117365 0 0 0
1097 4 5 0.137136 40.753284 32.685917 14.438121 0 0 0
1098 4 6 0.100836 42.091604 29.304233 15.263342 0 0 0
1099 4 6 0.100836 41.070336 30.531821 15.770470 0 0 0
1100 4 6 0.102614 45.065085 31.992475 15.159764 0 0 0
1101 4 6 0.102614 44.861323 30.292418 14.600898 0 0 0
1102 4 6 0.102614 43.848758 31.590961 13.937724 0 0 0
1103 4 6 0.102614 42.645753 29.827342 17.484553 0 0 0
1104 4 6 0.102614 44.106134 29.304821 16.711424 0 0 0
1105 4 6 0.102614 44.102256 30.946792 17.652980 0 0 0
1106 4 6 0.102614 43.313159 32.880883 17.013560 0 0 0
1107 4 6 0.102614 41.682848 32.147119 16.906399 0 0 0
1108 4 6 0.102614 42.334068 32.912760 15.436028 0 0 0
1109 4 5 0.137136 42.427073 29.168122 12.697200 0 0 0
1110 4 5 0.160636 42.174620 30.092107 10.434116 0 0 0
1111 4 1 -0.072264 39.783166 32.947725 9.514339 0 0 0
1112 4 1 -0.036264 38.956255 31.582288 9.393399 0 0 0
1113 4 2 -0.011164 39.455712 30.546157 8.413280 0 0 0
1114 4 2 -0.120364 39.493157 30.738470 7.027462 0 0 0
1115 4 2 -0.098364 39.785039 29.657716 6.185397 0 0 0
1116 4 2 -0.188164 40.180819 28.412501 6.714047 0 0 0
1117 4 1 0.188236 40.452638 27.285609 5.749156 0 0 0
1118 4 3 -0.606800 39.484088 26.187441 5.667182 0 0 0
1119 4 1 0.090236 38.086305 26.673562 5.158575 0 0 0
1120 4 1 0.090236 39.287101 25.487398 7.026987 0 0 0
1121 4 1 0.090236 39.850288 25.078311 4.679342 0 0 0
1122 4 2 -0.098364 40.316402 28.335809 8.160271 0 0 0
1123 4 2 -0.120364 39.906879 29.370440 9.010613 0 0 0
1124 4 4 0.046836 39.259086 33.540766 10.304623 0 0 0
1125 4 4 0.046836 39.741334 33.552882 8.529910 0 0 0
1126 4 4 0.069836 39.039218 31.090553 10.411277 0 0 0
1127 4 5 0.160636 39.210614 31.684555 6.650017 0 0 0
1128 4 5 0.137136 39.713690 29.803511 5.095101 0 0 0
1129 4 6 0.100836 41.376492 26.930485 6.024959 0 0 0
1130 4 6 0.100836 40.613407 27.754576 4.782555 0 0 0
1131 4 6 0.102614 37.690945 27.490347 5.818301 0 0 0
1132 4 6 0.102614 38.287486 27.005086 4.105746 0 0 0
1133 4 6 0.102614 37.342055 25.906159 5.171839 0 0 0
1134 4 6 0.102614 40.300838 25.061046 7.284589 0 0 0
1135 4 6 0.102614 38.545574 24.670381 6.933217 0 0 0
1136 4 6 0.102614 38.923279 26.149844 7.839729 0 0 0
1137 4 6 0.102614 39.987662 25.500204 3.693796 0 0 0
1138 4 6 0.102614 38.983387 24.381511 4.622420 0 0 0
1139 4 6 0.102614 40.831287 24.631029 4.921431 0 0 0
1140 4 5 0.137136 40.618624 27.402800 8.557347 0 0 0
1141 4 5 0.160636 39.968402 29.194717 10.017979 0 0 0
1142 4 1 -0.072264 37.441916 31.825754 9.255169 0 0 0
1143 4 1 -0.036264 36.580615 31.969514 10.585322 0 0 0
1144 4 2 -0.011164 36.981841 33.252104 11.301710 0 0 0
1145 4 2 -0.120364 36.722776 34.543551 10.738377 0 0 0
1146 4 2 -0.098364 37.126789 35.656063 11.437616 0 0 0
1147 4 2 -0.188164 37.861622 35.546822 12.602356 0 0 0
1148 4 1 0.188236 38.437638 36.766653 13.334443 0 0 0
1149 4 3 -0.606800 37.614224 37.245410 14.560689 0 0 0
1150 4 1 0.090236 38.194409 38.562285 15.051217 0 0 0
1151 4 1 0.090236 36.145652 37.542438 14.176103 0 0 0
1152 4 1 0.090236 37.581317 36.202082 15.763362 0 0 0
1153 4 2 -0.098364 38.219189 34.298786 13.090236 0 0 0
1154 4 2 -0.120364 37.763943 33.172733 12.435256 0 0 0
1155 4 4 0.046836 37.319034 32.727514 8.615194 0 0 0
1156 4 4 0.046836 37.006435 30.994486 8.686816 0 0 0
1157 4 4 0.069836 35.575425 32.192179 10.228116 0 0 0
1158 4 5 0.160636 36.105250 34.560752 9.834273 0 0 0
1159 4 5 0.137136 36.852647 36.610502 11.034342 0 0 0
1160 4 6 0.100836 39.528095 36.655587 13.624732 0 0 0
1161 4 6 0.100836 38.486847 37.719823 12.703752 0 0 0
1162 4 6 0.102614 37.866660 38.735774 16.035180 0 0 0
1163 4 6 0.102614 37.949723 39.312646 14.280123 0 0 0
1164 4 6 0.102614 39.289269 38.441725 15.090013 0 0 0
1165 4 6 0.102614 36.182290 38.318196 13.435122 0 0 0
1166 4 6 0.102614 35.702679 36.708148 13.727194 0 0 0
1167 4 6 0.102614 35.504058 37.880671 14.958067 0 0 0
1168 4 6 0.102614 36.780463 36.500402 16.527624 0 0 0
1169 4 6 0.102614 37.332332 35.156226 15.449126 0 0 0
1170 4 6 0.102614 38.627005 36.198301 16.223500 0 0 0
1171 4 5 0.137136 38.999046 34.331080 13.861469 0 0 0
1172 4 5 0.160636 38.180387 32.211389 12.847446 0 0 0
1173 4 1 -0.072264 36.275563 30.682904 11.418082 0 0 0
1174 4 1 -0.036264 34.829889 30.536638 11.876249 0 0 0
1175 4 2 -0.011164 34.457757 31.338755 13.129037 0 0 0
1176 4 2 -0.120364 34.416282 32.728482 13.049932 0 0 0
1177 4 2 -0.098364 34.045981 33.498093 14.189030 0 0 0
1178 4 2 -0.188164 33.707214 32.854825 15.389767 0 0 0
1179 4 1 0.188236 33.213080 33.617045 16.628975 0 0 0
1180 4 3 -0.606800 34.192604 33.700441 17.842820 0 0 0
1181 4 1 0.090236 35.529350 34.164826 17.340138 0 0 0
1182 4 1 0.090236 33.448199 34.648964 18.853151 0 0 0
1183 4 1 0.090236 34.309524 32.350973 18.554258 0 0 0
1184 4 2 -0.098364 33.676845 31.453986 15.425157 0 0 0
1185 4 2 -0.120364 34.034150 30.681752 14.321739 0 0 0
1186 4 4 0.046836 36.620984 29.892345 10.729637 0 0 0
1187 4 4 0.046836 36.857151 30.485853 12.270669 0 0 0
1188 4 4 0.069836 34.204988 30.999824 11.121060 0 0 0
1189 4 5 0.160636 34.730880 33.189036 12.236006 0 0 0
1190 4 5 0.137136 34.073490 34.580217 14.233919 0 0 0
1191 4 6 0.100836 32.208909 33.321933 16.936808 0 0 0
1192 4 6 0.100836 33.098146 34.646490 16.292664 0 0 0
1193 4 6 0.102614 36.299025 34.593472 18.083458 0 0 0
1194 4 6 0.102614 36.006265 33.357099 16.709714 0 0 0
1195 4 6 0.102614 35.326630 35.026238 16.657537 0 0 0
1196 4 6 0.102614 32.523763 34.235901 19.225939 0 0 0
1197 4 6 0.102614 34.122380 34.709194 19.693320 0 0 0
1198 4 6 0.102614 33.297607 35.644804 18.484062 0 0 0
1199 4 6 0.102614 33.313479 31.900316 18.693061 0 0 0
1200 4 6 0.102614 34.826305 31.548421 17.908911 0 0 0
1201 4 6 0.102614 34.809624 32.458617 19.559751 0 0 0
1202 4 5 0.137136 33.300983 30.985958 16.336125 0 0 0
1203 4 5 0.160636 34.049370 29.628625 14.405779 0 0 0
1204 4 1 -0.072264 34.341157 29.043414 11.836836 0 0 0
1205 4 1 -0.036264 34.395284 28.167812 10.458723 0 0 0
1206 4 2 -0.011164 33.969892 29.031518 9.230698 0 0 0
1207 4 2 -0.120364 34.583636 28.893911 8.002459 0 0 0
1208 4 2 -0.098364 34.362760 29.740529 6.962454 0 0 0
1209 4 2 -0.188164 33.477205 30.784291 7.077059 0 0 0
1210 4 1 0.188236 33.480971 31.729530 5.896032 0 0 0
1211 4 3 -0.606800 34.634360 32.752579 5.851253 0 0 0
1212 4 1 0.090236 34.610131 33.464185 7.198557 0 0 0
1213 4 1 0.090236 35.998588 32.113226 5.779008 0 0 0
1214 4 1 0.090236 34.437172 33.861743 4.728581 0 0 0
1215 4 2 -0.098364 32.701969 30.893392 8.251085 0 0 0
1216 4 2 -0.120364 32.915582 29.989471 9.274672 0 0 0
1217 4 4 0.046836 33.276265 28.931237 12.183310 0 0 0
1218 4 4 0.046836 34.829057 28.484838 12.587740 0 0 0
1219 4 4 0.069836 33.554601 27.422879 10.612792 0 0 0
1220 4 5 0.160636 35.161117 28.003845 7.726539 0 0 0
1221 4 5 0.137136 34.871941 29.620070 6.033247 0 0 0
1222 4 6 0.100836 32.538112 32.342190 5.964224 0 0 0
1223 4 6 0.100836 33.525040 31.204475 4.929537 0 0 0
1224 4 6 0.102614 35.653859 33.640878 7.544366 0 0 0
1225 4 6 0.102614 34.051338 32.818582 7.820837 0 0 0
1226 4 6 0.102614 34.095367 34.473334 7.034882 0 0 0
1227 4 6 0.102614 36.331886 31.571823 6.623568 0 0 0
1228 4 6 0.102614 36.031890 31.582860 4.855583 0 0 0
1229 4 6 0.102614 36.705561 32.945101 5.766515 0 0 0
1230 4 6 0.102614 35.355801 34.388574 4.459004 0 0 0
1231 4 6 0.102614 33.804171 34.609163 5.022260 0 0 0
1232 4 6 0.102614 33.982654 33.334920 3.803187 0 0 0
1233 4 5 0.137136 31.882472 31.589319 8.264470 0 0 0
1234 4 5 0.160636 32.256951 29.961419 10.149247 0 0 0
1235 4 1 -0.072264 35.665690 27.281125 10.189636 0 0 0
1236 4 1 -0.036264 36.256155 26.322527 11.202321 0 0 0
1237 4 2 -0.011164 36.966403 27.063127 12.330721 0 0 0
1238 4 2 -0.120364 38.000769 27.981452 12.063689 0 0 0
1239 4 2 -0.098364 38.568666 28.693850 13.130277 0 0 0
1240 4 2 -0.188164 38.107966 28.456678 14.459827 0 0 0
1241 4 1 0.188236 38.886159 29.105765 15.627777 0 0 0
1242 4 3 -0.606800 38.224747 30.253494 16.449514 0 0 0
1243 4 1 0.090236 36.921320 29.793344 17.049372 0 0 0
1244 4 1 0.090236 39.031781 30.812574 17.610660 0 0 0
1245 4 1 0.090236 38.002789 31.406677 15.465501 0 0 0
1246 4 2 -0.098364 37.055949 27.626668 14.655868 0 0 0
1247 4 2 -0.120364 36.503600 26.917986 13.643733 0 0 0
1248 4 4 0.046836 35.323234 26.713419 9.317920 0 0 0
1249 4 4 0.046836 36.479521 27.849803 9.722639 0 0 0
1250 4 1 -0.088964 37.226320 25.399445 10.357340 0 0 0
1251 4 4 0.069836 35.458210 25.763177 11.571789 0 0 0
1252 4 5 0.160636 38.271514 28.283346 11.048344 0 0 0
1253 4 5 0.137136 39.438299 29.250314 12.910483 0 0 0
1254 4 6 0.100836 39.896543 29.376389 15.351359 0 0 0
1255 4 6 0.100836 39.058007 28.385627 16.345291 0 0 0
1256 4 6 0.102614 36.460154 30.648481 17.666375 0 0 0
1257 4 6 0.102614 37.123721 28.937441 17.669513 0 0 0
1258 4 6 0.102614 36.191414 29.550657 16.252267 0 0 0
1259 4 6 0.102614 40.087212 30.475556 17.610356 0 0 0
1260 4 6 0.102614 39.012796 31.955140 17.544316 0 0 0
1261 4 6 0.102614 38.412727 30.560264 18.525410 0 0 0
1262 4 6 0.102614 37.651151 32.336545 16.059522 0 0 0
1263 4 6 0.102614 37.310685 31.061045 14.663908 0 0 0
1264 4 6 0.102614 38.989702 31.665944 15.007395 0 0 0
1265 4 5 0.137136 36.551802 27.549960 15.620074 0 0 0
1266 4 5 0.160636 35.785506 26.187874 13.850547 0 0 0
1267 4 4 0.045503 46.738260 41.501081 8.465652 0 0 0
1268 4 4 0.045503 48.127790 42.356276 9.267513 0 0 0
1269 4 4 0.045503 48.159003 40.676837 9.077950 0 0 0
1270 4 4 0.045503 37.666734 24.611651 10.978157 0 0 0
1271 4 4 0.045503 36.695721 24.923820 9.516066 0 0 0
1272 4 4 0.045503 38.021337 25.991877 9.872351 0 0 0
1273 5 1 -0.072264 56.104816 29.904357 3.732050 0 0 0
1274 5 1 -0.036264 55.931858 28.439941 4.331249 0 0 0
1275 5 2 -0.011164 55.146657 28.420729 5.645294 0 0 0
1276 5 2 -0.120364 55.503779 29.227539 6.744181 0 0 0
1277 5 2 -0.098364 54.814100 29.155215 7.969282 0 0 0
1278 5 2 -0.188164 53.734053 28.267515 8.054715 0 0 0
1279 5 1 0.188236 52.909038 28.068418 9.340454 0 0 0
1280 5 3 -0.606800 51.693617 28.998825 9.662423 0 0 0
1281 5 1 0.090236 51.990102 30.502569 9.435673 0 0 0
1282 5 1 0.090236 51.313234 28.817924 11.143195 0 0 0
1283 5 1 0.090236 50.498101 28.622758 8.754982 0 0 0
1284 5 2 -0.098364 53.418492 27.471998 7.019166 0 0 0
1285 5 2 -0.120364 54.105376 27.541255 5.803244 0 0 0
1286 5 1 -0.094964 54.786506 30.680617 3.661918 0 0 0
1287 5 4 0.046836 56.884866 30.427657 4.317044 0 0 0
1288 5 4 0.046836 56.573744 29.870501 2.727717 0 0 0
1289 5 4 0.069836 55.300194 27.920906 3.619056 0 0 0
1290 5 5 0.160636 56.471853 29.801931 6.672337 0 0 0
1291 5 5 0.137136 55.072159 29.741510 8.814708 0 0 0
1292 5 6 0.100836 53.649077 28.164913 10.109564 0 0 0
1293 5 6 0.100836 52.548725 27.070244 9.322841 0 0 0
1294 5 6 0.102614 52.882250 30.759894 10.001804 0 0 0
1295 5 6 0.102614 51.266594 31.198413 9.801601 0 0 0
1296 5 6 0.102614 52.169456 30.535021 8.357642 0 0 0
1297 5 6 0.102614 50.455485 29.440828 11.394033 0 0 0
1298 5 6 0.102614 51.088134 27.795646 11.197058 0 0 0
1299 5 6 0.102614 52.153939 29.152205 11.783996 0 0 0
1300 5 6 0.102614 50.718246 28.706568 7.688398 0 0 0
1301 5 6 0.102614 49.739424 29.273737 9.208576 0 0 0
1302 5 6 0.102614 50.295222 27.587958 8.948897 0 0 0
1303 5 5 0.137136 52.540943 26.838991 7.113867 0 0 0
1304 5 5 0.160636 53.813121 26.897375 4.984823 0 0 0
1305 5 1 -0.072264 57.282649 27.812436 4.436569 0 0 0
1306 5 1 -0.036264 57.290399 26.360153 4.908568 0 0 0
1307 5 2 -0.011164 56.763725 25.477034 3.729059 0 0 0
1308 5 2 -0.120364 55.527500 24.939684 3.707803 0 0 0
1309 5 2 -0.098364 55.086435 24.053081 2.723960 0 0 0
1310 5 2 -0.188164 55.899983 23.724707 1.650033 0 0 0
1311 5 1 0.188236 55.330976 22.814730 0.551966 0 0 0
1312 5 3 -0.606800 54.883812 21.433841 1.073601 0 0 0
1313 5 1 0.090236 54.944692 20.447804 -0.102878 0 0 0
1314 5 1 0.090236 53.372993 21.532454 1.499114 0 0 0
1315 5 1 0.090236 55.652795 20.984050 2.202645 0 0 0
1316 5 2 -0.098364 57.240193 24.289425 1.641929 0 0 0
1317 5 2 -0.120364 57.718152 25.097994 2.698678 0 0 0
1318 5 4 0.046836 57.700123 27.779573 3.433988 0 0 0
1319 5 4 0.046836 57.892957 28.506923 4.995490 0 0 0
1320 5 4 0.069836 56.584012 26.418939 5.733988 0 0 0
1321 5 5 0.160636 54.861463 25.045293 4.599385 0 0 0
1322 5 5 0.137136 54.074408 23.701715 2.823600 0 0 0
1323 5 6 0.100836 56.026018 22.635127 -0.306436 0 0 0
1324 5 6 0.100836 54.501035 23.252070 0.140348 0 0 0
1325 5 6 0.102614 54.382564 20.875756 -0.948173 0 0 0
1326 5 6 0.102614 54.496056 19.471019 0.077675 0 0 0
1327 5 6 0.102614 55.990655 20.299139 -0.522738 0 0 0
1328 5 6 0.102614 53.132887 22.419337 2.206075 0 0 0
1329 5 6 0.102614 52.984943 20.628353 1.928618 0 0 0
1330 5 6 0.102614 52.904577 21.700467 0.527722 0 0 0
1331 5 6 0.102614 56.695013 21.069013 1.906585 0 0 0
1332 5 6 0.102614 55.645655 21.736589 3.021975 0 0 0
1333 5 6 0.102614 55.442354 20.010127 2.639874 0 0 0
1334 5 5 0.137136 57.925822 24.022709 0.845354 0 0 0
1335 5 5 0.160636 58.842874 25.386656 2.710572 0 0 0
1336 5 1 -0.072264 58.675971 25.980279 5.567708 0 0 0
1337 5 1 -0.036264 58.644815 24.691783 6.399569 0 0 0
1338 5 2 -0.011164 57.581672 24.651282 7.528084 0 0 0
1339 5 2 -0.120364 56.705984 23.631593 7.721886 0 0 0
1340 5 2 -0.098364 55.759334 23.676867 8.715423 0 0 0
1341 5 2 -0.188164 55.628861 24.723471 9.538657 0 0 0
1342 5 1 0.188236 54.742176 24.593110 10.679106 0 0 0
1343 5 3 -0.606800 55.301414 23.952619 11.935641 0 0 0
1344 5 1 0.090236 54.236723 23.981991 12.962874 0 0 0
1345 5 1 0.090236 55.435057 22.501636 11.638661 0 0 0
1346 5 1 0.090236 56.623217 24.511822 12.571502 0 0 0
1347 5 2 -0.098364 56.459102 25.815678 9.355617 0 0 0
1348 5 2 -0.120364 57.392046 25.814898 8.361509 0 0 0
1349 5 4 0.046836 59.361174 25.765270 4.734160 0 0 0
1350 5 4 0.046836 59.083759 26.769462 6.154251 0 0 0
1351 5 4 0.069836 58.245294 23.936587 5.672495 0 0 0
1352 5 5 0.160636 56.873662 22.643139 7.189908 0 0 0
1353 5 5 0.137136 55.092496 22.814489 8.991212 0 0 0
1354 5 6 0.100836 54.373655 25.635905 10.805606 0 0 0
1355 5 6 0.100836 53.894880 24.017834 10.359693 0 0 0
1356 5 6 0.102614 53.323791 23.566532 12.518798 0 0 0
1357 5 6 0.102614 54.158350 25.017440 13.321101 0 0 0
1358 5 6 0.102614 54.466736 23.395122 13.886982 0 0 0
1359 5 6 0.102614 54.467161 21.962818 11.585380 0 0 0
1360 5 6 0.102614 55.980167 22.405592 10.689423 0 0 0
1361 5 6 0.102614 55.997540 22.144818 12.453303 0 0 0
1362 5 6 0.102614 56.445579 25.518297 12.883185 0 0 0
1363 5 6 0.102614 57.440233 24.616109 11.863761 0 0 0
1364 5 6 0.102614 56.873357 23.909182 13.399810 0 0 0
1365 5 5 0.137136 56.442484 26.582520 10.089980 0 0 0
1366 5 5 0.160636 57.961078 26.707974 8.213145 0 0 0
1367 5 1 -0.072264 59.964537 24.094662 6.952450 0 0 0
1368 5 1 -0.036264 60.016030 22.531944 7.333214 0 0 0
1369 5 2 -0.011164 59.425132 22.065533 8.622581 0 0 0
1370 5 2 -0.120364 59.637809 22.785427 9.786238 0 0 0
1371 5 2 -0.098364 59.277041 22.248452 10.999769 0 0 0
1372 5 2 -0.188164 58.664681 20.977199 11.159474 0 0 0
1373 5 1 0.188236 58.153717 20.456398 12.504037 0 0 0
1374 5 3 -0.606800 59.072523 19.899239 13.600878 0 0 0
1375 5 1 0.090236 60.157278 19.112113 12.898352 0 0 0
1376 5 1 0.090236 59.721085 21.048181 14.451699 0 0 0
1377 5 1 0.090236 58.241201 18.856673 14.490836 0 0 0
1378 5 2 -0.098364 58.416247 20.283786 10.006875 0 0 0
1379 5 2 -0.120364 58.709789 20.820915 8.747452 0 0 0
1380 5 4 0.046836 60.434329 24.722659 7.734152 0 0 0
1381 5 4 0.046836 60.596850 24.220547 6.070439 0 0 0
1382 5 4 0.069836 59.388046 22.159167 6.420811 0 0 0
1383 5 5 0.160636 60.254268 23.709852 9.770203 0 0 0
1384 5 5 0.137136 59.519487 22.785713 11.880007 0 0 0
1385 5 6 0.100836 57.570535 19.624544 12.225546 0 0 0
1386 5 6 0.100836 57.568253 21.222058 12.912380 0 0 0
1387 5 6 0.102614 60.948999 19.752864 12.490810 0 0 0
1388 5 6 0.102614 60.644401 18.423495 13.656634 0 0 0
1389 5 6 0.102614 59.787608 18.448244 12.131530 0 0 0
1390 5 6 0.102614 60.574347 20.622867 14.969523 0 0 0
1391 5 6 0.102614 60.108120 21.946351 13.928018 0 0 0
1392 5 6 0.102614 59.059722 21.410526 15.249922 0 0 0
1393 5 6 0.102614 57.617140 19.338246 15.259405 0 0 0
1394 5 6 0.102614 58.905703 18.121186 15.016992 0 0 0
1395 5 6 0.102614 57.553794 18.304286 13.818511 0 0 0
1396 5 5 0.137136 57.989262 19.333321 10.046609 0 0 0
1397 5 5 0.160636 58.495488 20.186436 7.830874 0 0 0
1398 5 1 -0.072264 61.476861 21.972074 7.252192 0 0 0
1399 5 1 -0.036264 61.573172 20.540891 6.807121 0 0 0
1400 5 2 -0.011164 61.505067 20.336082 5.340752 0 0 0
1401 5 2 -0.120364 62.424769 20.853628 4.335486 0 0 0
1402 5 2 -0.098364 62.233404 20.563873 2.937184 0 0 0
1403 5 2 -0.188164 61.182355 19.703761 2.587052 0 0 0
1404 5 1 0.188236 60.850913 19.429072 1.103153 0 0 0
1405 5 3 -0.606800 59.485528 20.000364 0.671278 0 0 0
1406 5 1 0.090236 59.375823 20.168479 -0.864522 0 0 0
1407 5 1 0.090236 59.266752 21.360322 1.305010 0 0 0
1408 5 1 0.090236 58.317796 19.054132 1.085440 0 0 0
1409 5 2 -0.098364 60.270683 19.216122 3.503446 0 0 0
1410 5 2 -0.120364 60.416602 19.556863 4.866750 0 0 0
1411 5 4 0.046836 61.999789 22.129670 8.238654 0 0 0
1412 5 4 0.046836 62.109150 22.565498 6.573164 0 0 0
1413 5 4 0.069836 60.778486 20.014270 7.293501 0 0 0
1414 5 5 0.160636 63.247383 21.482430 4.546138 0 0 0
1415 5 5 0.137136 62.746735 21.108335 2.097289 0 0 0
1416 5 6 0.100836 60.874536 18.409366 0.783541 0 0 0
1417 5 6 0.100836 61.505499 19.903000 0.423616 0 0 0
1418 5 6 0.102614 58.634516 20.852879 -1.070883 0 0 0
1419 5 6 0.102614 60.302127 20.522916 -1.294230 0 0 0
1420 5 6 0.102614 59.119842 19.234761 -1.442173 0 0 0
1421 5 6 0.102614 58.976804 21.177555 2.389247 0 0 0
1422 5 6 0.102614 60.144149 21.958272 1.151809 0 0 0
1423 5 6 0.102614 58.321172 21.714542 0.915675 0 0 0
1424 5 6 0.102614 58.155850 18.963131 2.173074 0 0 0
1425 5 6 0.102614 58.555353 18.069818 0.650178 0 0 0
1426 5 6 0.102614 57.354296 19.485464 0.663104 0 0 0
1427 5 5 0.137136 59.450645 18.518566 3.374743 0 0 0
1428 5 5 0.160636 59.613268 19.264119 5.572369 0 0 0
1429 5 1 -0.072264 62.854582 19.851133 7.333198 0 0 0
1430 5 1 -0.036264 62.750661 18.345591 7.355421 0 0 0
1431 5 2 -0.011164 61.792008 17.700797 8.432883 0 0 0
1432 5 2 -0.120364 62.141748 17.537221 9.806470 0 0 0
1433 5 2 -0.098364 61.274478 16.813511 10.656164 0 0 0
1434 5 2 -0.188164 59.971501 16.398859 10.201961 0 0 0
1435 5 1 0.188236 59.069639 15.556352 11.123560 0 0 0
1436 5 3 -0.606800 59.166853 14.080579 10.967250 0 0 0
1437 5 1 0.090236 58.549934 13.330800 12.181600 0 0 0
1438 5 1 0.090236 60.547112 13.475090 10.820478 0 0 0
1439 5 1 0.090236 58.440273 13.649610 9.774213 0 0 0
1440 5 2 -0.098364 59.643719 16.583993 8.863053 0 0 0
1441 5 2 -0.120364 60.555200 17.152456 7.978114 0 0 0
1442 5 4 0.046836 63.712848 20.188851 6.742668 0 0 0
1443 5 4 0.046836 63.099131 20.142790 8.404915 0 0 0
1444 5 4 0.069836 62.385824 18.026892 6.350138 0 0 0
1445 5 5 0.160636 62.941061 18.123705 10.192035 0 0 0
1446 5 5 0.137136 61.545294 16.822220 11.701280 0 0 0
1447 5 6 0.100836 57.979606 15.729468 11.093157 0 0 0
1448 5 6 0.100836 59.281919 15.784659 12.119453 0 0 0
1449 5 6 0.102614 59.231564 13.220073 13.052785 0 0 0
1450 5 6 0.102614 57.688421 13.923412 12.468616 0 0 0
1451 5 6 0.102614 58.175760 12.339275 11.808298 0 0 0
1452 5 6 0.102614 61.170879 14.153548 10.310167 0 0 0
1453 5 6 0.102614 60.385347 12.738078 10.029815 0 0 0
1454 5 6 0.102614 60.993907 13.054723 11.745427 0 0 0
1455 5 6 0.102614 57.395857 13.989418 9.904106 0 0 0
1456 5 6 0.102614 58.471398 12.547812 9.665385 0 0 0
1457 5 6 0.102614 58.805798 14.095852 8.853630 0 0 0
1458 5 5 0.137136 58.728906 16.212254 8.376997 0 0 0
1459 5 5 0.160636 60.431569 17.106475 6.907602 0 0 0
1460 5 1 -0.072264 64.160469 17.683017 7.224146 0 0 0
1461 5 1 -0.036264 64.329846 16.137137 7.429087 0 0 0
1462 5 2 -0.011164 63.142141 15.315829 6.792246 0 0 0
1463 5 2 -0.120364 62.075727 14.661191 7.418889 0 0 0
1464 5 2 -0.098364 60.997186 14.119608 6.707862 0 0 0
1465 5 2 -0.188164 60.913854 14.293162 5.287607 0 0 0
1466 5 1 0.188236 59.656128 13.861079 4.474922 0 0 0
1467 5 3 -0.606800 58.804078 15.107730 3.953623 0 0 0
1468 5 1 0.090236 59.526357 15.758549 2.747195 0 0 0
1469 5 1 0.090236 57.391318 14.640896 3.493742 0 0 0
1470 5 1 0.090236 58.549892 16.155906 4.988201 0 0 0
1471 5 2 -0.098364 62.103095 14.803963 4.642448 0 0 0
1472 5 2 -0.120364 63.171366 15.271470 5.404415 0 0 0
1473 5 4 0.046836 64.648473 17.903540 6.235476 0 0 0
1474 5 4 0.046836 64.822849 18.281236 7.882112 0 0 0
1475 5 4 0.069836 65.187120 16.028856 6.810703 0 0 0
1476 5 5 0.160636 62.002682 14.767887 8.455024 0 0 0
1477 5 5 0.137136 60.192664 13.684111 7.238466 0 0 0
1478 5 6 0.100836 59.941632 13.201904 3.718942 0 0 0
1479 5 6 0.100836 59.015804 13.291582 5.193701 0 0 0
1480 5 6 0.102614 58.952439 16.479871 2.180930 0 0 0
1481 5 6 0.102614 59.938731 14.890544 2.147580 0 0 0
1482 5 6 0.102614 60.347382 16.369074 3.059829 0 0 0
1483 5 6 0.102614 56.637143 15.459545 3.331607 0 0 0
1484 5 6 0.102614 57.525316 14.053787 2.466608 0 0 0
1485 5 6 0.102614 56.910391 14.130157 4.320495 0 0 0
1486 5 6 0.102614 57.863227 15.776021 5.712522 0 0 0
1487 5 6 0.102614 59.600765 16.262845 5.327405 0 0 0
1488 5 6 0.102614 58.241202 17.111438 4.546851 0 0 0
1489 5 5 0.137136 62.153674 14.899643 3.531453 0 0 0
1490 5 5 0.160636 64.016673 15.775140 4.964954 0 0 0
1491 5 1 -0.072264 64.686427 15.731569 8.861755 0 0 0
1492 5 1 -0.036264 65.949501 14.804549 8.947278 0 0 0
1493 5 2 -0.011164 65.576190 13.533600 8.278941 0 0 0
1494 5 2 -0.120364 66.080670 13.328055 6.992455 0 0 0
1495 5 2 -0.098364 65.633856 12.193191 6.240762 0 0 0
1496 5 2 -0.188164 64.705335 11.310874 6.779468 0 0 0
1497 5 1 0.188236 64.161990 10.261982 5.918458 0 0 0
1498 5 3 -0.606800 62.956543 10.597650 4.983340 0 0 0
1499 5 1 0.090236 62.821563 9.585677 3.875303 0 0 0
1500 5 1 0.090236 61.792050 10.640489 5.853905 0 0 0
1501 5 1 0.090236 63.102428 12.012704 4.447688 0 0 0
1502 5 2 -0.098364 64.151332 11.543149 8.090925 0 0 0
1503 5 2 -0.120364 64.641337 12.627903 8.855499 0 0 0
1504 5 4 0.046836 65.025373 16.678096 9.459490 0 0 0
1505 5 4 0.046836 63.869532 15.242232 9.474511 0 0 0
1506 5 4 0.069836 66.675099 15.241812 8.345702 0 0 0
1507 5 5 0.160636 66.769822 14.040556 6.547847 0 0 0
1508 5 5 0.137136 65.956754 12.012999 5.217744 0 0 0
1509 5 6 0.100836 63.906456 9.432579 6.566427 0 0 0
1510 5 6 0.100836 65.087743 9.965742 5.422545 0 0 0
1511 5 6 0.102614 62.061061 9.958582 3.173792 0 0 0
1512 5 6 0.102614 63.734564 9.587774 3.328936 0 0 0
1513 5 6 0.102614 62.592104 8.617539 4.121305 0 0 0
1514 5 6 0.102614 61.639860 9.600059 6.273706 0 0 0
1515 5 6 0.102614 61.958378 11.391280 6.599970 0 0 0
1516 5 6 0.102614 61.008588 11.000354 5.178236 0 0 0
1517 5 6 0.102614 62.392148 12.176160 3.613841 0 0 0
1518 5 6 0.102614 62.978638 12.738071 5.248732 0 0 0
1519 5 6 0.102614 64.091121 12.194206 4.078454 0 0 0
1520 5 5 0.137136 63.262827 10.995570 8.420260 0 0 0
1521 5 5 0.160636 64.049040 12.960823 9.749341 0 0 0
1522 5 1 -0.072264 66.600783 14.658490 10.307354 0 0 0
1523 5 1 -0.036264 67.333000 15.987299 10.850356 0 0 0
1524 5 2 -0.011164 67.572418 17.099154 9.820682 0 0 0
1525 5 2 -0.120364 66.926681 18.352710 9.761698 0 0 0
1526 5 2 -0.098364 67.180779 19.340773 8.869352 0 0 0
1527 5 2 -0.188164 68.236381 19.155612 8.010003 0 0 0
1528 5 1 0.188236 68.693547 20.324442 7.195631 0 0 0
1529 5 3 -0.606800 67.949358 20.862552 6.011646 0 0 0
1530 5 1 0.090236 66.477481 20.391458 6.141573 0 0 0
1531 5 1 0.090236 68.092852 22.354746 5.973452 0 0 0
1532 5 1 0.090236 68.459569 20.371334 4.612961 0 0 0
1533 5 2 -0.098364 69.014883 18.009084 8.079532 0 0 0
1534 5 2 -0.120364 68.632628 16.963957 8.942671 0 0 0
1535 5 4 0.046836 67.320156 13.933940 10.103225 0 0 0
1536 5 4 0.046836 65.877378 14.235301 11.003948 0 0 0
1537 5 4 0.069836 68.334950 15.531669 10.988239 0 0 0
1538 5 5 0.160636 66.126220 18.551792 10.428648 0 0 0
1539 5 5 0.137136 66.525314 20.188341 8.935626 0 0 0
1540 5 6 0.100836 69.732093 20.203640 6.829452 0 0 0
1541 5 6 0.100836 68.753505 21.120630 7.941549 0 0 0
1542 5 6 0.102614 66.382427 19.342696 6.335024 0 0 0
1543 5 6 0.102614 65.888417 20.562654 5.275777 0 0 0
1544 5 6 0.102614 65.968134 20.890459 6.996021 0 0 0
1545 5 6 0.102614 68.097539 22.731719 4.975449 0 0 0
1546 5 6 0.102614 67.280947 22.844379 6.546819 0 0 0
1547 5 6 0.102614 69.003630 22.628520 6.441611 0 0 0
1548 5 6 0.102614 68.135672 19.345990 4.356805 0 0 0
1549 5 6 0.102614 69.496934 20.396603 4.719138 0 0 0
1550 5 6 0.102614 68.103566 21.092390 3.873503 0 0 0
1551 5 5 0.137136 69.900845 17.996228 7.462908 0 0 0
1552 5 5 0.160636 69.259595 16.074935 8.914808 0 0 0
1553 5 1 -0.072264 66.786493 16.415352 12.281285 0 0 0
1554 5 1 -0.036264 67.538429 17.486684 13.109038 0 0 0
1555 5 2 -0.011164 67.390082 18.944594 12.710277 0 0 0
1556 5 2 -0.120364 66.128022 19.448768 12.800762 0 0 0
1557 5 2 -0.098364 65.871685 20.718628 12.367939 0 0 0
1558 5 2 -0.188164 66.895837 21.556280 11.775875 0 0 0
1559 5 1 0.188236 66.605886 22.934317 11.291211 0 0 0
1560 5 3 -0.606800 65.986546 23.174063 9.933996 0 0 0
1561 5 1 0.090236 64.731996 22.315801 9.688593 0 0 0
1562 5 1 0.090236 65.549483 24.636572 9.850286 0 0 0
1563 5 1 0.090236 67.049674 22.921610 8.880272 0 0 0
1564 5 2 -0.098364 68.237746 21.042306 11.666298 0 0 0
1565 5 2 -0.120364 68.421765 19.732164 12.153832 0 0 0
1566 5 4 0.046836 65.730521 16.746900 12.252807 0 0 0
1567 5 4 0.046836 66.667659 15.435597 12.747211 0 0 0
1568 5 1 -0.088964 68.986218 17.135424 13.412316 0 0 0
1569 5 4 0.069836 67.050300 17.339519 14.095036 0 0 0
1570 5 5 0.160636 65.387433 18.785430 13.246512 0 0 0
1571 5 5 0.137136 64.899569 21.083043 12.471286 0 0 0
1572 5 6 0.100836 67.525213 23.534896 11.375187 0 0 0
1573 5 6 0.100836 65.887723 23.283792 12.025117 0 0 0
1574 5 6 0.102614 64.901358 21.275003 10.000865 0 0 0
1575 5 6 0.102614 64.460678 22.242290 8.602828 0 0 0
1576 5 6 0.102614 63.885823 22.756553 10.226451 0 0 0
1577 5 6 0.102614 66.317544 25.298639 9.523651 0 0 0
1578 5 6 0.102614 64.698133 24.694121 9.100504 0 0 0
1579 5 6 0.102614 65.222485 25.097954 10.822019 0 0 0
1580 5 6 0.102614 67.714253 23.766735 8.634758 0 0 0
1581 5 6 0.102614 66.610611 22.654505 7.968761 0 0 0
1582 5 6 0.102614 67.792818 22.152743 9.136333 0 0 0
1583 5 5 0.137136 69.064662 21.617306 11.257935 0 0 0
1584 5 5 0.160636 69.447517 19.373480 12.058479 0 0 0
1585 5 4 0.045503 54.107944 30.224654 2.958056 0 0 0
1586 5 4 0.045503 54.249972 30.735448 4.640319 0 0 0
1587 5 4 0.045503 55.078599 31.642253 3.208885 0 0 0
1588 5 4 0.045503 69.535448 16.904157 12.516372 0 0 0
1589 5 4 0.045503 69.516358 17.928087 13.917610 0 0 0
1590 5 4 0.045503 68.852400 16.124326 13.936420 0 0 0
1591 6 7 -1.319550 67.478963 10.887422 -4.543729 0 0 0
1592 6 8 0.320000 67.203504 11.261055 -3.701175 0 0 0
1593 7 7 -1.320000 62.065138 -19.029144 -30.561437 0 0 0
1594 7 8 0.320000 62.520432 -18.235662 -30.173852 0 0 0
1595 8 7 -1.320000 128.574301 21.977523 -15.269240 0 0 0
1596 8 8 0.320000 128.393118 22.870508 -14.874276 0 0 0
1597 9 7 -1.320000 100.382911 57.588861 -17.054613 0 0 0
1598 9 8 0.320000 100.753227 57.214902 -16.179813 0 0 0
1599 10 7 -1.320000 62.258711 -20.948409 -20.603782 0 0 0
1600 10 8 0.320000 63.134256 -20.977761 -20.133926 0 0 0
1601 11 7 -1.320000 88.077582 14.726147 -12.943520 0 0 0
1602 11 8 0.320000 88.578937 15.153056 -13.695549 0 0 0
1603 12 7 -1.320000 99.483978 20.447035 -16.536260 0 0 0
1604 12 8 0.320000 99.326365 19.579348 -16.142286 0 0 0
1605 13 7 -1.320000 92.312548 17.663268 30.162050 0 0 0
1606 13 8 0.320000 92.636254 17.483490 31.074201 0 0 0
1607 14 7 -1.320000 102.326732 12.689416 -1.635756 0 0 0
1608 14 8 0.320000 101.727056 13.363956 -2.098219 0 0 0
1609 15 7 -1.320000 64.669965 8.775805 16.550791 0 0 0
1610 15 8 0.320000 63.708351 8.844511 16.503465 0 0 0
1611 16 7 -1.320000 66.451429 52.238109 11.147903 0 0 0
1612 16 8 0.320000 65.995101 52.931484 11.697353 0 0 0
1613 17 7 -1.320000 43.313394 12.297305 3.402488 0 0 0
1614 17 8 0.320000 43.002065 13.007290 4.057542 0 0 0
1615 18 7 -1.320000 72.830303 -18.522404 5.026981 0 0 0
1616 18 8 0.320000 72.162649 -19.247897 4.980788 0 0 0
1617 19 7 -1.320000 80.957895 88.920762 12.963857 0 0 0
1618 19 8 0.320000 80.557641 88.568840 12.097486 0 0 0
1619 20 7 -1.320000 110.553019 61.091718 -22.347157 0 0 0
1620 20 8 0.320000 109.968421 60.706057 -23.129512 0 0 0
1621 21 7 -1.320000 61.351398 43.074031 96.672431 0 0 0
1622 21 8 0.320000 62.172818 42.507029 96.605343 0 0 0
1623 22 7 -1.320000 55.664434 95.874434 39.324848 0 0 0
1624 22 8 0.320000 56.487085 95.394481 39.095711 0 0 0
1625 23 7 -1.320000 69.423553 13.575485 8.093072 0 0 0
1626 23 8 0.320000 68.703422 13.212056 8.660516 0 0 0
1627 24 7 -1.320000 46.818819 23.767141 -11.717560 0 0 0
1628 24 8 0.320000 46.389244 24.438228 -11.144130 0 0 0
1629 25 7 -1.320000 60.369069 36.290212 -16.843112 0 0 0
1630 25 8 0.320000 60.049244 37.159330 -17.170778 0 0 0
1631 26 7 -1.320000 81.352984 -14.936049 42.558501 0 0 0
1632 26 8 0.320000 82.094196 -14.359072 42.204028 0 0 0
1633 27 7 -1.320000 95.400359 -16.157672 -34.231142 0 0 0
1634 27 8 0.320000 95.162974 -15.718264 -35.072562 0 0 0
1635 28 7 -1.320000 61.488049 -1.806102 -62.535372 0 0 0
1636 28 8 0.320000 60.774487 -1.564964 -63.176376 0 0 0
1637 29 7 -1.320000 56.431217 22.871582 -3.238507 0 0 0
1638 29 8 0.320000 56.902211 22.787416 -4.125132 0 0 0
1639 30 7 -1.320000 44.537053 48.884803 -16.962494 0 0 0
1640 30 8 0.320000 45.404209 49.199836 -17.302936 0 0 0
1641 31 7 -1.320000 81.281359 17.902993 2.764479 0 0 0
1642 31 8 0.320000 80.604440 17.656193 2.101147 0 0 0
1643 32 7 -1.320000 102.782149 75.643086 29.251627 0 0 0
1644 32 8 0.320000 101.803381 75.599165 29.255287 0 0 0
1645 33 7 -1.320000 37.958709 0.935238 27.010384 0 0 0
1646 33 8 0.320000 37.417055 0.196872 26.641508 0 0 0
1647 34 7 -1.320000 65.457539 14.602519 -8.707492 0 0 0
1648 34 8 0.320000 66.299542 14.672624 -9.166837 0 0 0
1649 35 7 -1.320000 48.341875 33.013648 -33.187133 0 0 0
1650 35 8 0.320000 47.812398 33.398992 -33.906982 0 0 0
1651 36 7 -1.320000 76.903729 8.196608 -11.016663 0 0 0
1652 36 8 0.320000 76.038093 8.162187 -10.568658 0 0 0
1653 37 7 -1.320000 74.369525 -18.195665 26.179156 0 0 0
1654 37 8 0.320000 73.515308 -18.707793 26.108427 0 0 0
1655 38 7 -1.320000 53.873290 30.041398 13.301311 0 0 0
1656 38 8 0.320000 54.382053 30.570534 12.666234 0 0 0
1657 39 7 -1.320000 32.364677 18.292030 -18.738315 0 0 0
1658 39 8 0.320000 33.029162 18.079892 -18.050498 0 0 0
1659 40 7 -1.320000 30.319181 52.259052 -28.723156 0 0 0
1660 40 8 0.320000 31.000789 52.930029 -28.900332 0 0 0
1661 41 7 -1.320000 39.697297 -27.777524 -18.963983 0 0 0
1662 41 8 0.320000 38.774831 -27.929379 -19.136629 0 0 0
1663 42 7 -1.320000 73.210888 53.244966 -14.417060 0 0 0
1664 42 8 0.320000 74.077676 52.936882 -14.754001 0 0 0
1665 43 7 -1.320000 42.172058 5.289102 -22.840037 0 0 0
1666 43 8 0.320000 42.353190 4.305218 -22.659248 0 0 0
1667 44 7 -1.320000 67.989665 22.009137 1.534461 0 0 0
1668 44 8 0.320000 67.906845 22.533890 2.419673 0 0 0
1669 45 7 -1.320000 76.325230 33.955528 -2.308911 0 0 0
1670 45 8 0.320000 75.585330 34.342363 -1.773937 0 0 0
1671 46 7 -1.320000 60.040635 11.908096 -32.876295 0 0 0
1672 46 8 0.320000 60.242191 12.540359 -33.614260 0 0 0
1673 47 7 -1.320000 52.389679 76.566911 -13.323750 0 0 0
1674 47 8 0.320000 51.994198 75.779888 -12.908725 0 0 0
1675 48 7 -1.320000 63.052940 19.842239 -1.079075 0 0 0
1676 48 8 0.320000 63.877196 19.544093 -1.492982 0 0 0
1677 49 7 -1.320000 66.629929 26.759886 24.196575 0 0 0
1678 49 8 0.320000 66.594551 27.416387 24.937954 0 0 0
1679 50 7 -1.320000 79.798788 22.987992 -8.559424 0 0 0
1680 50 8 0.320000 79.662161 23.966535 -8.500683 0 0 0
1681 51 7 -1.320000 48.388270 24.655763 -4.081810 0 0 0
1682 51 8 0.320000 47.450999 24.605064 -4.274039 0 0 0
1683 52 7 -1.320000 107.601857 66.694904 -9.824212 0 0 0
1684 52 8 0.320000 107.039724 67.550236 -9.751358 0 0 0
1685 53 7 -1.320000 62.490046 21.897433 -8.288011 0 0 0
1686 53 8 0.320000 62.824081 21.204991 -7.730235 0 0 0
1687 54 7 -1.320000 117.035951 53.332277 67.296451 0 0 0
1688 54 8 0.320000 117.057333 52.349165 67.236262 0 0 0
1689 55 7 -1.320000 62.209942 -26.231326 20.374306 0 0 0
1690 55 8 0.320000 62.847609 -25.534046 20.680089 0 0 0
1691 56 9 -0.847600 48.253876 7.711235 -1.482887 0 0 0
1692 56 10 0.423800 48.667635 7.459657 -0.607938 0 0 0
1693 56 10 0.423800 48.941239 7.649661 -2.206602 0 0 0
1694 57 9 -0.847600 61.271562 23.834532 -9.552822 0 0 0
1695 57 10 0.423800 61.725655 23.088295 -9.066043 0 0 0
1696 57 10 0.423800 61.347213 23.684218 -10.538574 0 0 0
1697 58 9 -0.847600 60.690682 22.963615 -6.596591 0 0 0
1698 58 10 0.423800 61.248998 23.510049 -5.972318 0 0 0
1699 58 10 0.423800 61.285712 22.472469 -7.232782 0 0 0
1700 59 9 -0.847600 56.898451 16.126178 0.955218 0 0 0
1701 59 10 0.423800 56.684244 16.806378 1.656265 0 0 0
1702 59 10 0.423800 56.135461 15.485646 0.868107 0 0 0
1703 60 9 -0.847600 54.832755 12.430716 -8.436157 0 0 0
1704 60 10 0.423800 55.466597 12.973182 -8.987518 0 0 0
1705 60 10 0.423800 55.250871 11.548714 -8.218726 0 0 0
1706 61 9 -0.847600 60.454793 20.291418 -7.922632 0 0 0
1707 61 10 0.423800 59.772517 20.708838 -7.322396 0 0 0
1708 61 10 0.423800 61.139027 20.975340 -8.175809 0 0 0
1709 62 9 -0.847600 58.032161 11.642940 3.961487 0 0 0
1710 62 10 0.423800 58.816858 11.156677 3.577009 0 0 0
1711 62 10 0.423800 57.288205 11.656136 3.293371 0 0 0
1712 63 9 -0.847600 56.555272 22.338182 -10.021110 0 0 0
1713 63 10 0.423800 55.861772 22.679033 -9.386364 0 0 0
1714 63 10 0.423800 56.285055 21.435826 -10.356909 0 0 0
1715 64 9 -0.847600 59.255455 14.878793 -10.203783 0 0 0
1716 64 10 0.423800 58.928667 13.938405 -10.109431 0 0 0
1717 64 10 0.423800 58.491134 15.511398 -10.078688 0 0 0
1718 65 9 -0.847600 47.489203 8.016708 2.745947 0 0 0
1719 65 10 0.423800 48.084217 7.731382 1.994568 0 0 0
1720 65 10 0.423800 47.681700 7.459384 3.553634 0 0 0
1721 66 9 -0.847600 54.151503 13.757279 -2.228766 0 0 0
1722 66 10 0.423800 54.348407 13.677164 -3.205921 0 0 0
1723 66 10 0.423800 53.265363 13.337765 -2.031821 0 0 0
1724 67 9 -0.847600 64.038304 27.085973 -0.614070 0 0 0
1725 67 10 0.423800 65.013615 26.941511 -0.781171 0 0 0
1726 67 10 0.423800 63.809218 26.778387 0.309474 0 0 0
1727 68 9 -0.847600 57.698423 24.920124 -9.550667 0 0 0
1728 68 10 0.423800 58.588363 24.687341 -9.158441 0 0 0
1729 68 10 0.423800 57.198187 24.080812 -9.763603 0 0 0
1730 69 9 -0.847600 51.533638 7.159833 -0.383006 0 0 0
1731 69 10 0.423800 50.741329 7.164499 0.227114 0 0 0
1732 69 10 0.423800 51.337858 7.720115 -1.187853 0 0 0
1733 70 9 -0.847600 53.487699 20.878483 -9.914600 0 0 0
1734 70 10 0.423800 53.583572 21.663544 -9.302627 0 0 0
1735 70 10 0.423800 54.359886 20.703502 -10.371432 0 0 0
1736 71 9 -0.847600 60.416563 22.937105 -3.287214 0 0 0
1737 71 10 0.423800 61.064232 23.517704 -3.780624 0 0 0
1738 71 10 0.423800 59.762563 22.543515 -3.933275 0 0 0
1739 72 9 -0.847600 52.389685 12.474353 0.940609 0 0 0
1740 72 10 0.423800 52.200755 12.630217 -0.028945 0 0 0
1741 72 10 0.423800 52.964966 11.662668 1.041810 0 0 0
1742 73 9 -0.847600 47.572483 7.948238 7.285652 0 0 0
1743 73 10 0.423800 47.510757 7.455729 6.417523 0 0 0
1744 73 10 0.423800 48.474917 7.799289 7.689942 0 0 0
1745 74 9 -0.847600 54.935113 14.324775 0.312936 0 0 0
1746 74 10 0.423800 54.870177 14.062572 -0.649901 0 0 0
1747 74 10 0.423800 54.114914 14.020380 0.797332 0 0 0
1748 75 9 -0.847600 52.289574 8.105527 7.788807 0 0 0
1749 75 10 0.423800 52.227767 8.869578 7.146601 0 0 0
1750 75 10 0.423800 51.372478 7.755439 7.979586 0 0 0
1751 76 9 -0.847600 56.464628 11.393366 -5.727511 0 0 0
1752 76 10 0.423800 57.112602 12.147027 -5.837732 0 0 0
1753 76 10 0.423800 56.308163 10.956100 -6.613142 0 0 0
1754 77 9 -0.847600 59.407570 19.655974 -4.242014 0 0 0
1755 77 10 0.423800 60.122142 18.957568 -4.282499 0 0 0
1756 77 10 0.423800 59.444102 20.218492 -5.068005 0 0 0
1757 78 9 -0.847600 58.390059 23.119155 -1.576912 0 0 0
1758 78 10 0.423800 57.620501 23.054113 -2.212186 0 0 0
1759 78 10 0.423800 59.245718 23.159597 -2.092892 0 0 0
1760 79 9 -0.847600 60.944073 25.933800 -7.948394 0 0 0
1761 79 10 0.423800 61.134479 25.070761 -8.416295 0 0 0
1762 79 10 0.423800 60.617965 25.745786 -7.021934 0 0 0
1763 80 9 -0.847600 57.793720 27.638388 -10.106652 0 0 0
1764 80 10 0.423800 58.123599 28.074529 -9.269404 0 0 0
1765 80 10 0.423800 57.829235 26.644600 -10.001073 0 0 0
1766 81 9 -0.847600 56.504159 15.615860 -12.272886 0 0 0
1767 81 10 0.423800 56.837481 15.789421 -11.346173 0 0 0
1768 81 10 0.423800 56.101100 14.701707 -12.316384 0 0 0
1769 82 9 -0.847600 49.934366 7.943187 -19.733432 0 0 0
1770 82 10 0.423800 49.138096 7.458889 -20.095968 0 0 0
1771 82 10 0.423800 50.004123 7.780039 -18.749288 0 0 0
1772 83 9 -0.847600 61.485765 15.909917 -11.008723 0 0 0
1773 83 10 0.423800 60.660642 15.367843 -10.849502 0 0 0
1774 83 10 0.423800 61.934694 15.595762 -11.845259 0 0 0
1775 84 9 -0.847600 63.117633 21.874508 -10.759119 0 0 0
1776 84 10 0.423800 62.498057 22.483063 -11.254911 0 0 0
1777 84 10 0.423800 62.957877 21.964998 -9.776107 0 0 0
1778 85 9 -0.847600 61.898677 22.173110 -0.844793 0 0 0
1779 85 10 0.423800 61.274117 22.334560 -1.608915 0 0 0
1780 85 10 0.423800 62.354782 21.291687 -0.967613 0 0 0
1781 86 9 -0.847600 54.011425 22.352543 -2.765495 0 0 0
1782 86 10 0.423800 55.001487 22.391728 -2.900639 0 0 0
1783 86 10 0.423800 53.563256 22.982618 -3.399667 0 0 0
1784 87 9 -0.847600 48.989205 4.647991 -0.452480 0 0 0
1785 87 10 0.423800 48.614009 5.028765 -1.297621 0 0 0
1786 87 10 0.423800 49.107055 5.379455 0.219156 0 0 0
1787 88 9 -0.847600 52.264828 13.753387 -5.907977 0 0 0
1788 88 10 0.423800 53.081253 13.903182 -5.350273 0 0 0
1789 88 10 0.423800 51.616696 13.182822 -5.403591 0 0 0
1790 89 9 -0.847600 56.645954 19.639911 4.587633 0 0 0
1791 89 10 0.423800 56.368730 18.917426 3.954241 0 0 0
1792 89 10 0.423800 56.983657 19.229194 5.434563 0 0 0
1793 90 9 -0.847600 57.081481 20.411027 -3.153827 0 0 0
1794 90 10 0.423800 57.891392 20.282977 -3.726253 0 0 0
1795 90 10 0.423800 56.892739 21.388299 -3.057190 0 0 0
1796 91 9 -0.847600 57.677434 25.205092 -4.024530 0 0 0
1797 91 10 0.423800 57.196944 24.356704 -3.802288 0 0 0
1798 91 10 0.423800 57.088961 25.986078 -3.815285 0 0 0
1799 92 9 -0.847600 53.232310 22.758716 -6.360679 0 0 0
1800 92 10 0.423800 53.709083 22.816323 -7.237829 0 0 0
1801 92 10 0.423800 53.636907 23.409349 -5.718027 0 0 0
1802 93 9 -0.847600 52.230020 6.632064 -12.823391 0 0 0
1803 93 10 0.423800 52.062165 7.299984 -12.098317 0 0 0
1804 93 10 0.423800 52.872250 5.938983 -12.495970 0 0 0
1805 94 9 -0.847600 61.041852 10.954008 -5.604943 0 0 0
1806 94 10 0.423800 60.341127 10.904732 -4.893199 0 0 0
1807 94 10 0.423800 60.638140 11.314682 -6.445750 0 0 0
1808 95 9 -0.847600 63.717388 23.490103 -6.853888 0 0 0
1809 95 10 0.423800 63.154813 22.906731 -7.439729 0 0 0
1810 95 10 0.423800 63.199455 23.739077 -6.035487 0 0 0
1811 96 9 -0.847600 61.682440 17.814128 -1.692318 0 0 0
1812 96 10 0.423800 62.211306 18.626416 -1.446325 0 0 0
1813 96 10 0.423800 61.399140 17.878022 -2.649230 0 0 0
1814 97 9 -0.847600 52.827905 6.214435 -9.852002 0 0 0
1815 97 10 0.423800 53.099200 5.633636 -10.619527 0 0 0
1816 97 10 0.423800 52.469246 7.080638 -10.199967 0 0 0
1817 98 9 -0.847600 50.699409 6.423100 -3.414723 0 0 0
1818 98 10 0.423800 50.862877 7.383762 -3.190156 0 0 0
1819 98 10 0.423800 51.370883 5.851597 -2.942992 0 0 0
1820 99 9 -0.847600 51.069491 12.257503 -4.125754 0 0 0
1821 99 10 0.423800 50.557567 11.409312 -4.261876 0 0 0
1822 99 10 0.423800 51.482290 12.255162 -3.214922 0 0 0
1823 100 9 -0.847600 48.880533 5.233174 -18.378765 0 0 0
1824 100 10 0.423800 49.398803 5.876937 -17.815747 0 0 0
1825 100 10 0.423800 48.455464 5.723211 -19.139820 0 0 0
1826 101 9 -0.847600 55.671308 16.948365 5.116792 0 0 0
1827 101 10 0.423800 55.763217 17.357339 4.208873 0 0 0
1828 101 10 0.423800 56.364998 17.331505 5.726727 0 0 0
1829 102 9 -0.847600 53.936423 11.968670 -11.021261 0 0 0
1830 102 10 0.423800 54.723030 12.405969 -11.457200 0 0 0
1831 102 10 0.423800 54.050793 11.990832 -10.028058 0 0 0
1832 103 9 -0.847600 60.308018 17.693158 -6.619813 0 0 0
1833 103 10 0.423800 60.568662 17.704376 -5.654431 0 0 0
1834 103 10 0.423800 60.386529 18.615970 -6.997008 0 0 0
1835 104 9 -0.847600 55.699232 25.107576 -1.440447 0 0 0
1836 104 10 0.423800 56.056756 24.244914 -1.798237 0 0 0
1837 104 10 0.423800 55.614389 25.768180 -2.186388 0 0 0
1838 105 9 -0.847600 45.884933 7.197771 -7.734423 0 0 0
1839 105 10 0.423800 45.455852 7.959235 -8.220309 0 0 0
1840 105 10 0.423800 46.864093 7.375067 -7.635251 0 0 0
1841 106 9 -0.847600 75.106230 9.872397 20.948945 0 0 0
1842 106 10 0.423800 75.734353 9.360025 21.534573 0 0 0
1843 106 10 0.423800 74.518845 9.234118 20.451348 0 0 0
1844 107 9 -0.847600 85.463593 0.622107 19.995120 0 0 0
1845 107 10 0.423800 84.702529 0.222274 20.505943 0 0 0
1846 107 10 0.423800 86.264535 0.028177 20.071026 0 0 0
1847 108 9 -0.847600 58.083907 15.775971 17.637265 0 0 0
1848 108 10 0.423800 57.776344 15.912462 16.695565 0 0 0
1849 108 10 0.423800 58.958263 16.241861 17.773180 0 0 0
1850 109 9 -0.847600 60.077803 4.569430 19.792575 0 0 0
1851 109 10 0.423800 60.907621 5.125771 19.748864 0 0 0
1852 109 10 0.423800 59.860311 4.369771 20.748011 0 0 0
1853 110 9 -0.847600 83.601377 13.276564 19.099595 0 0 0
1854 110 10 0.423800 84.231731 12.650483 18.640573 0 0 0
1855 110 10 0.423800 83.464881 14.088091 18.531426 0 0 0
1856 111 9 -0.847600 78.152907 5.135843 23.525957 0 0 0
1857 111 10 0.423800 77.701660 5.697849 24.219173 0 0 0
1858 111 10 0.423800 78.669784 5.724475 22.904368 0 0 0
1859 112 9 -0.847600 83.987490 11.959146 15.265482 0 0 0
1860 112 10 0.423800 83.170455 12.522797 15.387035 0 0 0
1861 112 10 0.423800 84.396124 11.767669 16.157883 0 0 0
1862 113 9 -0.847600 80.754433 14.756899 18.140625 0 0 0
1863 113 10 0.423800 81.578063 15.151104 17.732872 0 0 0
1864 113 10 0.423800 80.514630 13.914042 17.658846 0 0 0
1865 114 9 -0.847600 80.029851 -0.913850 20.718467 0 0 0
1866 114 10 0.423800 80.733144 -1.387879 21.248278 0 0 0
1867 114 10 0.423800 80.122501 0.073204 20.849478 0 0 0
1868 115 9 -0.847600 73.977128 7.612008 19.824940 0 0 0
1869 115 10 0.423800 73.761742 7.681706 18.850889 0 0 0
1870 115 10 0.423800 74.703176 6.937408 19.958323 0 0 0
1871 116 9 -0.847600 81.079561 4.518552 14.903291 0 0 0
1872 116 10 0.423800 80.306325 4.665612 14.286442 0 0 0
1873 116 10 0.423800 81.674090 3.807014 14.528761 0 0 0
1874 117 9 -0.847600 81.416450 2.124393 19.269118 0 0 0
1875 117 10 0.423800 82.069740 1.445360 18.934229 0 0 0
1876 117 10 0.423800 81.209373 1.942000 20.230302 0 0 0
1877 118 9 -0.847600 82.004574 13.619025 15.294941 0 0 0
1878 118 10 0.423800 82.159067 14.599565 15.416174 0 0 0
1879 118 10 0.423800 81.577598 13.456342 14.405419 0 0 0
1880 119 9 -0.847600 55.388387 1.682426 25.827970 0 0 0
1881 119 10 0.423800 55.383569 0.848389 25.276262 0 0 0
1882 119 10 0.423800 55.474316 2.478164 25.228436 0 0 0
1883 120 9 -0.847600 56.350709 -2.289656 18.528644 0 0 0
1884 120 10 0.423800 55.904690 -1.786275 19.268710 0 0 0
1885 120 10 0.423800 55.827861 -2.173524 17.684152 0 0 0
1886 121 9 -0.847600 77.009372 16.124169 18.273244 0 0 0
1887 121 10 0.423800 77.175297 16.779125 19.010486 0 0 0
1888 121 10 0.423800 77.378587 15.231333 18.531212 0 0 0
1889 122 9 -0.847600 80.750569 11.951893 27.261639 0 0 0
1890 122 10 0.423800 80.594894 11.075500 26.805870 0 0 0
1891 122 10 0.423800 80.597865 12.696995 26.612387 0 0 0
1892 123 9 -0.847600 80.028596 9.546451 20.887982 0 0 0
1893 123 10 0.423800 79.594809 10.052128 21.633732 0 0 0
1894 123 10 0.423800 80.472682 10.189063 20.263595 0 0 0
1895 124 9 -0.847600 78.853742 7.299290 21.978513 0 0 0
1896 124 10 0.423800 77.960721 7.589055 22.322858 0 0 0
1897 124 10 0.423800 79.406199 8.105086 21.765190 0 0 0
1898 125 9 -0.847600 80.955176 8.179892 18.627982 0 0 0
1899 125 10 0.423800 81.147822 8.945673 18.014394 0 0 0
1900 125 10 0.423800 80.720217 8.530224 19.534671 0 0 0
1901 126 9 -0.847600 80.257010 13.570307 20.484452 0 0 0
1902 126 10 0.423800 80.521089 12.608343 20.414382 0 0 0
1903 126 10 0.423800 80.428029 14.027335 19.611582 0 0 0
1904 127 9 -0.847600 78.430674 1.895442 27.685695 0 0 0
1905 127 10 0.423800 78.080163 1.165033 28.271928 0 0 0
1906 127 10 0.423800 79.321199 1.628657 27.317166 0 0 0
1907 128 9 -0.847600 79.727465 2.527011 12.134512 0 0 0
1908 128 10 0.423800 78.953434 1.904419 12.019274 0 0 0
1909 128 10 0.423800 79.418606 3.362113 12.589741 0 0 0
1910 129 9 -0.847600 74.064345 -3.102290 20.579532 0 0 0
1911 129 10 0.423800 74.899263 -3.058253 20.030901 0 0 0
1912 129 10 0.423800 73.816496 -2.182477 20.883731 0 0 0
1913 130 9 -0.847600 75.799240 8.377375 28.046712 0 0 0
1914 130 10 0.423800 75.533004 8.246905 29.001761 0 0 0
1915 130 10 0.423800 75.163062 7.884578 27.453036 0 0 0
1916 131 9 -0.847600 27.811145 10.421841 73.487190 0 0 0
1917 131 10 0.423800 27.023165 9.820106 73.356710 0 0 0
1918 131 10 0.423800 27.514966 11.267231 73.931729 0 0 0
1919 132 9 -0.847600 28.934381 10.151872 75.947854 0 0 0
1920 132 10 0.423800 28.666556 9.961996 75.003269 0 0 0
1921 132 10 0.423800 28.546460 9.454778 76.550847 0 0 0
1922 133 9 -0.847600 33.851055 3.121198 68.100489 0 0 0
1923 133 10 0.423800 34.474055 2.362722 67.909156 0 0 0
1924 133 10 0.423800 34.184012 3.634627 68.891410 0 0 0
1925 134 9 -0.847600 27.638107 8.252350 77.451353 0 0 0
1926 134 10 0.423800 27.433681 7.675956 76.660149 0 0 0
1927 134 10 0.423800 26.825383 8.325367 78.029428 0 0 0
1928 135 9 -0.847600 36.111546 2.095211 78.890531 0 0 0
1929 135 10 0.423800 36.916563 1.747300 78.409979 0 0 0
1930 135 10 0.423800 36.360340 2.913761 79.408315 0 0 0
1931 136 9 -0.847600 29.860990 3.553944 74.049164 0 0 0
1932 136 10 0.423800 29.961059 2.757813 73.452353 0 0 0
1933 136 10 0.423800 28.979626 3.992880 73.874358 0 0 0
1934 137 9 -0.847600 8.277074 -3.811019 44.428757 0 0 0
1935 137 10 0.423800 7.444110 -3.411751 44.045638 0 0 0
1936 137 10 0.423800 9.015722 -3.137784 44.394444 0 0 0
1937 138 9 -0.847600 0.429187 24.927133 45.738219 0 0 0
1938 138 10 0.423800 0.729027 24.025040 45.427820 0 0 0
1939 138 10 0.423800 -0.511380 24.868868 46.072828 0 0 0
1940 139 9 -0.847600 25.752209 20.063271 60.872154 0 0 0
1941 139 10 0.423800 26.492031 20.704667 60.668938 0 0 0
1942 139 10 0.423800 24.987972 20.227496 60.248458 0 0 0
1943 140 9 -0.847600 -4.043431 20.418108 58.411997 0 0 0
1944 140 10 0.423800 -4.559854 21.079596 58.955840 0 0 0
1945 140 10 0.423800 -3.073517 20.477222 58.648208 0 0 0
1946 141 9 -0.847600 11.527151 21.455657 62.008846 0 0 0
1947 141 10 0.423800 11.400305 22.186344 62.679688 0 0 0
1948 141 10 0.423800 10.696124 21.357975 61.461237 0 0 0
1949 142 9 -0.847600 5.800279 7.847436 1.023579 0 0 0
1950 142 10 0.423800 6.604594 8.440782 1.055459 0 0 0
1951 142 10 0.423800 4.983307 8.401692 0.864339 0 0 0
1952 143 9 -0.847600 7.847436 11.941750 22.177536 0 0 0
1953 143 10 0.423800 7.917368 11.299880 22.941154 0 0 0
1954 143 10 0.423800 8.508290 11.691333 21.470031 0 0 0
1955 144 9 -0.847600 21.495150 20.130378 11.259364 0 0 0
1956 144 10 0.423800 22.207567 19.485091 11.535165 0 0 0
1957 144 10 0.423800 21.792703 20.626900 10.443933 0 0 0
1958 145 9 -0.847600 7.165050 11.259364 24.907078 0 0 0
1959 145 10 0.423800 7.671539 10.744295 25.598579 0 0 0
1960 145 10 0.423800 7.221255 12.236574 25.111778 0 0 0
1961 146 9 -0.847600 10.576979 23.542307 3.070736 0 0 0
1962 146 10 0.423800 11.303535 24.229406 3.067587 0 0 0
1963 146 10 0.423800 10.975533 22.636420 3.213993 0 0 0

Bonds

1 1 1 2
2 1 1 14
3 2 2 3
4 1 2 33
5 3 3 4
6 3 3 13
7 3 4 5
8 3 5 6
9 2 6 7
10 3 6 12
11 4 7 8
12 4 8 9
13 4 8 10
14 4 8 11
15 3 12 13
16 1 33 34
17 2 34 35
18 1 34 64
19 3 35 36
20 3 35 45
21 3 36 37
22 3 37 38
23 2 38 39
24 3 38 44
25 4 39 40
26 4 40 41
27 4 40 42
28 4 40 43
29 3 44 45
30 1 64 65
31 2 65 66
32 1 65 95
33 3 66 67
34 3 66 76
35 3 67 68
36 3 68 69
37 2 69 70
38 3 69 75
39 4 70 71
40 4 71 72
41 4 71 73
42 4 71 74
43 3 75 76
44 1 95 96
45 2 96 97
46 1 96 126
47 3 97 98
48 3 97 107
49 3 98 99
50 3 99 100
51 2 100 101
52 3 100 106
53 4 101 102
54 4 102 103
55 4 102 104
56 4 102 105
57 3 106 107
58 1 126 127
59 2 127 128
60 1 127 157
61 3 128 129
62 3 128 138
63 3 129 130
64 3 130 131
65 2 131 132
66 3 131 137
67 4 132 133
68 4 133 134
69 4 133 135
70 4 133 136
71 3 137 138
72 1 157 158
73 2 158 159
74 1 158 188
75 3 159 160
76 3 159 169
77 3 160 161
78 3 161 162
79 2 162 163
80 3 162 168
81 4 163 164
82 4 164 165
83 4 164 166
84 4 164 167
85 3 168 169
86 1 188 189
87 2 189 190
88 1 189 219
89 3 190 191
90 3 190 200
91 3 191 192
92 3 192 193
93 2 193 194
94 3 193 199
95 4 194 195
96 4 195 196
97 4 195 197
98 4 195 198
99 3 199 200
100 1 219 220
101 2 220 221
102 1 220 250
103 3 221 222
104 3 221 231
105 3 222 223
106 3 223 224
107 2 224 225
108 3 224 230
109 4 225 226
110 4 226 227
111 4 226 228
112 4 226 229
113 3 230 231
114 1 250 251
115 2 251 252
116 1 251 281
117 3 252 253
118 3 252 262
119 3 253 254
120 3 254 255
121 2 255 256
122 3 255 261
123 4 256 257
124 4 257 258
125 4 257 259
126 4 257 260
127 3 261 262
128 1 281 282
129 2 282 283
130 1 282 296
131 3 283 284
132 3 283 293
133 3 284 285
134 3 285 286
135 2 286 287
136 3 286 292
137 4 287 288
138 4 288 289
139 4 288 290
140 4 288 291
141 3 292 293
142 5 1 15
143 5 1 16
144 5 2 17
145 6 4 18
146 6 5 19
147 7 7 20
148 7 7 21
149 7 9 22
150 7 9 23
151 7 9 24
152 7 10 25
153 7 10 26
154 7 10 27
155 7 11 28
156 7 11 29
157 7 11 30
158 6 12 31
159 6 13 32
160 5 14 313
161 5 14 314
162 5 14 315
163 5 33 46
164 5 33 47
165 5 34 48
166 6 36 49
167 6 37 50
168 7 39 51
169 7 39 52
170 7 41 53
171 7 41 54
172 7 41 55
173 7 42 56
174 7 42 57
175 7 42 58
176 7 43 59
177 7 43 60
178 7 43 61
179 6 44 62
180 6 45 63
181 5 64 77
182 5 64 78
183 5 65 79
184 6 67 80
185 6 68 81
186 7 70 82
187 7 70 83
188 7 72 84
189 7 72 85
190 7 72 86
191 7 73 87
192 7 73 88
193 7 73 89
194 7 74 90
195 7 74 91
196 7 74 92
197 6 75 93
198 6 76 94
199 5 95 108
200 5 95 109
201 5 96 110
202 6 98 111
203 6 99 112
204 7 101 113
205 7 101 114
206 7 103 115
207 7 103 116
208 7 103 117
209 7 104 118
210 7 104 119
211 7 104 120
212 7 105 121
213 7 105 122
214 7 105 123
215 6 106 124
216 6 107 125
217 5 126 139
218 5 126 140
219 5 127 141
220 6 129 142
221 6 130 143
222 7 132 144
223 7 132 145
224 7 134 146
225 7 134 147
226 7 134 148
227 7 135 149
228 7 135 150
229 7 135 151
230 7 136 152
231 7 136 153
232 7 136 154
233 6 137 155
234 6 138 156
235 5 157 170
236 5 157 171
237 5 158 172
238 6 160 173
239 6 161 174
240 7 163 175
241 7 163 176
242 7 165 177
243 7 165 178
244 7 165 179
245 7 166 180
246 7 166 181
247 7 166 182
248 7 167 183
249 7 167 184
250 7 167 185
251 6 168 186
252 6 169 187
253 5 188 201
254 5 188 202
255 5 189 203
256 6 191 204
257 6 192 205
258 7 194 206
259 7 194 207
260 7 196 208
261 7 196 209
262 7 196 210
263 7 197 211
264 7 197 212
265 7 197 213
266 7 198 214
267 7 198 215
268 7 198 216
269 6 199 217
270 6 200 218
271 5 219 232
272 5 219 233
273 5 220 234
274 6 222 235
275 6 223 236
276 7 225 237
277 7 225 238
278 7 227 239
279 7 227 240
280 7 227 241
281 7 228 242
282 7 228 243
283 7 228 244
284 7 229 245
285 7 229 246
286 7 229 247
287 6 230 248
288 6 231 249
289 5 250 263
290 5 250 264
291 5 251 265
292 6 253 266
293 6 254 267
294 7 256 268
295 7 256 269
296 7 258 270
297 7 258 271
298 7 258 272
299 7 259 273
300 7 259 274
301 7 259 275
302 7 260 276
303 7 260 277
304 7 260 278
305 6 261 279
306 6 262 280
307 5 281 294
308 5 281 295
309 5 282 297
310 6 284 298
311 6 285 299
312 7 287 300
313 7 287 301
314 7 289 302
315 7 289 303
316 7 289 304
317 7 290 305
318 7 290 306
319 7 290 307
320 7 291 308
321 7 291 309
322 7 291 310
323 6 292 311
324 6 293 312
325 5 296 316
326 5 296 317
327 5 296 318
328 1 319 320
329 1 319 332
330 2 320 321
331 1 320 351
332 3 321 322
333 3 321 331
334 3 322 323
335 3 323 324
336 2 324 325
337 3 324 330
338 4 325 326
339 4 326 327
340 4 326 328
341 4 326 329
342 3 330 331
343 1 351 352
344 2 352 353
345 1 352 382
346 3 353 354
347 3 353 363
348 3 354 355
349 3 355 356
350 2 356 357
351 3 356 362
352 4 357 358
353 4 358 359
354 4 358 360
355 4 358 361
356 3 362 363
357 1 382 383
358 2 383 384
359 1 383 413
360 3 384 385
361 3 384 394
362 3 385 386
363 3 386 387
364 2 387 388
365 3 387 393
366 4 388 389
367 4 389 390
368 4 389 391
369 4 389 392
370 3 393 394
371 1 413 414
372 2 414 415
373 1 414 444
374 3 415 416
375 3 415 425
376 3 416 417
377 3 417 418
378 2 418 419
379 3 418 424
380 4 419 420
381 4 420 421
382 4 420 422
383 4 420 423
384 3 424 425
385 1 444 445
386 2 445 446
387 1 445 475
388 3 446 447
389 3 446 456
390 3 447 448
391 3 448 449
392 2 449 450
393 3 449 455
394 4 450 451
395 4 451 452
396 4 451 453
397 4 451 454
398 3 455 456
399 1 475 476
400 2 476 477
401 1 476 506
402 3 477 478
403 3 477 487
404 3 478 479
405 3 479 480
406 2 480 481
407 3 480 486
408 4 481 482
409 4 482 483
410 4 482 484
411 4 482 485
412 3 486 487
413 1 506 507
414 2 507 508
415 1 507 537
416 3 508 509
417 3 508 518
418 3 509 510
419 3 510 511
420 2 511 512
421 3 511 517
422 4 512 513
423 4 513 514
424 4 513 515
425 4 513 516
426 3 517 518
427 1 537 538
428 2 538 539
429 1 538 568
430 3 539 540
431 3 539 549
432 3 540 541
433 3 541 542
434 2 542 543
435 3 542 548
436 4 543 544
437 4 544 545
438 4 544 546
439 4 544 547
440 3 548 549
441 1 568 569
442 2 569 570
443 1 569 599
444 3 570 571
445 3 570 580
446 3 571 572
447 3 572 573
448 2 573 574
449 3 573 579
450 4 574 575
451 4 575 576
452 4 575 577
453 4 575 578
454 3 579 580
455 1 599 600
456 2 600 601
457 1 600 614
458 3 601 602
459 3 601 611
460 3 602 603
461 3 603 604
462 2 604 605
463 3 604 610
464 4 605 606
465 4 606 607
466 4 606 608
467 4 606 609
468 3 610 611
469 5 319 333
470 5 319 334
471 5 320 335
472 6 322 336
473 6 323 337
474 7 325 338
475 7 325 339
476 7 327 340
477 7 327 341
478 7 327 342
479 7 328 343
480 7 328 344
481 7 328 345
482 7 329 346
483 7 329 347
484 7 329 348
485 6 330 349
486 6 331 350
487 5 332 631
488 5 332 632
489 5 332 633
490 5 351 364
491 5 351 365
492 5 352 366
493 6 354 367
494 6 355 368
495 7 357 369
496 7 357 370
497 7 359 371
498 7 359 372
499 7 359 373
500 7 360 374
501 7 360 375
502 7 360 376
503 7 361 377
504 7 361 378
505 7 361 379
506 6 362 380
507 6 363 381
508 5 382 395
509 5 382 396
510 5 383 397
511 6 385 398
512 6 386 399
513 7 388 400
514 7 388 401
515 7 390 402
516 7 390 403
517 7 390 404
518 7 391 405
519 7 391 406
520 7 391 407
521 7 392 408
522 7 392 409
523 7 392 410
524 6 393 411
525 6 394 412
526 5 413 426
527 5 413 427
528 5 414 428
529 6 416 429
530 6 417 430
531 7 419 431
532 7 419 432
533 7 421 433
534 7 421 434
535 7 421 435
536 7 422 436
537 7 422 437
538 7 422 438
539 7 423 439
540 7 423 440
541 7 423 441
542 6 424 442
543 6 425 443
544 5 444 457
545 5 444 458
546 5 445 459
547 6 447 460
548 6 448 461
549 7 450 462
550 7 450 463
551 7 452 464
552 7 452 465
553 7 452 466
554 7 453 467
555 7 453 468
556 7 453 469
557 7 454 470
558 7 454 471
559 7 454 472
560 6 455 473
561 6 456 474
562 5 475 488
563 5 475 489
564 5 476 490
565 6 478 491
566 6 479 492
567 7 481 493
568 7 481 494
569 7 483 495
570 7 483 496
571 7 483 497
572 7 484 498
573 7 484 499
574 7 484 500
575 7 485 501
576 7 485 502
577 7 485 503
578 6 486 504
579 6 487 505
580 5 506 519
581 5 506 520
582 5 507 521
583 6 509 522
584 6 510 523
585 7 512 524
586 7 512 525
587 7 514 526
588 7 514 527
589 7 514 528
590 7 515 529
591 7 515 530
592 7 515 531
593 7 516 532
594 7 516 533
595 7 516 534
596 6 517 535
597 6 518 536
598 5 537 550
599 5 537 551
600 5 538 552
601 6 540 553
602 6 541 554
603 7 543 555
604 7 543 556
605 7 545 557
606 7 545 558
607 7 545 559
608 7 546 560
609 7 546 561
610 7 546 562
611 7 547 563
612 7 547 564
613 7 547 565
614 6 548 566
615 6 549 567
616 5 568 581
617 5 568 582
618 5 569 583
619 6 571 584
620 6 572 585
621 7 574 586
622 7 574 587
623 7 576 588
624 7 576 589
625 7 576 590
626 7 577 591
627 7 577 592
628 7 577 593
629 7 578 594
630 7 578 595
631 7 578 596
632 6 579 597
633 6 580 598
634 5 599 612
635 5 599 613
636 5 600 615
637 6 602 616
638 6 603 617
639 7 605 618
640 7 605 619
641 7 607 620
642 7 607 621
643 7 607 622
644 7 608 623
645 7 608 624
646 7 608 625
647 7 609 626
648 7 609 627
649 7 609 628
650 6 610 629
651 6 611 630
652 5 614 634
653 5 614 635
654 5 614 636
655 1 637 638
656 1 637 650
657 2 638 639
658 1 638 669
659 3 639 640
660 3 639 649
661 3 640 641
662 3 641 642
663 2 642 643
664 3 642 648
665 4 643 644
666 4 644 645
667 4 644 646
668 4 644 647
669 3 648 649
670 1 669 670
671 2 670 671
672 1 670 700
673 3 671 672
674 3 671 681
675 3 672 673
676 3 673 674
677 2 674 675
678 3 674 680
679 4 675 676
680 4 676 677
681 4 676 678
682 4 676 679
683 3 680 681
684 1 700 701
685 2 701 702
686 1 701 731
687 3 702 703
688 3 702 712
689 3 703 704
690 3 704 705
691 2 705 706
692 3 705 711
693 4 706 707
694 4 707 708
695 4 707 709
696 4 707 710
697 3 711 712
698 1 731 732
699 2 732 733
700 1 732 762
701 3 733 734
702 3 733 743
703 3 734 735
704 3 735 736
705 2 736 737
706 3 736 742
707 4 737 738
708 4 738 739
709 4 738 740
710 4 738 741
711 3 742 743
712 1 762 763
713 2 763 764
714 1 763 793
715 3 764 765
716 3 764 774
717 3 765 766
718 3 766 767
719 2 767 768
720 3 767 773
721 4 768 769
722 4 769 770
723 4 769 771
724 4 769 772
725 3 773 774
726 1 793 794
727 2 794 795
728 1 794 824
729 3 795 796
730 3 795 805
731 3 796 797
732 3 797 798
733 2 798 799
734 3 798 804
735 4 799 800
736 4 800 801
737 4 800 802
738 4 800 803
739 3 804 805
740 1 824 825
741 2 825 826
742 1 825 855
743 3 826 827
744 3 826 836
745 3 827 828
746 3 828 829
747 2 829 830
748 3 829 835
749 4 830 831
750 4 831 832
751 4 831 833
752 4 831 834
753 3 835 836
754 1 855 856
755 2 856 857
756 1 856 886
757 3 857 858
758 3 857 867
759 3 858 859
760 3 859 860
761 2 860 861
762 3 860 866
763 4 861 862
764 4 862 863
765 4 862 864
766 4 862 865
767 3 866 867
768 1 886 887
769 2 887 888
770 1 887 917
771 3 888 889
772 3 888 898
773 3 889 890
774 3 890 891
775 2 891 892
776 3 891 897
777 4 892 893
778 4 893 894
779 4 893 895
780 4 893 896
781 3 897 898
782 1 917 918
783 2 918 919
784 1 918 932
785 3 919 920
786 3 919 929
787 3 920 921
788 3 921 922
789 2 922 923
790 3 922 928
791 4 923 924
792 4 924 925
793 4 924 926
794 4 924 927
795 3 928 929
796 5 637 651
797 5 637 652
798 5 638 653
799 6 640 654
800 6 641 655
801 7 643 656
802 7 643 657
803 7 645 658
804 7 645 659
805 7 645 660
806 7 646 661
807 7 646 662
808 7 646 663
809 7 647 664
810 7 647 665
811 7 647 666
812 6 648 667
813 6 649 668
814 5 650 949
815 5 650 950
816 5 650 951
817 5 669 682
818 5 669 683
819 5 670 684
820 6 672 685
821 6 673 686
822 7 675 687
823 7 675 688
824 7 677 689
825 7 677 690
826 7 677 691
827 7 678 692
828 7 678 693
829 7 678 694
830 7 679 695
831 7 679 696
832 7 679 697
833 6 680 698
834 6 681 699
835 5 700 713
836 5 700 714
837 5 701 715
838 6 703 716
839 6 704 717
840 7 706 718
841 7 706 719
842 7 708 720
843 7 708 721
844 7 708 722
845 7 709 723
846 7 709 724
847 7 709 725
848 7 710 726
849 7 710 727
850 7 710 728
851 6 711 729
852 6 712 730
853 5 731 744
854 5 731 745
855 5 732 746
856 6 734 747
857 6 735 748
858 7 737 749
859 7 737 750
860 7 739 751
861 7 739 752
862 7 739 753
863 7 740 754
864 7 740 755
865 7 740 756
866 7 741 757
867 7 741 758
868 7 741 759
869 6 742 760
870 6 743 761
871 5 762 775
872 5 762 776
873 5 763 777
874 6 765 778
875 6 766 779
876 7 768 780
877 7 768 781
878 7 770 782
879 7 770 783
880 7 770 784
881 7 771 785
882 7 771 786
883 7 771 787
884 7 772 788
885 7 772 789
886 7 772 790
887 6 773 791
888 6 774 792
889 5 793 806
890 5 793 807
891 5 794 808
892 6 796 809
893 6 797 810
894 7 799 811
895 7 799 812
896 7 801 813
897 7 801 814
898 7 801 815
899 7 802 816
900 7 802 817
901 7 802 818
902 7 803 819
903 7 803 820
904 7 803 821
905 6 804 822
906 6 805 823
907 5 824 837
908 5 824 838
909 5 825 839
910 6 827 840
911 6 828 841
912 7 830 842
913 7 830 843
914 7 832 844
915 7 832 845
916 7 832 846
917 7 833 847
918 7 833 848
919 7 833 849
920 7 834 850
921 7 834 851
922 7 834 852
923 6 835 853
924 6 836 854
925 5 855 868
926 5 855 869
927 5 856 870
928 6 858 871
929 6 859 872
930 7 861 873
931 7 861 874
932 7 863 875
933 7 863 876
934 7 863 877
935 7 864 878
936 7 864 879
937 7 864 880
938 7 865 881
939 7 865 882
940 7 865 883
941 6 866 884
942 6 867 885
943 5 886 899
944 5 886 900
945 5 887 901
946 6 889 902
947 6 890 903
948 7 892 904
949 7 892 905
950 7 894 906
951 7 894 907
952 7 894 908
953 7 895 909
954 7 895 910
955 7 895 911
956 7 896 912
957 7 896 913
958 7 896 914
959 6 897 915
960 6 898 916
961 5 917 930
962 5 917 931
963 5 918 933
964 6 920 934
965 6 921 935
966 7 923 936
967 7 923 937
968 7 925 938
969 7 925 939
970 7 925 940
971 7 926 941
972 7 926 942
973 7 926 943
974 7 927 944
975 7 927 945
976 7 927 946
977 6 928 947
978 6 929 948
979 5 932 952
980 5 932 953
981 5 932 954
982 1 955 956
983 1 955 968
984 2 956 957
985 1 956 987
986 3 957 958
987 3 957 967
988 3 958 959
989 3 959 960
990 2 960 961
991 3 960 966
992 4 961 962
993 4 962 963
994 4 962 964
995 4 962 965
996 3 966 967
997 1 987 988
998 2 988 989
999 1 988 1018
1000 3 989 990
1001 3 989 999
1002 3 990 991
1003 3 991 992
1004 2 992 993
1005 3 992 998
1006 4 993 994
1007 4 994 995
1008 4 994 996
1009 4 994 997
1010 3 998 999
1011 1 1018 1019
1012 2 1019 1020
1013 1 1019 1049
1014 3 1020 1021
1015 3 1020 1030
1016 3 1021 1022
1017 3 1022 1023
1018 2 1023 1024
1019 3 1023 1029
1020 4 1024 1025
1021 4 1025 1026
1022 4 1025 1027
1023 4 1025 1028
1024 3 1029 1030
1025 1 1049 1050
1026 2 1050 1051
1027 1 1050 1080
1028 3 1051 1052
1029 3 1051 1061
1030 3 1052 1053
1031 3 1053 1054
1032 2 1054 1055
1033 3 1054 1060
1034 4 1055 1056
1035 4 1056 1057
1036 4 1056 1058
1037 4 1056 1059
1038 3 1060 1061
1039 1 1080 1081
1040 2 1081 1082
1041 1 1081 1111
1042 3 1082 1083
1043 3 1082 1092
1044 3 1083 1084
1045 3 1084 1085
1046 2 1085 1086
1047 3 1085 1091
1048 4 1086 1087
1049 4 1087 1088
1050 4 1087 1089
1051 4 1087 1090
1052 3 1091 1092
1053 1 1111 1112
1054 2 1112 1113
1055 1 1112 1142
1056 3 1113 1114
1057 3 1113 1123
1058 3 1114 1115
1059 3 1115 1116
1060 2 1116 1117
1061 3 1116 1122
1062 4 1117 1118
1063 4 1118 1119
1064 4 1118 1120
1065 4 1118 1121
1066 3 1122 1123
1067 1 1142 1143
1068 2 1143 1144
1069 1 1143 1173
1070 3 1144 1145
1071 3 1144 1154
1072 3 1145 1146
1073 3 1146 1147
1074 2 1147 1148
1075 3 1147 1153
1076 4 1148 1149
1077 4 1149 1150
1078 4 1149 1151
1079 4 1149 1152
1080 3 1153 1154
1081 1 1173 1174
1082 2 1174 1175
1083 1 1174 1204
1084 3 1175 1176
1085 3 1175 1185
1086 3 1176 1177
1087 3 1177 1178
1088 2 1178 1179
1089 3 1178 1184
1090 4 1179 1180
1091 4 1180 1181
1092 4 1180 1182
1093 4 1180 1183
1094 3 1184 1185
1095 1 1204 1205
1096 2 1205 1206
1097 1 1205 1235
1098 3 1206 1207
1099 3 1206 1216
1100 3 1207 1208
1101 3 1208 1209
1102 2 1209 1210
1103 3 1209 1215
1104 4 1210 1211
1105 4 1211 1212
1106 4 1211 1213
1107 4 1211 1214
1108 3 1215 1216
1109 1 1235 1236
1110 2 1236 1237
1111 1 1236 1250
1112 3 1237 1238
1113 3 1237 1247
1114 3 1238 1239
1115 3 1239 1240
1116 2 1240 1241
1117 3 1240 1246
1118 4 1241 1242
1119 4 1242 1243
1120 4 1242 1244
1121 4 1242 1245
1122 3 1246 1247
1123 5 955 969
1124 5 955 970
1125 5 956 971
1126 6 958 972
1127 6 959 973
1128 7 961 974
1129 7 961 975
1130 7 963 976
1131 7 963 977
1132 7 963 978
1133 7 964 979
1134 7 964 980
1135 7 964 981
1136 7 965 982
1137 7 965 983
1138 7 965 984
1139 6 966 985
1140 6 967 986
1141 5 968 1267
1142 5 968 1268
1143 5 968 1269
1144 5 987 1000
1145 5 987 1001
1146 5 988 1002
1147 6 990 1003
1148 6 991 1004
1149 7 993 1005
1150 7 993 1006
1151 7 995 1007
1152 7 995 1008
1153 7 995 1009
1154 7 996 1010
1155 7 996 1011
1156 7 996 1012
1157 7 997 1013
1158 7 997 1014
1159 7 997 1015
1160 6 998 1016
1161 6 999 1017
1162 5 1018 1031
1163 5 1018 1032
1164 5 1019 1033
1165 6 1021 1034
1166 6 1022 1035
1167 7 1024 1036
1168 7 1024 1037
1169 7 1026 1038
1170 7 1026 1039
1171 7 1026 1040
1172 7 1027 1041
1173 7 1027 1042
1174 7 1027 1043
1175 7 1028 1044
1176 7 1028 1045
1177 7 1028 1046
1178 6 1029 1047
1179 6 1030 1048
1180 5 1049 1062
1181 5 1049 1063
1182 5 1050 1064
1183 6 1052 1065
1184 6 1053 1066
1185 7 1055 1067
1186 7 1055 1068
1187 7 1057 1069
1188 7 1057 1070
1189 7 1057 1071
1190 7 1058 1072
1191 7 1058 1073
1192 7 1058 1074
1193 7 1059 1075
1194 7 1059 1076
1195 7 1059 1077
1196 6 1060 1078
1197 6 1061 1079
1198 5 1080 1093
1199 5 1080 1094
1200 5 1081 1095
1201 6 1083 1096
1202 6 1084 1097
1203 7 1086 1098
1204 7 1086 1099
1205 7 1088 1100
1206 7 1088 1101
1207 7 1088 1102
1208 7 1089 1103
1209 7 1089 1104
1210 7 1089 1105
1211 7 1090 1106
1212 7 1090 1107
1213 7 1090 1108
1214 6 1091 1109
1215 6 1092 1110
1216 5 1111 1124
1217 5 1111 1125
1218 5 1112 1126
1219 6 1114 1127
1220 6 1115 1128
1221 7 1117 1129
1222 7 1117 1130
1223 7 1119 1131
1224 7 1119 1132
1225 7 1119 1133
1226 7 1120 1134
1227 7 1120 1135
1228 7 1120 1136
1229 7 1121 1137
1230 7 1121 1138
1231 7 1121 1139
1232 6 1122 1140
1233 6 1123 1141
1234 5 1142 1155
1235 5 1142 1156
1236 5 1143 1157
1237 6 1145 1158
1238 6 1146 1159
1239 7 1148 1160
1240 7 1148 1161
1241 7 1150 1162
1242 7 1150 1163
1243 7 1150 1164
1244 7 1151 1165
1245 7 1151 1166
1246 7 1151 1167
1247 7 1152 1168
1248 7 1152 1169
1249 7 1152 1170
1250 6 1153 1171
1251 6 1154 1172
1252 5 1173 1186
1253 5 1173 1187
1254 5 1174 1188
1255 6 1176 1189
1256 6 1177 1190
1257 7 1179 1191
1258 7 1179 1192
1259 7 1181 1193
1260 7 1181 1194
1261 7 1181 1195
1262 7 1182 1196
1263 7 1182 1197
1264 7 1182 1198
1265 7 1183 1199
1266 7 1183 1200
1267 7 1183 1201
1268 6 1184 1202
1269 6 1185 1203
1270 5 1204 1217
1271 5 1204 1218
1272 5 1205 1219
1273 6 1207 1220
1274 6 1208 1221
1275 7 1210 1222
1276 7 1210 1223
1277 7 1212 1224
1278 7 1212 1225
1279 7 1212 1226
1280 7 1213 1227
1281 7 1213 1228
1282 7 1213 1229
1283 7 1214 1230
1284 7 1214 1231
1285 7 1214 1232
1286 6 1215 1233
1287 6 1216 1234
1288 5 1235 1248
1289 5 1235 1249
1290 5 1236 1251
1291 6 1238 1252
1292 6 1239 1253
1293 7 1241 1254
1294 7 1241 1255
1295 7 1243 1256
1296 7 1243 1257
1297 7 1243 1258
1298 7 1244 1259
1299 7 1244 1260
1300 7 1244 1261
1301 7 1245 1262
1302 7 1245 1263
1303 7 1245 1264
1304 6 1246 1265
1305 6 1247 1266
1306 5 1250 1270
1307 5 1250 1271
1308 5 1250 1272
1309 1 1273 1274
1310 1 1273 1286
1311 2 1274 1275
1312 1 1274 1305
1313 3 1275 1276
1314 3 1275 1285
1315 3 1276 1277
1316 3 1277 1278
1317 2 1278 1279
1318 3 1278 1284
1319 4 1279 1280
1320 4 1280 1281
1321 4 1280 1282
1322 4 1280 1283
1323 3 1284 1285
1324 1 1305 1306
1325 2 1306 1307
1326 1 1306 1336
1327 3 1307 1308
1328 3 1307 1317
1329 3 1308 1309
1330 3 1309 1310
1331 2 1310 1311
1332 3 1310 1316
1333 4 1311 1312
1334 4 1312 1313
1335 4 1312 1314
1336 4 1312 1315
1337 3 1316 1317
1338 1 1336 1337
1339 2 1337 1338
1340 1 1337 1367
1341 3 1338 1339
1342 3 1338 1348
1343 3 1339 1340
1344 3 1340 1341
1345 2 1341 1342
1346 3 1341 1347
1347 4 1342 1343
1348 4 1343 1344
1349 4 1343 1345
1350 4 1343 1346
1351 3 1347 1348
1352 1 1367 1368
1353 2 1368 1369
1354 1 1368 1398
1355 3 1369 1370
1356 3 1369 1379
1357 3 1370 1371
1358 3 1371 1372
1359 2 1372 1373
1360 3 1372 1378
1361 4 1373 1374
1362 4 1374 1375
1363 4 1374 1376
1364 4 1374 1377
1365 3 1378 1379
1366 1 1398 1399
1367 2 1399 1400
1368 1 1399 1429
1369 3 1400 1401
1370 3 1400 1410
1371 3 1401 1402
1372 3 1402 1403
1373 2 1403 1404
1374 3 1403 1409
1375 4 1404 1405
1376 4 1405 1406
1377 4 1405 1407
1378 4 1405 1408
1379 3 1409 1410
1380 1 1429 1430
1381 2 1430 1431
1382 1 1430 1460
1383 3 1431 1432
1384 3 1431 1441
1385 3 1432 1433
1386 3 1433 1434
1387 2 1434 1435
1388 3 1434 1440
1389 4 1435 1436
1390 4 1436 1437
1391 4 1436 1438
1392 4 1436 1439
1393 3 1440 1441
1394 1 1460 1461
1395 2 1461 1462
1396 1 1461 1491
1397 3 1462 1463
1398 3 1462 1472
1399 3 1463 1464
1400 3 1464 1465
1401 2 1465 1466
1402 3 1465 1471
1403 4 1466 1467
1404 4 1467 1468
1405 4 1467 1469
1406 4 1467 1470
1407 3 1471 1472
1408 1 1491 1492
1409 2 1492 1493
1410 1 1492 1522
1411 3 1493 1494
1412 3 1493 1503
1413 3 1494 1495
1414 3 1495 1496
1415 2 1496 1497
1416 3 1496 1502
1417 4 1497 1498
1418 4 1498 1499
1419 4 1498 1500
1420 4 1498 1501
1421 3 1502 1503
1422 1 1522 1523
1423 2 1523 1524
1424 1 1523 1553
1425 3 1524 1525
1426 3 1524 1534
1427 3 1525 1526
1428 3 1526 1527
1429 2 1527 1528
1430 3 1527 1533
1431 4 1528 1529
1432 4 1529 1530
1433 4 1529 1531
1434 4 1529 1532
1435 3 1533 1534
1436 1 1553 1554
1437 2 1554 1555
1438 1 1554 1568
1439 3 1555 1556
1440 3 1555 1565
1441 3 1556 1557
1442 3 1557 1558
1443 2 1558 1559
1444 3 1558 1564
1445 4 1559 1560
1446 4 1560 1561
1447 4 1560 1562
1448 4 1560 1563
1449 3 1564 1565
1450 5 1273 1287
1451 5 1273 1288
1452 5 1274 1289
1453 6 1276 1290
1454 6 1277 1291
1455 7 1279 1292
1456 7 1279 1293
1457 7 1281 1294
1458 7 1281 1295
1459 7 1281 1296
1460 7 1282 1297
1461 7 1282 1298
1462 7 1282 1299
1463 7 1283 1300
1464 7 1283 1301
1465 7 1283 1302
1466 6 1284 1303
1467 6 1285 1304
1468 5 1286 1585
1469 5 1286 1586
1470 5 1286 1587
1471 5 1305 1318
1472 5 1305 1319
1473 5 1306 1320
1474 6 1308 1321
1475 6 1309 1322
1476 7 1311 1323
1477 7 1311 1324
1478 7 1313 1325
1479 7 1313 1326
1480 7 1313 1327
1481 7 1314 1328
1482 7 1314 1329
1483 7 1314 1330
1484 7 1315 1331
1485 7 1315 1332
1486 7 1315 1333
1487 6 1316 1334
1488 6 1317 1335
1489 5 1336 1349
1490 5 1336 1350
1491 5 1337 1351
1492 6 1339 1352
1493 6 1340 1353
1494 7 1342 1354
1495 7 1342 1355
1496 7 1344 1356
1497 7 1344 1357
1498 7 1344 1358
1499 7 1345 1359
1500 7 1345 1360
1501 7 1345 1361
1502 7 1346 1362
1503 7 1346 1363
1504 7 1346 1364
1505 6 1347 1365
1506 6 1348 1366
1507 5 1367 1380
1508 5 1367 1381
1509 5 1368 1382
1510 6 1370 1383
1511 6 1371 1384
1512 7 1373 1385
1513 7 1373 1386
1514 7 1375 1387
1515 7 1375 1388
1516 7 1375 1389
1517 7 1376 1390
1518 7 1376 1391
1519 7 1376 1392
1520 7 1377 1393
1521 7 1377 1394
1522 7 1377 1395
1523 6 1378 1396
1524 6 1379 1397
1525 5 1398 1411
1526 5 1398 1412
1527 5 1399 1413
1528 6 1401 1414
1529 6 1402 1415
1530 7 1404 1416
1531 7 1404 1417
1532 7 1406 1418
1533 7 1406 1419
1534 7 1406 1420
1535 7 1407 1421
1536 7 1407 1422
1537 7 1407 1423
1538 7 1408 1424
1539 7 1408 1425
1540 7 1408 1426
1541 6 1409 1427
1542 6 1410 1428
1543 5 1429 1442
1544 5 1429 1443
1545 5 1430 1444
1546 6 1432 1445
1547 6 1433 1446
1548 7 1435 1447
1549 7 1435 1448
1550 7 1437 1449
1551 7 1437 1450
1552 7 1437 1451
1553 7 1438 1452
1554 7 1438 1453
1555 7 1438 1454
1556 7 1439 1455
1557 7 1439 1456
1558 7 1439 1457
1559 6 1440 1458
1560 6 1441 1459
1561 5 1460 1473
1562 5 1460 1474
1563 5 1461 1475
1564 6 1463 1476
1565 6 1464 1477
1566 7 1466 1478
1567 7 1466 1479
1568 7 1468 1480
1569 7 1468 1481
1570 7 1468 1482
1571 7 1469 1483
1572 7 1469 1484
1573 7 1469 1485
1574 7 1470 1486
1575 7 1470 1487
1576 7 1470 1488
1577 6 1471 1489
1578 6 1472 1490
1579 5 1491 1504
1580 5 1491 1505
1581 5 1492 1506
1582 6 1494 1507
1583 6 1495 1508
1584 7 1497 1509
1585 7 1497 1510
1586 7 1499 1511
1587 7 1499 1512
1588 7 1499 1513
1589 7 1500 1514
1590 7 1500 1515
1591 7 1500 1516
1592 7 1501 1517
1593 7 1501 1518
1594 7 1501 1519
1595 6 1502 1520
1596 6 1503 1521
1597 5 1522 1535
1598 5 1522 1536
1599 5 1523 1537
1600 6 1525 1538
1601 6 1526 1539
1602 7 1528 1540
1603 7 1528 1541
1604 7 1530 1542
1605 7 1530 1543
1606 7 1530 1544
1607 7 1531 1545
1608 7 1531 1546
1609 7 1531 1547
1610 7 1532 1548
1611 7 1532 1549
1612 7 1532 1550
1613 6 1533 1551
1614 6 1534 1552
1615 5 1553 1566
1616 5 1553 1567
1617 5 1554 1569
1618 6 1556 1570
1619 6 1557 1571
1620 7 1559 1572
1621 7 1559 1573
1622 7 1561 1574
1623 7 1561 1575
1624 7 1561 1576
1625 7 1562 1577
1626 7 1562 1578
1627 7 1562 1579
1628 7 1563 1580
1629 7 1563 1581
1630 7 1563 1582
1631 6 1564 1583
1632 6 1565 1584
1633 5 1568 1588
1634 5 1568 1589
1635 5 1568 1590
1636 8 1591 1592
1637 8 1593 1594
1638 8 1595 1596
1639 8 1597 1598
1640 8 1599 1600
1641 8 1601 1602
1642 8 1603 1604
1643 8 1605 1606
1644 8 1607 1608
1645 8 1609 1610
1646 8 1611 1612
1647 8 1613 1614
1648 8 1615 1616
1649 8 1617 1618
1650 8 1619 1620
1651 8 1621 1622
1652 8 1623 1624
1653 8 1625 1626
1654 8 1627 1628
1655 8 1629 1630
1656 8 1631 1632
1657 8 1633 1634
1658 8 1635 1636
1659 8 1637 1638
1660 8 1639 1640
1661 8 1641 1642
1662 8 1643 1644
1663 8 1645 1646
1664 8 1647 1648
1665 8 1649 1650
1666 8 1651 1652
1667 8 1653 1654
1668 8 1655 1656
1669 8 1657 1658
1670 8 1659 1660
1671 8 1661 1662
1672 8 1663 1664
1673 8 1665 1666
1674 8 1667 1668
1675 8 1669 1670
1676 8 1671 1672
1677 8 1673 1674
1678 8 1675 1676
1679 8 1677 1678
1680 8 1679 1680
1681 8 1681 1682
1682 8 1683 1684
1683 8 1685 1686
1684 8 1687 1688
1685 8 1689 1690
1686 9 1691 1692
1687 9 1691 1693
1688 9 1694 1695
1689 9 1694 1696
1690 9 1697 1698
1691 9 1697 1699
1692 9 1700 1701
1693 9 1700 1702
1694 9 1703 1704
1695 9 1703 1705
1696 9 1706 1707
1697 9 1706 1708
1698 9 1709 1710
1699 9 1709 1711
1700 9 1712 1713
1701 9 1712 1714
1702 9 1715 1716
1703 9 1715 1717
1704 9 1718 1719
1705 9 1718 1720
1706 9 1721 1722
1707 9 1721 1723
1708 9 1724 1725
1709 9 1724 1726
1710 9 1727 1728
1711 9 1727 1729
1712 9 1730 1731
1713 9 1730 1732
1714 9 1733 1734
1715 9 1733 1735
1716 9 1736 1737
1717 9 1736 1738
1718 9 1739 1740
1719 9 1739 1741
1720 9 1742 1743
1721 9 1742 1744
1722 9 1745 1746
1723 9 1745 1747
1724 9 1748 1749
1725 9 1748 1750
1726 9 1751 1752
1727 9 1751 1753
1728 9 1754 1755
1729 9 1754 1756
1730 9 1757 1758
1731 9 1757 1759
1732 9 1760 1761
1733 9 1760 1762
1734 9 1763 1764
1735 9 1763 1765
1736 9 1766 1767
1737 9 1766 1768
1738 9 1769 1770
1739 9 1769 1771
1740 9 1772 1773
1741 9 1772 1774
1742 9 1775 1776
1743 9 1775 1777
1744 9 1778 1779
1745 9 1778 1780
1746 9 1781 1782
1747 9 1781 1783
1748 9 1784 1785
1749 9 1784 1786
1750 9 1787 1788
1751 9 1787 1789
1752 9 1790 1791
1753 9 1790 1792
1754 9 1793 1794
1755 9 1793 1795
1756 9 1796 1797
1757 9 1796 1798
1758 9 1799 1800
1759 9 1799 1801
1760 9 1802 1803
1761 9 1802 1804
1762 9 1805 1806
1763 9 1805 1807
1764 9 1808 1809
1765 9 1808 1810
1766 9 1811 1812
1767 9 1811 1813
1768 9 1814 1815
1769 9 1814 1816
1770 9 1817 1818
1771 9 1817 1819
1772 9 1820 1821
1773 9 1820 1822
1774 9 1823 1824
1775 9 1823 1825
1776 9 1826 1827
1777 9 1826 1828
1778 9 1829 1830
1779 9 1829 1831
1780 9 1832 1833
1781 9 1832 1834
1782 9 1835 1836
1783 9 1835 1837
1784 9 1838 1839
1785 9 1838 1840
1786 9 1841 1842
1787 9 1841 1843
1788 9 1844 1845
1789 9 1844 1846
1790 9 1847 1848
1791 9 1847 1849
1792 9 1850 1851
1793 9 1850 1852
1794 9 1853 1854
1795 9 1853 1855
1796 9 1856 1857
1797 9 1856 1858
1798 9 1859 1860
1799 9 1859 1861
1800 9 1862 1863
1801 9 1862 1864
1802 9 1865 1866
1803 9 1865 1867
1804 9 1868 1869
1805 9 1868 1870
1806 9 1871 1872
1807 9 1871 1873
1808 9 1874 1875
1809 9 1874 1876
1810 9 1877 1878
1811 9 1877 1879
1812 9 1880 1881
1813 9 1880 1882
1814 9 1883 1884
1815 9 1883 1885
1816 9 1886 1887
1817 9 1886 1888
1818 9 1889 1890
1819 9 1889 1891
1820 9 1892 1893
1821 9 1892 1894
1822 9 1895 1896
1823 9 1895 1897
1824 9 1898 1899
1825 9 1898 1900
1826 9 1901 1902
1827 9 1901 1903
1828 9 1904 1905
1829 9 1904 1906
1830 9 1907 1908
1831 9 1907 1909
1832 9 1910 1911
1833 9 1910 1912
1834 9 1913 1914
1835 9 1913 1915
1836 9 1916 1917
1837 9 1916 1918
1838 9 1919 1920
1839 9 1919 1921
1840 9 1922 1923
1841 9 1922 1924
1842 9 1925 1926
1843 9 1925 1927
1844 9 1928 1929
1845 9 1928 1930
1846 9 1931 1932
1847 9 1931 1933
1848 9 1934 1935
1849 9 1934 1936
1850 9 1937 1938
1851 9 1937 1939
1852 9 1940 1941
1853 9 1940 1942
1854 9 1943 1944
1855 9 1943 1945
1856 9 1946 1947
1857 9 1946 1948
1858 9 1949 1950
1859 9 1949 1951
1860 9 1952 1953
1861 9 1952 1954
1862 9 1955 1956
1863 9 1955 1957
1864 9 1958 1959
1865 9 1958 1960
1866 9 1961 1962
1867 9 1961 1963

Angles

1 1 1 2 3
2 2 1 2 33
3 2 2 1 14
4 3 2 3 4
5 3 2 3 13
6 2 2 33 34
7 1 3 2 33
8 4 3 4 5
9 4 3 13 12
10 4 4 3 13
11 4 4 5 6
12 3 5 6 7
13 4 5 6 12
14 5 6 7 8
15 4 6 12 13
16 3 7 6 12
17 6 7 8 9
18 6 7 8 10
19 6 7 8 11
20 6 9 8 10
21 6 9 8 11
22 6 10 8 11
23 1 33 34 35
24 2 33 34 64
25 3 34 35 36
26 3 34 35 45
27 2 34 64 65
28 1 35 34 64
29 4 35 36 37
30 4 35 45 44
31 4 36 35 45
32 4 36 37 38
33 3 37 38 39
34 4 37 38 44
35 5 38 39 40
36 4 38 44 45
37 3 39 38 44
38 6 39 40 41
39 6 39 40 42
40 6 39 40 43
41 6 41 40 42
42 6 41 40 43
43 6 42 40 43
44 1 64 65 66
45 2 64 65 95
46 3 65 66 67
47 3 65 66 76
48 2 65 95 96
49 1 66 65 95
50 4 66 67 68
51 4 66 76 75
52 4 67 66 76
53 4 67 68 69
54 3 68 69 70
55 4 68 69 75
56 5 69 70 71
57 4 69 75 76
58 3 70 69 75
59 6 70 71 72
60 6 70 71 73
61 6 70 71 74
62 6 72 71 73
63 6 72 71 74
64 6 73 71 74
65 1 95 96 97
66 2 95 96 126
67 3 96 97 98
68 3 96 97 107
69 2 96 126 127
70 1 97 96 126
71 4 97 98 99
72 4 97 107 106
73 4 98 97 107
74 4 98 99 100
75 3 99 100 101
76 4 99 100 106
77 5 100 101 102
78 4 100 106 107
79 3 101 100 106
80 6 101 102 103
81 6 101 102 104
82 6 101 102 105
83 6 103 102 104
84 6 103 102 105
85 6 104 102 105
86 1 126 127 128
87 2 126 127 157
88 3 127 128 129
89 3 127 128 138
90 2 127 157 158
91 1 128 127 157
92 4 128 129 130
93 4 128 138 137
94 4 129 128 138
95 4 129 130 131
96 3 130 131 132
97 4 130 131 137
98 5 131 132 133
99 4 131 137 138
100 3 132 131 137
101 6 132 133 134
102 6 132 133 135
103 6 132 133 136
104 6 134 133 135
105 6 134 133 136
106 6 135 133 136
107 1 157 158 159
108 2 157 158 188
109 3 158 159 160
110 3 158 159 169
111 2 158 188 189
112 1 159 158 188
113 4 159 160 161
114 4 159 169 168
115 4 160 159 169
116 4 160 161 162
117 3 161 162 163
118 4 161 162 168
119 5 162 163 164
120 4 162 168 169
121 3 163 162 168
122 6 163 164 165
123 6 163 164 166
124 6 163 164 167
125 6 165 164 166
126 6 165 164 167
127 6 166 164 167
128 1 188 189 190
129 2 188 189 219
130 3 189 190 191
131 3 189 190 200
132 2 189 219 220
133 1 190 189 219
134 4 190 191 192
135 4 190 200 199
136 4 191 190 200
137 4 191 192 193
138 3 192 193 194
139 4 192 193 199
140 5 193 194 195
141 4 193 199 200
142 3 194 193 199
143 6 194 195 196
144 6 194 195 197
145 6 194 195 198
146 6 196 195 197
147 6 196 195 198
148 6 197 195 198
149 1 219 220 221
150 2 219 220 250
151 3 220 221 222
152 3 220 221 231
153 2 220 250 251
154 1 221 220 250
155 4 221 222 223
156 4 221 231 230
157 4 222 221 231
158 4 222 223 224
159 3 223 224 225
160 4 223 224 230
161 5 224 225 226
162 4 224 230 231
163 3 225 224 230
164 6 225 226 227
165 6 225 226 228
166 6 225 226 229
167 6 227 226 228
168 6 227 226 229
169 6 228 226 229
170 1 250 251 252
171 2 250 251 281
172 3 251 252 253
173 3 251 252 262
174 2 251 281 282
175 1 252 251 281
176 4 252 253 254
177 4 252 262 261
178 4 253 252 262
179 4 253 254 255
180 3 254 255 256
181 4 254 255 261
182 5 255 256 257
183 4 255 261 262
184 3 256 255 261
185 6 256 257 258
186 6 256 257 259
187 6 256 257 260
188 6 258 257 259
189 6 258 257 260
190 6 259 257 260
191 1 281 282 283
192 2 281 282 296
193 3 282 283 284
194 3 282 283 293
195 1 283 282 296
196 4 283 284 285
197 4 283 293 292
198 4 284 283 293
199 4 284 285 286
200 3 285 286 287
201 4 285 286 292
202 5 286 287 288
203 4 286 292 293
204 3 287 286 292
205 6 287 288 289
206 6 287 288 290
207 6 287 288 291
208 6 289 288 290
209 6 289 288 291
210 6 290 288 291
211 7 1 2 17
212 7 1 14 313
213 7 1 14 314
214 7 1 14 315
215 7 2 1 15
216 7 2 1 16
217 7 2 33 46
218 7 2 33 47
219 8 3 2 17
220 9 3 4 18
221 9 3 13 32
222 9 4 5 19
223 9 5 4 18
224 9 6 5 19
225 10 6 7 20
226 10 6 7 21
227 9 6 12 31
228 11 8 7 20
229 11 8 7 21
230 11 8 9 22
231 11 8 9 23
232 11 8 9 24
233 11 8 10 25
234 11 8 10 26
235 11 8 10 27
236 11 8 11 28
237 11 8 11 29
238 11 8 11 30
239 9 12 13 32
240 9 13 12 31
241 7 14 1 15
242 7 14 1 16
243 12 15 1 16
244 7 17 2 33
245 13 20 7 21
246 13 22 9 23
247 13 22 9 24
248 13 23 9 24
249 13 25 10 26
250 13 25 10 27
251 13 26 10 27
252 13 28 11 29
253 13 28 11 30
254 13 29 11 30
255 7 33 34 48
256 7 34 33 46
257 7 34 33 47
258 7 34 64 77
259 7 34 64 78
260 8 35 34 48
261 9 35 36 49
262 9 35 45 63
263 9 36 37 50
264 9 37 36 49
265 9 38 37 50
266 10 38 39 51
267 10 38 39 52
268 9 38 44 62
269 11 40 39 51
270 11 40 39 52
271 11 40 41 53
272 11 40 41 54
273 11 40 41 55
274 11 40 42 56
275 11 40 42 57
276 11 40 42 58
277 11 40 43 59
278 11 40 43 60
279 11 40 43 61
280 9 44 45 63
281 9 45 44 62
282 12 46 33 47
283 7 48 34 64
284 13 51 39 52
285 13 53 41 54
286 13 53 41 55
287 13 54 41 55
288 13 56 42 57
289 13 56 42 58
290 13 57 42 58
291 13 59 43 60
292 13 59 43 61
293 13 60 43 61
294 7 64 65 79
295 7 65 64 77
296 7 65 64 78
297 7 65 95 108
298 7 65 95 109
299 8 66 65 79
300 9 66 67 80
301 9 66 76 94
302 9 67 68 81
303 9 68 67 80
304 9 69 68 81
305 10 69 70 82
306 10 69 70 83
307 9 69 75 93
308 11 71 70 82
309 11 71 70 83
310 11 71 72 84
311 11 71 72 85
312 11 71 72 86
313 11 71 73 87
314 11 71 73 88
315 11 71 73 89
316 11 71 74 90
317 11 71 74 91
318 11 71 74 92
319 9 75 76 94
320 9 76 75 93
321 12 77 64 78
322 7 79 65 95
323 13 82 70 83
324 13 84 72 85
325 13 84 72 86
326 13 85 72 86
327 13 87 73 88
328 13 87 73 89
329 13 88 73 89
330 13 90 74 91
331 13 90 74 92
332 13 91 74 92
333 7 95 96 110
334 7 96 95 108
335 7 96 95 109
336 7 96 126 139
337 7 96 126 140
338 8 97 96 110
339 9 97 98 111
340 9 97 107 125
341 9 98 99 112
342 9 99 98 111
343 9 100 99 112
344 10 100 101 113
345 10 100 101 114
346 9 100 106 124
347 11 102 101 113
348 11 102 101 114
349 11 102 103 115
350 11 102 103 116
351 11 102 103 117
352 11 102 104 118
353 11 102 104 119
354 11 102 104 120
355 11 102 105 121
356 11 102 105 122
357 11 102 105 123
358 9 106 107 125
359 9 107 106 124
360 12 108 95 109
361 7 110 96 126
362 13 113 101 114
363 13 115 103 116
364 13 115 103 117
365 13 116 103 117
366 13 118 104 119
367 13 118 104 120
368 13 119 104 120
369 13 121 105 122
370 13 121 105 123
371 13 122 105 123
372 7 126 127 141
373 7 127 126 139
374 7 127 126 140
375 7 127 157 170
376 7 127 157 171
377 8 128 127 141
378 9 128 129 142
379 9 128 138 156
380 9 129 130 143
381 9 130 129 142
382 9 131 130 143
383 10 131 132 144
384 10 131 132 145
385 9 131 137 155
386 11 133 132 144
387 11 133 132 145
388 11 133 134 146
389 11 133 134 147
390 11 133 134 148
391 11 133 135 149
392 11 133 135 150
393 11 133 135 151
394 11 133 136 152
395 11 133 136 153
396 11 133 136 154
397 9 137 138 156
398 9 138 137 155
399 12 139 126 140
400 7 141 127 157
401 13 144 132 145
402 13 146 134 147
403 13 146 134 148
404 13 147 134 148
405 13 149 135 150
406 13 149 135 151
407 13 150 135 151
408 13 152 136 153
409 13 152 136 154
410 13 153 136 154
411 7 157 158 172
412 7 158 157 170
413 7 158 157 171
414 7 158 188 201
415 7 158 188 202
416 8 159 158 172
417 9 159 160 173
418 9 159 169 187
419 9 160 161 174
420 9 161 160 173
421 9 162 161 174
422 10 162 163 175
423 10 162 163 176
424 9 162 168 186
425 11 164 163 175
426 11 164 163 176
427 11 164 165 177
428 11 164 165 178
429 11 164 165 179
430 11 164 166 180
431 11 164 166 181
432 11 164 166 182
433 11 164 167 183
434 11 164 167 184
435 11 164 167 185
436 9 168 169 187
437 9 169 168 186
438 12 170 157 171
439 7 172 158 188
440 13 175 163 176
441 13 177 165 178
442 13 177 165 179
443 13 178 165 179
444 13 180 166 181
445 13 180 166 182
446 13 181 166 182
447 13 183 167 184
448 13 183 167 185
449 13 184 167 185
450 7 188 189 203
451 7 189 188 201
452 7 189 188 202
453 7 189 219 232
454 7 189 219 233
455 8 190 189 203
456 9 190 191 204
457 9 190 200 218
458 9 191 192 205
459 9 192 191 204
460 9 193 192 205
461 10 193 194 206
462 10 193 194 207
463 9 193 199 217
464 11 195 194 206
465 11 195 194 207
466 11 195 196 208
467 11 195 196 209
468 11 195 196 210
469 11 195 197 211
470 11 195 197 212
471 11 195 197 213
472 11 195 198 214
473 11 195 198 215
474 11 195 198 216
475 9 199 200 218
476 9 200 199 217
477 12 201 188 202
478 7 203 189 219
479 13 206 194 207
480 13 208 196 209
481 13 208 196 210
482 13 209 196 210
483 13 211 197 212
484 13 211 197 213
485 13 212 197 213
486 13 214 198 215
487 13 214 198 216
488 13 215 198 216
489 7 219 220 234
490 7 220 219 232
491 7 220 219 233
492 7 220 250 263
493 7 220 250 264
494 8 221 220 234
495 9 221 222 235
496 9 221 231 249
497 9 222 223 236
498 9 223 222 235
499 9 224 223 236
500 10 224 225 237
501 10 224 225 238
502 9 224 230 248
503 11 226 225 237
504 11 226 225 238
505 11 226 227 239
506 11 226 227 240
507 11 226 227 241
508 11 226 228 242
509 11 226 228 243
510 11 226 228 244
511 11 226 229 245
512 11 226 229 246
513 11 226 229 247
514 9 230 231 249
515 9 231 230 248
516 12 232 219 233
517 7 234 220 250
518 13 237 225 238
519 13 239 227 240
520 13 239 227 241
521 13 240 227 241
522 13 242 228 243
523 13 242 228 244
524 13 243 228 244
525 13 245 229 246
526 13 245 229 247
527 13 246 229 247
528 7 250 251 265
529 7 251 250 263
530 7 251 250 264
531 7 251 281 294
532 7 251 281 295
533 8 252 251 265
534 9 252 253 266
535 9 252 262 280
536 9 253 254 267
537 9 254 253 266
538 9 255 254 267
539 10 255 256 268
540 10 255 256 269
541 9 255 261 279
542 11 257 256 268
543 11 257 256 269
544 11 257 258 270
545 11 257 258 271
546 11 257 258 272
547 11 257 259 273
548 11 257 259 274
549 11 257 259 275
550 11 257 260 276
551 11 257 260 277
552 11 257 260 278
553 9 261 262 280
554 9 262 261 279
555 12 263 250 264
556 7 265 251 281
557 13 268 256 269
558 13 270 258 271
559 13 270 258 272
560 13 271 258 272
561 13 273 259 274
562 13 273 259 275
563 13 274 259 275
564 13 276 260 277
565 13 276 260 278
566 13 277 260 278
567 7 281 282 297
568 7 282 281 294
569 7 282 281 295
570 7 282 296 316
571 7 282 296 317
572 7 282 296 318
573 8 283 282 297
574 9 283 284 298
575 9 283 293 312
576 9 284 285 299
577 9 285 284 298
578 9 286 285 299
579 10 286 287 300
580 10 286 287 301
581 9 286 292 311
582 11 288 287 300
583 11 288 287 301
584 11 288 289 302
585 11 288 289 303
586 11 288 289 304
587 11 288 290 305
588 11 288 290 306
589 11 288 290 307
590 11 288 291 308
591 11 288 291 309
592 11 288 291 310
593 9 292 293 312
594 9 293 292 311
595 12 294 281 295
596 7 296 282 297
597 13 300 287 301
598 13 302 289 303
599 13 302 289 304
600 13 303 289 304
601 13 305 290 306
602 13 305 290 307
603 13 306 290 307
604 13 308 291 309
605 13 308 291 310
606 13 309 291 310
607 12 313 14 314
608 12 313 14 315
609 12 314 14 315
610 12 316 296 317
611 12 316 296 318
612 12 317 296 318
613 1 319 320 321
614 2 319 320 351
615 2 320 319 332
616 3 320 321 322
617 3 320 321 331
618 2 320 351 352
619 1 321 320 351
620 4 321 322 323
621 4 321 331 330
622 4 322 321 331
623 4 322 323 324
624 3 323 324 325
625 4 323 324 330
626 5 324 325 326
627 4 324 330 331
628 3 325 324 330
629 6 325 326 327
630 6 325 326 328
631 6 325 326 329
632 6 327 326 328
633 6 327 326 329
634 6 328 326 329
635 1 351 352 353
636 2 351 352 382
637 3 352 353 354
638 3 352 353 363
639 2 352 382 383
640 1 353 352 382
641 4 353 354 355
642 4 353 363 362
643 4 354 353 363
644 4 354 355 356
645 3 355 356 357
646 4 355 356 362
647 5 356 357 358
648 4 356 362 363
649 3 357 356 362
650 6 357 358 359
651 6 357 358 360
652 6 357 358 361
653 6 359 358 360
654 6 359 358 361
655 6 360 358 361
656 1 382 383 384
657 2 382 383 413
658 3 383 384 385
659 3 383 384 394
660 2 383 413 414
661 1 384 383 413
662 4 384 385 386
663 4 384 394 393
664 4 385 384 394
665 4 385 386 387
666 3 386 387 388
667 4 386 387 393
668 5 387 388 389
669 4 387 393 394
670 3 388 387 393
671 6 388 389 390
672 6 388 389 391
673 6 388 389 392
674 6 390 389 391
675 6 390 389 392
676 6 391 389 392
677 1 413 414 415
678 2 413 414 444
679 3 414 415 416
680 3 414 415 425
681 2 414 444 445
682 1 415 414 444
683 4 415 416 417
684 4 415 425 424
685 4 416 415 425
686 4 416 417 418
687 3 417 418 419
688 4 417 418 424
689 5 418 419 420
690 4 418 424 425
691 3 419 418 424
692 6 419 420 421
693 6 419 420 422
694 6 419 420 423
695 6 421 420 422
696 6 421 420 423
697 6 422 420 423
698 1 444 445 446
699 2 444 445 475
700 3 445 446 447
701 3 445 446 456
702 2 445 475 476
703 1 446 445 475
704 4 446 447 448
705 4 446 456 455
706 4 447 446 456
707 4 447 448 449
708 3 448 449 450
709 4 448 449 455
710 5 449 450 451
711 4 449 455 456
712 3 450 449 455
713 6 450 451 452
714 6 450 451 453
715 6 450 451 454
716 6 452 451 453
717 6 452 451 454
718 6 453 451 454
719 1 475 476 477
720 2 475 476 506
721 3 476 477 478
722 3 476 477 487
723 2 476 506 507
724 1 477 476 506
725 4 477 478 479
726 4 477 487 486
727 4 478 477 487
728 4 478 479 480
729 3 479 480 481
730 4 479 480 486
731 5 480 481 482
732 4 480 486 487
733 3 481 480 486
734 6 481 482 483
735 6 481 482 484
736 6 481 482 485
737 6 483 482 484
738 6 483 482 485
739 6 484 482 485
740 1 506 507 508
741 2 506 507 537
742 3 507 508 509
743 3 507 508 518
744 2 507 537 538
745 1 508 507 537
746 4 508 509 510
747 4 508 518 517
748 4 509 508 518
749 4 509 510 511
750 3 510 511 512
751 4 510 511 517
752 5 511 512 513
753 4 511 517 518
754 3 512 511 517
755 6 512 513 514
756 6 512 513 515
757 6 512 513 516
758 6 514 513 515
759 6 514 513 516
760 6 515 513 516
761 1 537 538 539
762 2 537 538 568
763 3 538 539 540
764 3 538 539 549
765 2 538 568 569
766 1 539 538 568
767 4 539 540 541
768 4 539 549 548
769 4 540 539 549
770 4 540 541 542
771 3 541 542 543
772 4 541 542 548
773 5 542 543 544
774 4 542 548 549
775 3 543 542 548
776 6 543 544 545
777 6 543 544 546
778 6 543 544 547
779 6 545 544 546
780 6 545 544 547
781 6 546 544 547
782 1 568 569 570
783 2 568 569 599
784 3 569 570 571
785 3 569 570 580
786 2 569 599 600
787 1 570 569 599
788 4 570 571 572
789 4 570 580 579
790 4 571 570 580
791 4 571 572 573
792 3 572 573 574
793 4 572 573 579
794 5 573 574 575
795 4 573 579 580
796 3 574 573 579
797 6 574 575 576
798 6 574 575 577
799 6 574 575 578
800 6 576 575 577
801 6 576 575 578
802 6 577 575 578
803 1 599 600 601
804 2 599 600 614
805 3 600 601 602
806 3 600 601 611
807 1 601 600 614
808 4 601 602 603
809 4 601 611 610
810 4 602 601 611
811 4 602 603 604
812 3 603 604 605
813 4 603 604 610
814 5 604 605 606
815 4 604 610 611
816 3 605 604 610
817 6 605 606 607
818 6 605 606 608
819 6 605 606 609
820 6 607 606 608
821 6 607 606 609
822 6 608 606 609
823 7 319 320 335
824 7 319 332 631
825 7 319 332 632
826 7 319 332 633
827 7 320 319 333
828 7 320 319 334
829 7 320 351 364
830 7 320 351 365
831 8 321 320 335
832 9 321 322 336
833 9 321 331 350
834 9 322 323 337
835 9 323 322 336
836 9 324 323 337
837 10 324 325 338
838 10 324 325 339
839 9 324 330 349
840 11 326 325 338
841 11 326 325 339
842 11 326 327 340
843 11 326 327 341
844 11 326 327 342
845 11 326 328 343
846 11 326 328 344
847 11 326 328 345
848 11 326 329 346
849 11 326 329 347
850 11 326 329 348
851 9 330 331 350
852 9 331 330 349
853 7 332 319 333
854 7 332 319 334
855 12 333 319 334
856 7 335 320 351
857 13 338 325 339
858 13 340 327 341
859 13 340 327 342
860 13 341 327 342
861 13 343 328 344
862 13 343 328 345
863 13 344 328 345
864 13 346 329 347
865 13 346 329 348
866 13 347 329 348
867 7 351 352 366
868 7 352 351 364
869 7 352 351 365
870 7 352 382 395
871 7 352 382 396
872 8 353 352 366
873 9 353 354 367
874 9 353 363 381
875 9 354 355 368
876 9 355 354 367
877 9 356 355 368
878 10 356 357 369
879 10 356 357 370
880 9 356 362 380
881 11 358 357 369
882 11 358 357 370
883 11 358 359 371
884 11 358 359 372
885 11 358 359 373
886 11 358 360 374
887 11 358 360 375
888 11 358 360 376
889 11 358 361 377
890 11 358 361 378
891 11 358 361 379
892 9 362 363 381
893 9 363 362 380
894 12 364 351 365
895 7 366 352 382
896 13 369 357 370
897 13 371 359 372
898 13 371 359 373
899 13 372 359 373
900 13 374 360 375
901 13 374 360 376
902 13 375 360 376
903 13 377 361 378
904 13 377 361 379
905 13 378 361 379
906 7 382 383 397
907 7 383 382 395
908 7 383 382 396
909 7 383 413 426
910 7 383 413 427
911 8 384 383 397
912 9 384 385 398
913 9 384 394 412
914 9 385 386 399
915 9 386 385 398
916 9 387 386 399
917 10 387 388 400
918 10 387 388 401
919 9 387 393 411
920 11 389 388 400
921 11 389 388 401
922 11 389 390 402
923 11 389 390 403
924 11 389 390 404
925 11 389 391 405
926 11 389 391 406
927 11 389 391 407
928 11 389 392 408
929 11 389 392 409
930 11 389 392 410
931 9 393 394 412
932 9 394 393 411
933 12 395 382 396
934 7 397 383 413
935 13 400 388 401
936 13 402 390 403
937 13 402 390 404
938 13 403 390 404
939 13 405 391 406
940 13 405 391 407
941 13 406 391 407
942 13 408 392 409
943 13 408 392 410
944 13 409 392 410
945 7 413 414 428
946 7 414 413 426
947 7 414 413 427
948 7 414 444 457
949 7 414 444 458
950 8 415 414 428
951 9 415 416 429
952 9 415 425 443
953 9 416 417 430
954 9 417 416 429
955 9 418 417 430
956 10 418 419 431
957 10 418 419 432
958 9 418 424 442
959 11 420 419 431
960 11 420 419 432
961 11 420 421 433
962 11 420 421 434
963 11 420 421 435
964 11 420 422 436
965 11 420 422 437
966 11 420 422 438
967 11 420 423 439
968 11 420 423 440
969 11 420 423 441
970 9 424 425 443
971 9 425 424 442
972 12 426 413 427
973 7 428 414 444
974 13 431 419 432
975 13 433 421 434
976 13 433 421 435
977 13 434 421 435
978 13 436 422 437
979 13 436 422 438
980 13 437 422 438
981 13 439 423 440
982 13 439 423 441
983 13 440 423 441
984 7 444 445 459
985 7 445 444 457
986 7 445 444 458
987 7 445 475 488
988 7 445 475 489
989 8 446 445 459
990 9 446 447 460
991 9 446 456 474
992 9 447 448 461
993 9 448 447 460
994 9 449 448 461
995 10 449 450 462
996 10 449 450 463
997 9 449 455 473
998 11 451 450 462
999 11 451 450 463
1000 11 451 452 464
1001 11 451 452 465
1002 11 451 452 466
1003 11 451 453 467
1004 11 451 453 468
1005 11 451 453 469
1006 11 451 454 470
1007 11 451 454 471
1008 11 451 454 472
1009 9 455 456 474
1010 9 456 455 473
1011 12 457 444 458
1012 7 459 445 475
1013 13 462 450 463
1014 13 464 452 465
1015 13 464 452 466
1016 13 465 452 466
1017 13 467 453 468
1018 13 467 453 469
1019 13 468 453 469
1020 13 470 454 471
1021 13 470 454 472
1022 13 471 454 472
1023 7 475 476 490
1024 7 476 475 488
1025 7 476 475 489
1026 7 476 506 519
1027 7 476 506 520
1028 8 477 476 490
1029 9 477 478 491
1030 9 477 487 505
1031 9 478 479 492
1032 9 479 478 491
1033 9 480 479 492
1034 10 480 481 493
1035 10 480 481 494
1036 9 480 486 504
1037 11 482 481 493
1038 11 482 481 494
1039 11 482 483 495
1040 11 482 483 496
1041 11 482 483 497
1042 11 482 484 498
1043 11 482 484 499
1044 11 482 484 500
1045 11 482 485 501
1046 11 482 485 502
1047 11 482 485 503
1048 9 486 487 505
1049 9 487 486 504
1050 12 488 475 489
1051 7 490 476 506
1052 13 493 481 494
1053 13 495 483 496
1054 13 495 483 497
1055 13 496 483 497
1056 13 498 484 499
1057 13 498 484 500
1058 13 499 484 500
1059 13 501 485 502
1060 13 501 485 503
1061 13 502 485 503
1062 7 506 507 521
1063 7 507 506 519
1064 7 507 506 520
1065 7 507 537 550
1066 7 507 537 551
1067 8 508 507 521
1068 9 508 509 522
1069 9 508 518 536
1070 9 509 510 523
1071 9 510 509 522
1072 9 511 510 523
1073 10 511 512 524
1074 10 511 512 525
1075 9 511 517 535
1076 11 513 512 524
1077 11 513 512 525
1078 11 513 514 526
1079 11 513 514 527
1080 11 513 514 528
1081 11 513 515 529
1082 11 513 515 530
1083 11 513 515 531
1084 11 513 516 532
1085 11 513 516 533
1086 11 513 516 534
1087 9 517 518 536
1088 9 518 517 535
1089 12 519 506 520
1090 7 521 507 537
1091 13 524 512 525
1092 13 526 514 527
1093 13 526 514 528
1094 13 527 514 528
1095 13 529 515 530
1096 13 529 515 531
1097 13 530 515 531
1098 13 532 516 533
1099 13 532 516 534
1100 13 533 516 534
1101 7 537 538 552
1102 7 538 537 550
1103 7 538 537 551
1104 7 538 568 581
1105 7 538 568 582
1106 8 539 538 552
1107 9 539 540 553
1108 9 539 549 567
1109 9 540 541 554
1110 9 541 540 553
1111 9 542 541 554
1112 10 542 543 555
1113 10 542 543 556
1114 9 542 548 566
1115 11 544 543 555
1116 11 544 543 556
1117 11 544 545 557
1118 11 544 545 558
1119 11 544 545 559
1120 11 544 546 560
1121 11 544 546 561
1122 11 544 546 562
1123 11 544 547 563
1124 11 544 547 564
1125 11 544 547 565
1126 9 548 549 567
1127 9 549 548 566
1128 12 550 537 551
1129 7 552 538 568
1130 13 555 543 556
1131 13 557 545 558
1132 13 557 545 559
1133 13 558 545 559
1134 13 560 546 561
1135 13 560 546 562
1136 13 561 546 562
1137 13 563 547 564
1138 13 563 547 565
1139 13 564 547 565
1140 7 568 569 583
1141 7 569 568 581
1142 7 569 568 582
1143 7 569 599 612
1144 7 569 599 613
1145 8 570 569 583
1146 9 570 571 584
1147 9 570 580 598
1148 9 571 572 585
1149 9 572 571 584
1150 9 573 572 585
1151 10 573 574 586
1152 10 573 574 587
1153 9 573 579 597
1154 11 575 574 586
1155 11 575 574 587
1156 11 575 576 588
1157 11 575 576 589
1158 11 575 576 590
1159 11 575 577 591
1160 11 575 577 592
1161 11 575 577 593
1162 11 575 578 594
1163 11 575 578 595
1164 11 575 578 596
1165 9 579 580 598
1166 9 580 579 597
1167 12 581 568 582
1168 7 583 569 599
1169 13 586 574 587
1170 13 588 576 589
1171 13 588 576 590
1172 13 589 576 590
1173 13 591 577 592
1174 13 591 577 593
1175 13 592 577 593
1176 13 594 578 595
1177 13 594 578 596
1178 13 595 578 596
1179 7 599 600 615
1180 7 600 599 612
1181 7 600 599 613
1182 7 600 614 634
1183 7 600 614 635
1184 7 600 614 636
1185 8 601 600 615
1186 9 601 602 616
1187 9 601 611 630
1188 9 602 603 617
1189 9 603 602 616
1190 9 604 603 617
1191 10 604 605 618
1192 10 604 605 619
1193 9 604 610 629
1194 11 606 605 618
1195 11 606 605 619
1196 11 606 607 620
1197 11 606 607 621
1198 11 606 607 622
1199 11 606 608 623
1200 11 606 608 624
1201 11 606 608 625
1202 11 606 609 626
1203 11 606 609 627
1204 11 606 609 628
1205 9 610 611 630
1206 9 611 610 629
1207 12 612 599 613
1208 7 614 600 615
1209 13 618 605 619
1210 13 620 607 621
1211 13 620 607 622
1212 13 621 607 622
1213 13 623 608 624
1214 13 623 608 625
1215 13 624 608 625
1216 13 626 609 627
1217 13 626 609 628
1218 13 627 609 628
1219 12 631 332 632
1220 12 631 332 633
1221 12 632 332 633
1222 12 634 614 635
1223 12 634 614 636
1224 12 635 614 636
1225 1 637 638 639
1226 2 637 638 669
1227 2 638 637 650
1228 3 638 639 640
1229 3 638 639 649
1230 2 638 669 670
1231 1 639 638 669
1232 4 639 640 641
1233 4 639 649 648
1234 4 640 639 649
1235 4 640 641 642
1236 3 641 642 643
1237 4 641 642 648
1238 5 642 643 644
1239 4 642 648 649
1240 3 643 642 648
1241 6 643 644 645
1242 6 643 644 646
1243 6 643 644 647
1244 6 645 644 646
1245 6 645 644 647
1246 6 646 644 647
1247 1 669 670 671
1248 2 669 670 700
1249 3 670 671 672
1250 3 670 671 681
1251 2 670 700 701
1252 1 671 670 700
1253 4 671 672 673
1254 4 671 681 680
1255 4 672 671 681
1256 4 672 673 674
1257 3 673 674 675
1258 4 673 674 680
1259 5 674 675 676
1260 4 674 680 681
1261 3 675 674 680
1262 6 675 676 677
1263 6 675 676 678
1264 6 675 676 679
1265 6 677 676 678
1266 6 677 676 679
1267 6 678 676 679
1268 1 700 701 702
1269 2 700 701 731
1270 3 701 702 703
1271 3 701 702 712
1272 2 701 731 732
1273 1 702 701 731
1274 4 702 703 704
1275 4 702 712 711
1276 4 703 702 712
1277 4 703 704 705
1278 3 704 705 706
1279 4 704 705 711
1280 5 705 706 707
1281 4 705 711 712
1282 3 706 705 711
1283 6 706 707 708
1284 6 706 707 709
1285 6 706 707 710
1286 6 708 707 709
1287 6 708 707 710
1288 6 709 707 710
1289 1 731 732 733
1290 2 731 732 762
1291 3 732 733 734
1292 3 732 733 743
1293 2 732 762 763
1294 1 733 732 762
1295 4 733 734 735
1296 4 733 743 742
1297 4 734 733 743
1298 4 734 735 736
1299 3 735 736 737
1300 4 735 736 742
1301 5 736 737 738
1302 4 736 742 743
1303 3 737 736 742
1304 6 737 738 739
1305 6 737 738 740
1306 6 737 738 741
1307 6 739 738 740
1308 6 739 738 741
1309 6 740 738 741
1310 1 762 763 764
1311 2 762 763 793
1312 3 763 764 765
1313 3 763 764 774
1314 2 763 793 794
1315 1 764 763 793
1316 4 764 765 766
1317 4 764 774 773
1318 4 765 764 774
1319 4 765 766 767
1320 3 766 767 768
1321 4 766 767 773
1322 5 767 768 769
1323 4 767 773 774
1324 3 768 767 773
1325 6 768 769 770
1326 6 768 769 771
1327 6 768 769 772
1328 6 770 769 771
1329 6 770 769 772
1330 6 771 769 772
1331 1 793 794 795
1332 2 793 794 824
1333 3 794 795 796
1334 3 794 795 805
1335 2 794 824 825
1336 1 795 794 824
1337 4 795 796 797
1338 4 795 805 804
1339 4 796 795 805
1340 4 796 797 798
1341 3 797 798 799
1342 4 797 798 804
1343 5 798 799 800
1344 4 798 804 805
1345 3 799 798 804
1346 6 799 800 801
1347 6 799 800 802
1348 6 799 800 803
1349 6 801 800 802
1350 6 801 800 803
1351 6 802 800 803
1352 1 824 825 826
1353 2 824 825 855
1354 3 825 826 827
1355 3 825 826 836
1356 2 825 855 856
1357 1 826 825 855
1358 4 826 827 828
1359 4 826 836 835
1360 4 827 826 836
1361 4 827 828 829
1362 3 828 829 830
1363 4 828 829 835
1364 5 829 830 831
1365 4 829 835 836
1366 3 830 829 835
1367 6 830 831 832
1368 6 830 831 833
1369 6 830 831 834
1370 6 832 831 833
1371 6 832 831 834
1372 6 833 831 834
1373 1 855 856 857
1374 2 855 856 886
1375 3 856 857 858
1376 3 856 857 867
1377 2 856 886 887
1378 1 857 856 886
1379 4 857 858 859
1380 4 857 867 866
1381 4 858 857 867
1382 4 858 859 860
1383 3 859 860 861
1384 4 859 860 866
1385 5 860 861 862
1386 4 860 866 867
1387 3 861 860 866
1388 6 861 862 863
1389 6 861 862 864
1390 6 861 862 865
1391 6 863 862 864
1392 6 863 862 865
1393 6 864 862 865
1394 1 886 887 888
1395 2 886 887 917
1396 3 887 888 889
1397 3 887 888 898
1398 2 887 917 918
1399 1 888 887 917
1400 4 888 889 890
1401 4 888 898 897
1402 4 889 888 898
1403 4 889 890 891
1404 3 890 891 892
1405 4 890 891 897
1406 5 891 892 893
1407 4 891 897 898
1408 3 892 891 897
1409 6 892 893 894
1410 6 892 893 895
1411 6 892 893 896
1412 6 894 893 895
1413 6 894 893 896
1414 6 895 893 896
1415 1 917 918 919
1416 2 917 918 932
1417 3 918 919 920
1418 3 918 919 929
1419 1 919 918 932
1420 4 919 920 921
1421 4 919 929 928
1422 4 920 919 929
1423 4 920 921 922
1424 3 921 922 923
1425 4 921 922 928
1426 5 922 923 924
1427 4 922 928 929
1428 3 923 922 928
1429 6 923 924 925
1430 6 923 924 926
1431 6 923 924 927
1432 6 925 924 926
1433 6 925 924 927
1434 6 926 924 927
1435 7 637 638 653
1436 7 637 650 949
1437 7 637 650 950
1438 7 637 650 951
1439 7 638 637 651
1440 7 638 637 652
1441 7 638 669 682
1442 7 638 669 683
1443 8 639 638 653
1444 9 639 640 654
1445 9 639 649 668
1446 9 640 641 655
1447 9 641 640 654
1448 9 642 641 655
1449 10 642 643 656
1450 10 642 643 657
1451 9 642 648 667
1452 11 644 643 656
1453 11 644 643 657
1454 11 644 645 658
1455 11 644 645 659
1456 11 644 645 660
1457 11 644 646 661
1458 11 644 646 662
1459 11 644 646 663
1460 11 644 647 664
1461 11 644 647 665
1462 11 644 647 666
1463 9 648 649 668
1464 9 649 648 667
1465 7 650 637 651
1466 7 650 637 652
1467 12 651 637 652
1468 7 653 638 669
1469 13 656 643 657
1470 13 658 645 659
1471 13 658 645 660
1472 13 659 645 660
1473 13 661 646 662
1474 13 661 646 663
1475 13 662 646 663
1476 13 664 647 665
1477 13 664 647 666
1478 13 665 647 666
1479 7 669 670 684
1480 7 670 669 682
1481 7 670 669 683
1482 7 670 700 713
1483 7 670 700 714
1484 8 671 670 684
1485 9 671 672 685
1486 9 671 681 699
1487 9 672 673 686
1488 9 673 672 685
1489 9 674 673 686
1490 10 674 675 687
1491 10 674 675 688
1492 9 674 680 698
1493 11 676 675 687
1494 11 676 675 688
1495 11 676 677 689
1496 11 676 677 690
1497 11 676 677 691
1498 11 676 678 692
1499 11 676 678 693
1500 11 676 678 694
1501 11 676 679 695
1502 11 676 679 696
1503 11 676 679 697
1504 9 680 681 699
1505 9 681 680 698
1506 12 682 669 683
1507 7 684 670 700
1508 13 687 675 688
1509 13 689 677 690
1510 13 689 677 691
1511 13 690 677 691
1512 13 692 678 693
1513 13 692 678 694
1514 13 693 678 694
1515 13 695 679 696
1516 13 695 679 697
1517 13 696 679 697
1518 7 700 701 715
1519 7 701 700 713
1520 7 701 700 714
1521 7 701 731 744
1522 7 701 731 745
1523 8 702 701 715
1524 9 702 703 716
1525 9 702 712 730
1526 9 703 704 717
1527 9 704 703 716
1528 9 705 704 717
1529 10 705 706 718
1530 10 705 706 719
1531 9 705 711 729
1532 11 707 706 718
1533 11 707 706 719
1534 11 707 708 720
1535 11 707 708 721
1536 11 707 708 722
1537 11 707 709 723
1538 11 707 709 724
1539 11 707 709 725
1540 11 707 710 726
1541 11 707 710 727
1542 11 707 710 728
1543 9 711 712 730
1544 9 712 711 729
1545 12 713 700 714
1546 7 715 701 731
1547 13 718 706 719
1548 13 720 708 721
1549 13 720 708 722
1550 13 721 708 722
1551 13 723 709 724
1552 13 723 709 725
1553 13 724 709 725
1554 13 726 710 727
1555 13 726 710 728
1556 13 727 710 728
1557 7 731 732 746
1558 7 732 731 744
1559 7 732 731 745
1560 7 732 762 775
1561 7 732 762 776
1562 8 733 732 746
1563 9 733 734 747
1564 9 733 743 761
1565 9 734 735 748
1566 9 735 734 747
1567 9 736 735 748
1568 10 736 737 749
1569 10 736 737 750
1570 9 736 742 760
1571 11 738 737 749
1572 11 738 737 750
1573 11 738 739 751
1574 11 738 739 752
1575 11 738 739 753
1576 11 738 740 754
1577 11 738 740 755
1578 11 738 740 756
1579 11 738 741 757
1580 11 738 741 758
1581 11 738 741 759
1582 9 742 743 761
1583 9 743 742 760
1584 12 744 731 745
1585 7 746 732 762
1586 13 749 737 750
1587 13 751 739 752
1588 13 751 739 753
1589 13 752 739 753
1590 13 754 740 755
1591 13 754 740 756
1592 13 755 740 756
1593 13 757 741 758
1594 13 757 741 759
1595 13 758 741 759
1596 7 762 763 777
1597 7 763 762 775
1598 7 763 762 776
1599 7 763 793 806
1600 7 763 793 807
1601 8 764 763 777
1602 9 764 765 778
1603 9 764 774 792
1604 9 765 766 779
1605 9 766 765 778
1606 9 767 766 779
1607 10 767 768 780
1608 10 767 768 781
1609 9 767 773 791
1610 11 769 768 780
1611 11 769 768 781
1612 11 769 770 782
1613 11 769 770 783
1614 11 769 770 784
1615 11 769 771 785
1616 11 769 771 786
1617 11 769 771 787
1618 11 769 772 788
1619 11 769 772 789
1620 11 769 772 790
1621 9 773 774 792
1622 9 774 773 791
1623 12 775 762 776
1624 7 777 763 793
1625 13 780 768 781
1626 13 782 770 783
1627 13 782 770 784
1628 13 783 770 784
1629 13 785 771 786
1630 13 785 771 787
1631 13 786 771 787
1632 13 788 772 789
1633 13 788 772 790
1634 13 789 772 790
1635 7 793 794 808
1636 7 794 793 806
1637 7 794 793 807
1638 7 794 824 837
1639 7 794 824 838
1640 8 795 794 808
1641 9 795 796 809
1642 9 795 805 823
1643 9 796 797 810
1644 9 797 796 809
1645 9 798 797 810
1646 10 798 799 811
1647 10 798 799 812
1648 9 798 804 822
1649 11 800 799 811
1650 11 800 799 812
1651 11 800 801 813
1652 11 800 801 814
1653 11 800 801 815
1654 11 800 802 816
1655 11 800 802 817
1656 11 800 802 818
1657 11 800 803 819
1658 11 800 803 820
1659 11 800 803 821
1660 9 804 805 823
1661 9 805 804 822
1662 12 806 793 807
1663 7 808 794 824
1664 13 811 799 812
1665 13 813 801 814
1666 13 813 801 815
1667 13 814 801 815
1668 13 816 802 817
1669 13 816 802 818
1670 13 817 802 818
1671 13 819 803 820
1672 13 819 803 821
1673 13 820 803 821
1674 7 824 825 839
1675 7 825 824 837
1676 7 825 824 838
1677 7 825 855 868
1678 7 825 855 869
1679 8 826 825 839
1680 9 826 827 840
1681 9 826 836 854
1682 9 827 828 841
1683 9 828 827 840
1684 9 829 828 841
1685 10 829 830 842
1686 10 829 830 843
1687 9 829 835 853
1688 11 831 830 842
1689 11 831 830 843
1690 11 831 832 844
1691 11 831 832 845
1692 11 831 832 846
1693 11 831 833 847
1694 11 831 833 848
1695 11 831 833 849
1696 11 831 834 850
1697 11 831 834 851
1698 11 831 834 852
1699 9 835 836 854
1700 9 836 835 853
1701 12 837 824 838
1702 7 839 825 855
1703 13 842 830 843
1704 13 844 832 845
1705 13 844 832 846
1706 13 845 832 846
1707 13 847 833 848
1708 13 847 833 849
1709 13 848 833 849
1710 13 850 834 851
1711 13 850 834 852
1712 13 851 834 852
1713 7 855 856 870
1714 7 856 855 868
1715 7 856 855 869
1716 7 856 886 899
1717 7 856 886 900
1718 8 857 856 870
1719 9 857 858 871
1720 9 857 867 885
1721 9 858 859 872
1722 9 859 858 871
1723 9 860 859 872
1724 10 860 861 873
1725 10 860 861 874
1726 9 860 866 884
1727 11 862 861 873
1728 11 862 861 874
1729 11 862 863 875
1730 11 862 863 876
1731 11 862 863 877
1732 11 862 864 878
1733 11 862 864 879
1734 11 862 864 880
1735 11 862 865 881
1736 11 862 865 882
1737 11 862 865 883
1738 9 866 867 885
1739 9 867 866 884
1740 12 868 855 869
1741 7 870 856 886
1742 13 873 861 874
1743 13 875 863 876
1744 13 875 863 877
1745 13 876 863 877
1746 13 878 864 879
1747 13 878 864 880
1748 13 879 864 880
1749 13 881 865 882
1750 13 881 865 883
1751 13 882 865 883
1752 7 886 887 901
1753 7 887 886 899
1754 7 887 886 900
1755 7 887 917 930
1756 7 887 917 931
1757 8 888 887 901
1758 9 888 889 902
1759 9 888 898 916
1760 9 889 890 903
1761 9 890 889 902
1762 9 891 890 903
1763 10 891 892 904
1764 10 891 892 905
1765 9 891 897 915
1766 11 893 892 904
1767 11 893 892 905
1768 11 893 894 906
1769 11 893 894 907
1770 11 893 894 908
1771 11 893 895 909
1772 11 893 895 910
1773 11 893 895 911
1774 11 893 896 912
1775 11 893 896 913
1776 11 893 896 914
1777 9 897 898 916
1778 9 898 897 915
1779 12 899 886 900
1780 7 901 887 917
1781 13 904 892 905
1782 13 906 894 907
1783 13 906 894 908
1784 13 907 894 908
1785 13 909 895 910
1786 13 909 895 911
1787 13 910 895 911
1788 13 912 896 913
1789 13 912 896 914
1790 13 913 896 914
1791 7 917 918 933
1792 7 918 917 930
1793 7 918 917 931
1794 7 918 932 952
1795 7 918 932 953
1796 7 918 932 954
1797 8 919 918 933
1798 9 919 920 934
1799 9 919 929 948
1800 9 920 921 935
1801 9 921 920 934
1802 9 922 921 935
1803 10 922 923 936
1804 10 922 923 937
1805 9 922 928 947
1806 11 924 923 936
1807 11 924 923 937
1808 11 924 925 938
1809 11 924 925 939
1810 11 924 925 940
1811 11 924 926 941
1812 11 924 926 942
1813 11 924 926 943
1814 11 924 927 944
1815 11 924 927 945
1816 11 924 927 946
1817 9 928 929 948
1818 9 929 928 947
1819 12 930 917 931
1820 7 932 918 933
1821 13 936 923 937
1822 13 938 925 939
1823 13 938 925 940
1824 13 939 925 940
1825 13 941 926 942
1826 13 941 926 943
1827 13 942 926 943
1828 13 944 927 945
1829 13 944 927 946
1830 13 945 927 946
1831 12 949 650 950
1832 12 949 650 951
1833 12 950 650 951
1834 12 952 932 953
1835 12 952 932 954
1836 12 953 932 954
1837 1 955 956 957
1838 2 955 956 987
1839 2 956 955 968
1840 3 956 957 958
1841 3 956 957 967
1842 2 956 987 988
1843 1 957 956 987
1844 4 957 958 959
1845 4 957 967 966
1846 4 958 957 967
1847 4 958 959 960
1848 3 959 960 961
1849 4 959 960 966
1850 5 960 961 962
1851 4 960 966 967
1852 3 961 960 966
1853 6 961 962 963
1854 6 961 962 964
1855 6 961 962 965
1856 6 963 962 964
1857 6 963 962 965
1858 6 964 962 965
1859 1 987 988 989
1860 2 987 988 1018
1861 3 988 989 990
1862 3 988 989 999
1863 2 988 1018 1019
1864 1 989 988 1018
1865 4 989 990 991
1866 4 989 999 998
1867 4 990 989 999
1868 4 990 991 992
1869 3 991 992 993
1870 4 991 992 998
1871 5 992 993 994
1872 4 992 998 999
1873 3 993 992 998
1874 6 993 994 995
1875 6 993 994 996
1876 6 993 994 997
1877 6 995 994 996
1878 6 995 994 997
1879 6 996 994 997
1880 1 1018 1019 1020
1881 2 1018 1019 1049
1882 3 1019 1020 1021
1883 3 1019 1020 1030
1884 2 1019 1049 1050
1885 1 1020 1019 1049
1886 4 1020 1021 1022
1887 4 1020 1030 1029
1888 4 1021 1020 1030
1889 4 1021 1022 1023
1890 3 1022 1023 1024
1891 4 1022 1023 1029
1892 5 1023 1024 1025
1893 4 1023 1029 1030
1894 3 1024 1023 1029
1895 6 1024 1025 1026
1896 6 1024 1025 1027
1897 6 1024 1025 1028
1898 6 1026 1025 1027
1899 6 1026 1025 1028
1900 6 1027 1025 1028
1901 1 1049 1050 1051
1902 2 1049 1050 1080
1903 3 1050 1051 1052
1904 3 1050 1051 1061
1905 2 1050 1080 1081
1906 1 1051 1050 1080
1907 4 1051 1052 1053
1908 4 1051 1061 1060
1909 4 1052 1051 1061
1910 4 1052 1053 1054
1911 3 1053 1054 1055
1912 4 1053 1054 1060
1913 5 1054 1055 1056
1914 4 1054 1060 1061
1915 3 1055 1054 1060
1916 6 1055 1056 1057
1917 6 1055 1056 1058
1918 6 1055 1056 1059
1919 6 1057 1056 1058
1920 6 1057 1056 1059
1921 6 1058 1056 1059
1922 1 1080 1081 1082
1923 2 1080 1081 1111
1924 3 1081 1082 1083
1925 3 1081 1082 1092
1926 2 1081 1111 1112
1927 1 1082 1081 1111
1928 4 1082 1083 1084
1929 4 1082 1092 1091
1930 4 1083 1082 1092
1931 4 1083 1084 1085
1932 3 1084 1085 1086
1933 4 1084 1085 1091
1934 5 1085 1086 1087
1935 4 1085 1091 1092
1936 3 1086 1085 1091
1937 6 1086 1087 1088
1938 6 1086 1087 1089
1939 6 1086 1087 1090
1940 6 1088 1087 1089
1941 6 1088 1087 1090
1942 6 1089 1087 1090
1943 1 1111 1112 1113
1944 2 1111 1112 1142
1945 3 1112 1113 1114
1946 3 1112 1113 1123
1947 2 1112 1142 1143
1948 1 1113 1112 1142
1949 4 1113 1114 1115
1950 4 1113 1123 1122
1951 4 1114 1113 1123
1952 4 1114 1115 1116
1953 3 1115 1116 1117
1954 4 1115 1116 1122
1955 5 1116 1117 1118
1956 4 1116 1122 1123
1957 3 1117 1116 1122
1958 6 1117 1118 1119
1959 6 1117 1118 1120
1960 6 1117 1118 1121
1961 6 1119 1118 1120
1962 6 1119 1118 1121
1963 6 1120 1118 1121
1964 1 1142 1143 1144
1965 2 1142 1143 1173
1966 3 1143 1144 1145
1967 3 1143 1144 1154
1968 2 1143 1173 1174
1969 1 1144 1143 1173
1970 4 1144 1145 1146
1971 4 1144 1154 1153
1972 4 1145 1144 1154
1973 4 1145 1146 1147
1974 3 1146 1147 1148
1975 4 1146 1147 1153
1976 5 1147 1148 1149
1977 4 1147 1153 1154
1978 3 1148 1147 1153
1979 6 1148 1149 1150
1980 6 1148 1149 1151
1981 6 1148 1149 1152
1982 6 1150 1149 1151
1983 6 1150 1149 1152
1984 6 1151 1149 1152
1985 1 1173 1174 1175
1986 2 1173 1174 1204
1987 3 1174 1175 1176
1988 3 1174 1175 1185
1989 2 1174 1204 1205
1990 1 1175 1174 1204
1991 4 1175 1176 1177
1992 4 1175 1185 1184
1993 4 1176 1175 1185
1994 4 1176 1177 1178
1995 3 1177 1178 1179
1996 4 1177 1178 1184
1997 5 1178 1179 1180
1998 4 1178 1184 1185
1999 3 1179 1178 1184
2000 6 1179 1180 1181
2001 6 1179 1180 1182
2002 6 1179 1180 1183
2003 6 1181 1180 1182
2004 6 1181 1180 1183
2005 6 1182 1180 1183
2006 1 1204 1205 1206
2007 2 1204 1205 1235
2008 3 1205 1206 1207
2009 3 1205 1206 1216
2010 2 1205 1235 1236
2011 1 1206 1205 1235
2012 4 1206 1207 1208
2013 4 1206 1216 1215
2014 4 1207 1206 1216
2015 4 1207 1208 1209
2016 3 1208 1209 1210
2017 4 1208 1209 1215
2018 5 1209 1210 1211
2019 4 1209 1215 1216
2020 3 1210 1209 1215
2021 6 1210 1211 1212
2022 6 1210 1211 1213
2023 6 1210 1211 1214
2024 6 1212 1211 1213
2025 6 1212 1211 1214
2026 6 1213 1211 1214
2027 1 1235 1236 1237
2028 2 1235 1236 1250
2029 3 1236 1237 1238
2030 3 1236 1237 1247
2031 1 1237 1236 1250
2032 4 1237 1238 1239
2033 4 1237 1247 1246
2034 4 1238 1237 1247
2035 4 1238 1239 1240
2036 3 1239 1240 1241
2037 4 1239 1240 1246
2038 5 1240 1241 1242
2039 4 1240 1246 1247
2040 3 1241 1240 1246
2041 6 1241 1242 1243
2042 6 1241 1242 1244
2043 6 1241 1242 1245
2044 6 1243 1242 1244
2045 6 1243 1242 1245
2046 6 1244 1242 1245
2047 7 955 956 971
2048 7 955 968 1267
2049 7 955 968 1268
2050 7 955 968 1269
2051 7 956 955 969
2052 7 956 955 970
2053 7 956 987 1000
2054 7 956 987 1001
2055 8 957 956 971
2056 9 957 958 972
2057 9 957 967 986
2058 9 958 959 973
2059 9 959 958 972
2060 9 960 959 973
2061 10 960 961 974
2062 10 960 961 975
2063 9 960 966 985
2064 11 962 961 974
2065 11 962 961 975
2066 11 962 963 976
2067 11 962 963 977
2068 11 962 963 978
2069 11 962 964 979
2070 11 962 964 980
2071 11 962 964 981
2072 11 962 965 982
2073 11 962 965 983
2074 11 962 965 984
2075 9 966 967 986
2076 9 967 966 985
2077 7 968 955 969
2078 7 968 955 970
2079 12 969 955 970
2080 7 971 956 987
2081 13 974 961 975
2082 13 976 963 977
2083 13 976 963 978
2084 13 977 963 978
2085 13 979 964 980
2086 13 979 964 981
2087 13 980 964 981
2088 13 982 965 983
2089 13 982 965 984
2090 13 983 965 984
2091 7 987 988 1002
2092 7 988 987 1000
2093 7 988 987 1001
2094 7 988 1018 1031
2095 7 988 1018 1032
2096 8 989 988 1002
2097 9 989 990 1003
2098 9 989 999 1017
2099 9 990 991 1004
2100 9 991 990 1003
2101 9 992 991 1004
2102 10 992 993 1005
2103 10 992 993 1006
2104 9 992 998 1016
2105 11 994 993 1005
2106 11 994 993 1006
2107 11 994 995 1007
2108 11 994 995 1008
2109 11 994 995 1009
2110 11 994 996 1010
2111 11 994 996 1011
2112 11 994 996 1012
2113 11 994 997 1013
2114 11 994 997 1014
2115 11 994 997 1015
2116 9 998 999 1017
2117 9 999 998 1016
2118 12 1000 987 1001
2119 7 1002 988 1018
2120 13 1005 993 1006
2121 13 1007 995 1008
2122 13 1007 995 1009
2123 13 1008 995 1009
2124 13 1010 996 1011
2125 13 1010 996 1012
2126 13 1011 996 1012
2127 13 1013 997 1014
2128 13 1013 997 1015
2129 13 1014 997 1015
2130 7 1018 1019 1033
2131 7 1019 1018 1031
2132 7 1019 1018 1032
2133 7 1019 1049 1062
2134 7 1019 1049 1063
2135 8 1020 1019 1033
2136 9 1020 1021 1034
2137 9 1020 1030 1048
2138 9 1021 1022 1035
2139 9 1022 1021 1034
2140 9 1023 1022 1035
2141 10 1023 1024 1036
2142 10 1023 1024 1037
2143 9 1023 1029 1047
2144 11 1025 1024 1036
2145 11 1025 1024 1037
2146 11 1025 1026 1038
2147 11 1025 1026 1039
2148 11 1025 1026 1040
2149 11 1025 1027 1041
2150 11 1025 1027 1042
2151 11 1025 1027 1043
2152 11 1025 1028 1044
2153 11 1025 1028 1045
2154 11 1025 1028 1046
2155 9 1029 1030 1048
2156 9 1030 1029 1047
2157 12 1031 1018 1032
2158 7 1033 1019 1049
2159 13 1036 1024 1037
2160 13 1038 1026 1039
2161 13 1038 1026 1040
2162 13 1039 1026 1040
2163 13 1041 1027 1042
2164 13 1041 1027 1043
2165 13 1042 1027 1043
2166 13 1044 1028 1045
2167 13 1044 1028 1046
2168 13 1045 1028 1046
2169 7 1049 1050 1064
2170 7 1050 1049 1062
2171 7 1050 1049 1063
2172 7 1050 1080 1093
2173 7 1050 1080 1094
2174 8 1051 1050 1064
2175 9 1051 1052 1065
2176 9 1051 1061 1079
2177 9 1052 1053 1066
2178 9 1053 1052 1065
2179 9 1054 1053 1066
2180 10 1054 1055 1067
2181 10 1054 1055 1068
2182 9 1054 1060 1078
2183 11 1056 1055 1067
2184 11 1056 1055 1068
2185 11 1056 1057 1069
2186 11 1056 1057 1070
2187 11 1056 1057 1071
2188 11 1056 1058 1072
2189 11 1056 1058 1073
2190 11 1056 1058 1074
2191 11 1056 1059 1075
2192 11 1056 1059 1076
2193 11 1056 1059 1077
2194 9 1060 1061 1079
2195 9 1061 1060 1078
2196 12 1062 1049 1063
2197 7 1064 1050 1080
2198 13 1067 1055 1068
2199 13 1069 1057 1070
2200 13 1069 1057 1071
2201 13 1070 1057 1071
2202 13 1072 1058 1073
2203 13 1072 1058 1074
2204 13 1073 1058 1074
2205 13 1075 1059 1076
2206 13 1075 1059 1077
2207 13 1076 1059 1077
2208 7 1080 1081 1095
2209 7 1081 1080 1093
2210 7 1081 1080 1094
2211 7 1081 1111 1124
2212 7 1081 1111 1125
2213 8 1082 1081 1095
2214 9 1082 1083 1096
2215 9 1082 1092 1110
2216 9 1083 1084 1097
2217 9 1084 1083 1096
2218 9 1085 1084 1097
2219 10 1085 1086 1098
2220 10 1085 1086 1099
2221 9 1085 1091 1109
2222 11 1087 1086 1098
2223 11 1087 1086 1099
2224 11 1087 1088 1100
2225 11 1087 1088 1101
2226 11 1087 1088 1102
2227 11 1087 1089 1103
2228 11 1087 1089 1104
2229 11 1087 1089 1105
2230 11 1087 1090 1106
2231 11 1087 1090 1107
2232 11 1087 1090 1108
2233 9 1091 1092 1110
2234 9 1092 1091 1109
2235 12 1093 1080 1094
2236 7 1095 1081 1111
2237 13 1098 1086 1099
2238 13 1100 1088 1101
2239 13 1100 1088 1102
2240 13 1101 1088 1102
2241 13 1103 1089 1104
2242 13 1103 1089 1105
2243 13 1104 1089 1105
2244 13 1106 1090 1107
2245 13 1106 1090 1108
2246 13 1107 1090 1108
2247 7 1111 1112 1126
2248 7 1112 1111 1124
2249 7 1112 1111 1125
2250 7 1112 1142 1155
2251 7 1112 1142 1156
2252 8 1113 1112 1126
2253 9 1113 1114 1127
2254 9 1113 1123 1141
2255 9 1114 1115 1128
2256 9 1115 1114 1127
2257 9 1116 1115 1128
2258 10 1116 1117 1129
2259 10 1116 1117 1130
2260 9 1116 1122 1140
2261 11 1118 1117 1129
2262 11 1118 1117 1130
2263 11 1118 1119 1131
2264 11 1118 1119 1132
2265 11 1118 1119 1133
2266 11 1118 1120 1134
2267 11 1118 1120 1135
2268 11 1118 1120 1136
2269 11 1118 1121 1137
2270 11 1118 1121 1138
2271 11 1118 1121 1139
2272 9 1122 1123 1141
2273 9 1123 1122 1140
2274 12 1124 1111 1125
2275 7 1126 1112 1142
2276 13 1129 1117 1130
2277 13 1131 1119 1132
2278 13 1131 1119 1133
2279 13 1132 1119 1133
2280 13 1134 1120 1135
2281 13 1134 1120 1136
2282 13 1135 1120 1136
2283 13 1137 1121 1138
2284 13 1137 1121 1139
2285 13 1138 1121 1139
2286 7 1142 1143 1157
2287 7 1143 1142 1155
2288 7 1143 1142 1156
2289 7 1143 1173 1186
2290 7 1143 1173 1187
2291 8 1144 1143 1157
2292 9 1144 1145 1158
2293 9 1144 1154 1172
2294 9 1145 1146 1159
2295 9 1146 1145 1158
2296 9 1147 1146 1159
2297 10 1147 1148 1160
2298 10 1147 1148 1161
2299 9 1147 1153 1171
2300 11 1149 1148 1160
2301 11 1149 1148 1161
2302 11 1149 1150 1162
2303 11 1149 1150 1163
2304 11 1149 1150 1164
2305 11 1149 1151 1165
2306 11 1149 1151 1166
2307 11 1149 1151 1167
2308 11 1149 1152 1168
2309 11 1149 1152 1169
2310 11 1149 1152 1170
2311 9 1153 1154 1172
2312 9 1154 1153 1171
2313 12 1155 1142 1156
2314 7 1157 1143 1173
2315 13 1160 1148 1161
2316 13 1162 1150 1163
2317 13 1162 1150 1164
2318 13 1163 1150 1164
2319 13 1165 1151 1166
2320 13 1165 1151 1167
2321 13 1166 1151 1167
2322 13 1168 1152 1169
2323 13 1168 1152 1170
2324 13 1169 1152 1170
2325 7 1173 1174 1188
2326 7 1174 1173 1186
2327 7 1174 1173 1187
2328 7 1174 1204 1217
2329 7 1174 1204 1218
2330 8 1175 1174 1188
2331 9 1175 1176 1189
2332 9 1175 1185 1203
2333 9 1176 1177 1190
2334 9 1177 1176 1189
2335 9 1178 1177 1190
2336 10 1178 1179 1191
2337 10 1178 1179 1192
2338 9 1178 1184 1202
2339 11 1180 1179 1191
2340 11 1180 1179 1192
2341 11 1180 1181 1193
2342 11 1180 1181 1194
2343 11 1180 1181 1195
2344 11 1180 1182 1196
2345 11 1180 1182 1197
2346 11 1180 1182 1198
2347 11 1180 1183 1199
2348 11 1180 1183 1200
2349 11 1180 1183 1201
2350 9 1184 1185 1203
2351 9 1185 1184 1202
2352 12 1186 1173 1187
2353 7 1188 1174 1204
2354 13 1191 1179 1192
2355 13 1193 1181 1194
2356 13 1193 1181 1195
2357 13 1194 1181 1195
2358 13 1196 1182 1197
2359 13 1196 1182 1198
2360 13 1197 1182 1198
2361 13 1199 1183 1200
2362 13 1199 1183 1201
2363 13 1200 1183 1201
2364 7 1204 1205 1219
2365 7 1205 1204 1217
2366 7 1205 1204 1218
2367 7 1205 1235 1248
2368 7 1205 1235 1249
2369 8 1206 1205 1219
2370 9 1206 1207 1220
2371 9 1206 1216 1234
2372 9 1207 1208 1221
2373 9 1208 1207 1220
2374 9 1209 1208 1221
2375 10 1209 1210 1222
2376 10 1209 1210 1223
2377 9 1209 1215 1233
2378 11 1211 1210 1222
2379 11 1211 1210 1223
2380 11 1211 1212 1224
2381 11 1211 1212 1225
2382 11 1211 1212 1226
2383 11 1211 1213 1227
2384 11 1211 1213 1228
2385 11 1211 1213 1229
2386 11 1211 1214 1230
2387 11 1211 1214 1231
2388 11 1211 1214 1232
2389 9 1215 1216 1234
2390 9 1216 1215 1233
2391 12 1217 1204 1218
2392 7 1219 1205 1235
2393 13 1222 1210 1223
2394 13 1224 1212 1225
2395 13 1224 1212 1226
2396 13 1225 1212 1226
2397 13 1227 1213 1228
2398 13 1227 1213 1229
2399 13 1228 1213 1229
2400 13 1230 1214 1231
2401 13 1230 1214 1232
2402 13 1231 1214 1232
2403 7 1235 1236 1251
2404 7 1236 1235 1248
2405 7 1236 1235 1249
2406 7 1236 1250 1270
2407 7 1236 1250 1271
2408 7 1236 1250 1272
2409 8 1237 1236 1251
2410 9 1237 1238 1252
2411 9 1237 1247 1266
2412 9 1238 1239 1253
2413 9 1239 1238 1252
2414 9 1240 1239 1253
2415 10 1240 1241 1254
2416 10 1240 1241 1255
2417 9 1240 1246 1265
2418 11 1242 1241 1254
2419 11 1242 1241 1255
2420 11 1242 1243 1256
2421 11 1242 1243 1257
2422 11 1242 1243 1258
2423 11 1242 1244 1259
2424 11 1242 1244 1260
2425 11 1242 1244 1261
2426 11 1242 1245 1262
2427 11 1242 1245 1263
2428 11 1242 1245 1264
2429 9 1246 1247 1266
2430 9 1247 1246 1265
2431 12 1248 1235 1249
2432 7 1250 1236 1251
2433 13 1254 1241 1255
2434 13 1256 1243 1257
2435 13 1256 1243 1258
2436 13 1257 1243 1258
2437 13 1259 1244 1260
2438 13 1259 1244 1261
2439 13 1260 1244 1261
2440 13 1262 1245 1263
2441 13 1262 1245 1264
2442 13 1263 1245 1264
2443 12 1267 968 1268
2444 12 1267 968 1269
2445 12 1268 968 1269
2446 12 1270 1250 1271
2447 12 1270 1250 1272
2448 12 1271 1250 1272
2449 1 1273 1274 1275
2450 2 1273 1274 1305
2451 2 1274 1273 1286
2452 3 1274 1275 1276
2453 3 1274 1275 1285
2454 2 1274 1305 1306
2455 1 1275 1274 1305
2456 4 1275 1276 1277
2457 4 1275 1285 1284
2458 4 1276 1275 1285
2459 4 1276 1277 1278
2460 3 1277 1278 1279
2461 4 1277 1278 1284
2462 5 1278 1279 1280
2463 4 1278 1284 1285
2464 3 1279 1278 1284
2465 6 1279 1280 1281
2466 6 1279 1280 1282
2467 6 1279 1280 1283
2468 6 1281 1280 1282
2469 6 1281 1280 1283
2470 6 1282 1280 1283
2471 1 1305 1306 1307
2472 2 1305 1306 1336
2473 3 1306 1307 1308
2474 3 1306 1307 1317
2475 2 1306 1336 1337
2476 1 1307 1306 1336
2477 4 1307 1308 1309
2478 4 1307 1317 1316
2479 4 1308 1307 1317
2480 4 1308 1309 1310
2481 3 1309 1310 1311
2482 4 1309 1310 1316
2483 5 1310 1311 1312
2484 4 1310 1316 1317
2485 3 1311 1310 1316
2486 6 1311 1312 1313
2487 6 1311 1312 1314
2488 6 1311 1312 1315
2489 6 1313 1312 1314
2490 6 1313 1312 1315
2491 6 1314 1312 1315
2492 1 1336 1337 1338
2493 2 1336 1337 1367
2494 3 1337 1338 1339
2495 3 1337 1338 1348
2496 2 1337 1367 1368
2497 1 1338 1337 1367
2498 4 1338 1339 1340
2499 4 1338 1348 1347
2500 4 1339 1338 1348
2501 4 1339 1340 1341
2502 3 1340 1341 1342
2503 4 1340 1341 1347
2504 5 1341 1342 1343
2505 4 1341 1347 1348
2506 3 1342 1341 1347
2507 6 1342 1343 1344
2508 6 1342 1343 1345
2509 6 1342 1343 1346
2510 6 1344 1343 1345
2511 6 1344 1343 1346
2512 6 1345 1343 1346
2513 1 1367 1368 1369
2514 2 1367 1368 1398
2515 3 1368 1369 1370
2516 3 1368 1369 1379
2517 2 1368 1398 1399
2518 1 1369 1368 1398
2519 4 1369 1370 1371
2520 4 1369 1379 1378
2521 4 1370 1369 1379
2522 4 1370 1371 1372
2523 3 1371 1372 1373
2524 4 1371 1372 1378
2525 5 1372 1373 1374
2526 4 1372 1378 1379
2527 3 1373 1372 1378
2528 6 1373 1374 1375
2529 6 1373 1374 1376
2530 6 1373 1374 1377
2531 6 1375 1374 1376
2532 6 1375 1374 1377
2533 6 1376 1374 1377
2534 1 1398 1399 1400
2535 2 1398 1399 1429
2536 3 1399 1400 1401
2537 3 1399 1400 1410
2538 2 1399 1429 1430
2539 1 1400 1399 1429
2540 4 1400 1401 1402
2541 4 1400 1410 1409
2542 4 1401 1400 1410
2543 4 1401 1402 1403
2544 3 1402 1403 1404
2545 4 1402 1403 1409
2546 5 1403 1404 1405
2547 4 1403 1409 1410
2548 3 1404 1403 1409
2549 6 1404 1405 1406
2550 6 1404 1405 1407
2551 6 1404 1405 1408
2552 6 1406 1405 1407
2553 6 1406 1405 1408
2554 6 1407 1405 1408
2555 1 1429 1430 1431
2556 2 1429 1430 1460
2557 3 1430 1431 1432
2558 3 1430 1431 1441
2559 2 1430 1460 1461
2560 1 1431 1430 1460
2561 4 1431 1432 1433
2562 4 1431 1441 1440
2563 4 1432 1431 1441
2564 4 1432 1433 1434
2565 3 1433 1434 1435
2566 4 1433 1434 1440
2567 5 1434 1435 1436
2568 4 1434 1440 1441
2569 3 1435 1434 1440
2570 6 1435 1436 1437
2571 6 1435 1436 1438
2572 6 1435 1436 1439
2573 6 1437 1436 1438
2574 6 1437 1436 1439
2575 6 1438 1436 1439
2576 1 1460 1461 1462
2577 2 1460 1461 1491
2578 3 1461 1462 1463
2579 3 1461 1462 1472
2580 2 1461 1491 1492
2581 1 1462 1461 1491
2582 4 1462 1463 1464
2583 4 1462 1472 1471
2584 4 1463 1462 1472
2585 4 1463 1464 1465
2586 3 1464 1465 1466
2587 4 1464 1465 1471
2588 5 1465 1466 1467
2589 4 1465 1471 1472
2590 3 1466 1465 1471
2591 6 1466 1467 1468
2592 6 1466 1467 1469
2593 6 1466 1467 1470
2594 6 1468 1467 1469
2595 6 1468 1467 1470
2596 6 1469 1467 1470
2597 1 1491 1492 1493
2598 2 1491 1492 1522
2599 3 1492 1493 1494
2600 3 1492 1493 1503
2601 2 1492 1522 1523
2602 1 1493 1492 1522
2603 4 1493 1494 1495
2604 4 1493 1503 1502
2605 4 1494 1493 1503
2606 4 1494 1495 1496
2607 3 1495 1496 1497
2608 4 1495 1496 1502
2609 5 1496 1497 1498
2610 4 1496 1502 1503
2611 3 1497 1496 1502
2612 6 1497 1498 1499
2613 6 1497 1498 1500
2614 6 1497 1498 1501
2615 6 1499 1498 1500
2616 6 1499 1498 1501
2617 6 1500 1498 1501
2618 1 1522 1523 1524
2619 2 1522 1523 1553
2620 3 1523 1524 1525
2621 3 1523 1524 1534
2622 2 1523 1553 1554
2623 1 1524 1523 1553
2624 4 1524 1525 1526
2625 4 1524 1534 1533
2626 4 1525 1524 1534
2627 4 1525 1526 1527
2628 3 1526 1527 1528
2629 4 1526 1527 1533
2630 5 1527 1528 1529
2631 4 1527 1533 1534
2632 3 1528 1527 1533
2633 6 1528 1529 1530
2634 6 1528 1529 1531
2635 6 1528 1529 1532
2636 6 1530 1529 1531
2637 6 1530 1529 1532
2638 6 1531 1529 1532
2639 1 1553 1554 1555
2640 2 1553 1554 1568
2641 3 1554 1555 1556
2642 3 1554 1555 1565
2643 1 1555 1554 1568
2644 4 1555 1556 1557
2645 4 1555 1565 1564
2646 4 1556 1555 1565
2647 4 1556 1557 1558
2648 3 1557 1558 1559
2649 4 1557 1558 1564
2650 5 1558 1559 1560
2651 4 1558 1564 1565
2652 3 1559 1558 1564
2653 6 1559 1560 1561
2654 6 1559 1560 1562
2655 6 1559 1560 1563
2656 6 1561 1560 1562
2657 6 1561 1560 1563
2658 6 1562 1560 1563
2659 7 1273 1274 1289
2660 7 1273 1286 1585
2661 7 1273 1286 1586
2662 7 1273 1286 1587
2663 7 1274 1273 1287
2664 7 1274 1273 1288
2665 7 1274 1305 1318
2666 7 1274 1305 1319
2667 8 1275 1274 1289
2668 9 1275 1276 1290
2669 9 1275 1285 1304
2670 9 1276 1277 1291
2671 9 1277 1276 1290
2672 9 1278 1277 1291
2673 10 1278 1279 1292
2674 10 1278 1279 1293
2675 9 1278 1284 1303
2676 11 1280 1279 1292
2677 11 1280 1279 1293
2678 11 1280 1281 1294
2679 11 1280 1281 1295
2680 11 1280 1281 1296
2681 11 1280 1282 1297
2682 11 1280 1282 1298
2683 11 1280 1282 1299
2684 11 1280 1283 1300
2685 11 1280 1283 1301
2686 11 1280 1283 1302
2687 9 1284 1285 1304
2688 9 1285 1284 1303
2689 7 1286 1273 1287
2690 7 1286 1273 1288
2691 12 1287 1273 1288
2692 7 1289 1274 1305
2693 13 1292 1279 1293
2694 13 1294 1281 1295
2695 13 1294 1281 1296
2696 13 1295 1281 1296
2697 13 1297 1282 1298
2698 13 1297 1282 1299
2699 13 1298 1282 1299
2700 13 1300 1283 1301
2701 13 1300 1283 1302
2702 13 1301 1283 1302
2703 7 1305 1306 1320
2704 7 1306 1305 1318
2705 7 1306 1305 1319
2706 7 1306 1336 1349
2707 7 1306 1336 1350
2708 8 1307 1306 1320
2709 9 1307 1308 1321
2710 9 1307 1317 1335
2711 9 1308 1309 1322
2712 9 1309 1308 1321
2713 9 1310 1309 1322
2714 10 1310 1311 1323
2715 10 1310 1311 1324
2716 9 1310 1316 1334
2717 11 1312 1311 1323
2718 11 1312 1311 1324
2719 11 1312 1313 1325
2720 11 1312 1313 1326
2721 11 1312 1313 1327
2722 11 1312 1314 1328
2723 11 1312 1314 1329
2724 11 1312 1314 1330
2725 11 1312 1315 1331
2726 11 1312 1315 1332
2727 11 1312 1315 1333
2728 9 1316 1317 1335
2729 9 1317 1316 1334
2730 12 1318 1305 1319
2731 7 1320 1306 1336
2732 13 1323 1311 1324
2733 13 1325 1313 1326
2734 13 1325 1313 1327
2735 13 1326 1313 1327
2736 13 1328 1314 1329
2737 13 1328 1314 1330
2738 13 1329 1314 1330
2739 13 1331 1315 1332
2740 13 1331 1315 1333
2741 13 1332 1315 1333
2742 7 1336 1337 1351
2743 7 1337 1336 1349
2744 7 1337 1336 1350
2745 7 1337 1367 1380
2746 7 1337 1367 1381
2747 8 1338 1337 1351
2748 9 1338 1339 1352
2749 9 1338 1348 1366
2750 9 1339 1340 1353
2751 9 1340 1339 1352
2752 9 1341 1340 1353
2753 10 1341 1342 1354
2754 10 1341 1342 1355
2755 9 1341 1347 1365
2756 11 1343 1342 1354
2757 11 1343 1342 1355
2758 11 1343 1344 1356
2759 11 1343 1344 1357
2760 11 1343 1344 1358
2761 11 1343 1345 1359
2762 11 1343 1345 1360
2763 11 1343 1345 1361
2764 11 1343 1346 1362
2765 11 1343 1346 1363
2766 11 1343 1346 1364
2767 9 1347 1348 1366
2768 9 1348 1347 1365
2769 12 1349 1336 1350
2770 7 1351 1337 1367
2771 13 1354 1342 1355
2772 13 1356 1344 1357
2773 13 1356 1344 1358
2774 13 1357 1344 1358
2775 13 1359 1345 1360
2776 13 1359 1345 1361
2777 13 1360 1345 1361
2778 13 1362 1346 1363
2779 13 1362 1346 1364
2780 13 1363 1346 1364
2781 7 1367 1368 1382
2782 7 1368 1367 1380
2783 7 1368 1367 1381
2784 7 1368 1398 1411
2785 7 1368 1398 1412
2786 8 1369 1368 1382
2787 9 1369 1370 1383
2788 9 1369 1379 1397
2789 9 1370 1371 1384
2790 9 1371 1370 1383
2791 9 1372 1371 1384
2792 10 1372 1373 1385
2793 10 1372 1373 1386
2794 9 1372 1378 1396
2795 11 1374 1373 1385
2796 11 1374 1373 1386
2797 11 1374 1375 1387
2798 11 1374 1375 1388
2799 11 1374 1375 1389
2800 11 1374 1376 1390
2801 11 1374 1376 1391
2802 11 1374 1376 1392
2803 11 1374 1377 1393
2804 11 1374 1377 1394
2805 11 1374 1377 1395
2806 9 1378 1379 1397
2807 9 1379 1378 1396
2808 12 1380 1367 1381
2809 7 1382 1368 1398
2810 13 1385 1373 1386
2811 13 1387 1375 1388
2812 13 1387 1375 1389
2813 13 1388 1375 1389
2814 13 1390 1376 1391
2815 13 1390 1376 1392
2816 13 1391 1376 1392
2817 13 1393 1377 1394
2818 13 1393 1377 1395
2819 13 1394 1377 1395
2820 7 1398 1399 1413
2821 7 1399 1398 1411
2822 7 1399 1398 1412
2823 7 1399 1429 1442
2824 7 1399 1429 1443
2825 8 1400 1399 1413
2826 9 1400 1401 1414
2827 9 1400 1410 1428
2828 9 1401 1402 1415
2829 9 1402 1401 1414
2830 9 1403 1402 1415
2831 10 1403 1404 1416
2832 10 1403 1404 1417
2833 9 1403 1409 1427
2834 11 1405 1404 1416
2835 11 1405 1404 1417
2836 11 1405 1406 1418
2837 11 1405 1406 1419
2838 11 1405 1406 1420
2839 11 1405 1407 1421
2840 11 1405 1407 1422
2841 11 1405 1407 1423
2842 11 1405 1408 1424
2843 11 1405 1408 1425
2844 11 1405 1408 1426
2845 9 1409 1410 1428
2846 9 1410 1409 1427
2847 12 1411 1398 1412
2848 7 1413 1399 1429
2849 13 1416 1404 1417
2850 13 1418 1406 1419
2851 13 1418 1406 1420
2852 13 1419 1406 1420
2853 13 1421 1407 1422
2854 13 1421 1407 1423
2855 13 1422 1407 1423
2856 13 1424 1408 1425
2857 13 1424 1408 1426
2858 13 1425 1408 1426
2859 7 1429 1430 1444
2860 7 1430 1429 1442
2861 7 1430 1429 1443
2862 7 1430 1460 1473
2863 7 1430 1460 1474
2864 8 1431 1430 1444
2865 9 1431 1432 1445
2866 9 1431 1441 1459
2867 9 1432 1433 1446
2868 9 1433 1432 1445
2869 9 1434 1433 1446
2870 10 1434 1435 1447
2871 10 1434 1435 1448
2872 9 1434 1440 1458
2873 11 1436 1435 1447
2874 11 1436 1435 1448
2875 11 1436 1437 1449
2876 11 1436 1437 1450
2877 11 1436 1437 1451
2878 11 1436 1438 1452
2879 11 1436 1438 1453
2880 11 1436 1438 1454
2881 11 1436 1439 1455
2882 11 1436 1439 1456
2883 11 1436 1439 1457
2884 9 1440 1441 1459
2885 9 1441 1440 1458
2886 12 1442 1429 1443
2887 7 1444 1430 1460
2888 13 1447 1435 1448
2889 13 1449 1437 1450
2890 13 1449 1437 1451
2891 13 1450 1437 1451
2892 13 1452 1438 1453
2893 13 1452 1438 1454
2894 13 1453 1438 1454
2895 13 1455 1439 1456
2896 13 1455 1439 1457
2897 13 1456 1439 1457
2898 7 1460 1461 1475
2899 7 1461 1460 1473
2900 7 1461 1460 1474
2901 7 1461 1491 1504
2902 7 1461 1491 1505
2903 8 1462 1461 1475
2904 9 1462 1463 1476
2905 9 1462 1472 1490
2906 9 1463 1464 1477
2907 9 1464 1463 1476
2908 9 1465 1464 1477
2909 10 1465 1466 1478
2910 10 1465 1466 1479
2911 9 1465 1471 1489
2912 11 1467 1466 1478
2913 11 1467 1466 1479
2914 11 1467 1468 1480
2915 11 1467 1468 1481
2916 11 1467 1468 1482
2917 11 1467 1469 1483
2918 11 1467 1469 1484
2919 11 1467 1469 1485
2920 11 1467 1470 1486
2921 11 1467 1470 1487
2922 11 1467 1470 1488
2923 9 1471 1472 1490
2924 9 1472 1471 1489
2925 12 1473 1460 1474
2926 7 1475 1461 1491
2927 13 1478 1466 1479
2928 13 1480 1468 1481
2929 13 1480 1468 1482
2930 13 1481 1468 1482
2931 13 1483 1469 1484
2932 13 1483 1469 1485
2933 13 1484 1469 1485
2934 13 1486 1470 1487
2935 13 1486 1470 1488
2936 13 1487 1470 1488
2937 7 1491 1492 1506
2938 7 1492 1491 1504
2939 7 1492 1491 1505
2940 7 1492 1522 1535
2941 7 1492 1522 1536
2942 8 1493 1492 1506
2943 9 1493 1494 1507
2944 9 1493 1503 1521
2945 9 1494 1495 1508
2946 9 1495 1494 1507
2947 9 1496 1495 1508
2948 10 1496 1497 1509
2949 10 1496 1497 1510
2950 9 1496 1502 1520
2951 11 1498 1497 1509
2952 11 1498 1497 1510
2953 11 1498 1499 1511
2954 11 1498 1499 1512
2955 11 1498 1499 1513
2956 11 1498 1500 1514
2957 11 1498 1500 1515
2958 11 1498 1500 1516
2959 11 1498 1501 1517
2960 11 1498 1501 1518
2961 11 1498 1501 1519
2962 9 1502 1503 1521
2963 9 1503 1502 1520
2964 12 1504 1491 1505
2965 7 1506 1492 1522
2966 13 1509 1497 1510
2967 13 1511 1499 1512
2968 13 1511 1499 1513
2969 13 1512 1499 1513
2970 13 1514 1500 1515
2971 13 1514 1500 1516
2972 13 1515 1500 1516
2973 13 1517 1501 1518
2974 13 1517 1501 1519
2975 13 1518 1501 1519
2976 7 1522 1523 1537
2977 7 1523 1522 1535
2978 7 1523 1522 1536
2979 7 1523 1553 1566
2980 7 1523 1553 1567
2981 8 1524 1523 1537
2982 9 1524 1525 1538
2983 9 1524 1534 1552
2984 9 1525 1526 1539
2985 9 1526 1525 1538
2986 9 1527 1526 1539
2987 10 1527 1528 1540
2988 10 1527 1528 1541
2989 9 1527 1533 1551
2990 11 1529 1528 1540
2991 11 1529 1528 1541
2992 11 1529 1530 1542
2993 11 1529 1530 1543
2994 11 1529 1530 1544
2995 11 1529 1531 1545
2996 11 1529 1531 1546
2997 11 1529 1531 1547
2998 11 1529 1532 1548
2999 11 1529 1532 1549
3000 11 1529 1532 1550
3001 9 1533 1534 1552
3002 9 1534 1533 1551
3003 12 1535 1522 1536
3004 7 1537 1523 1553
3005 13 1540 1528 1541
3006 13 1542 1530 1543
3007 13 1542 1530 1544
3008 13 1543 1530 1544
3009 13 1545 1531 1546
3010 13 1545 1531 1547
3011 13 1546 1531 1547
3012 13 1548 1532 1549
3013 13 1548 1532 1550
3014 13 1549 1532 1550
3015 7 1553 1554 1569
3016 7 1554 1553 1566
3017 7 1554 1553 1567
3018 7 1554 1568 1588
3019 7 1554 1568 1589
3020 7 1554 1568 1590
3021 8 1555 1554 1569
3022 9 1555 1556 1570
3023 9 1555 1565 1584
3024 9 1556 1557 1571
3025 9 1557 1556 1570
3026 9 1558 1557 1571
3027 10 1558 1559 1572
3028 10 1558 1559 1573
3029 9 1558 1564 1583
3030 11 1560 1559 1572
3031 11 1560 1559 1573
3032 11 1560 1561 1574
3033 11 1560 1561 1575
3034 11 1560 1561 1576
3035 11 1560 1562 1577
3036 11 1560 1562 1578
3037 11 1560 1562 1579
3038 11 1560 1563 1580
3039 11 1560 1563 1581
3040 11 1560 1563 1582
3041 9 1564 1565 1584
3042 9 1565 1564 1583
3043 12 1566 1553 1567
3044 7 1568 1554 1569
3045 13 1572 1559 1573
3046 13 1574 1561 1575
3047 13 1574 1561 1576
3048 13 1575 1561 1576
3049 13 1577 1562 1578
3050 13 1577 1562 1579
3051 13 1578 1562 1579
3052 13 1580 1563 1581
3053 13 1580 1563 1582
3054 13 1581 1563 1582
3055 12 1585 1286 1586
3056 12 1585 1286 1587
3057 12 1586 1286 1587
3058 12 1588 1568 1589
3059 12 1588 1568 1590
3060 12 1589 1568 1590
3061 14 1692 1691 1693
3062 14 1695 1694 1696
3063 14 1698 1697 1699
3064 14 1701 1700 1702
3065 14 1704 1703 1705
3066 14 1707 1706 1708
3067 14 1710 1709 1711
3068 14 1713 1712 1714
3069 14 1716 1715 1717
3070 14 1719 1718 1720
3071 14 1722 1721 1723
3072 14 1725 1724 1726
3073 14 1728 1727 1729
3074 14 1731 1730 1732
3075 14 1734 1733 1735
3076 14 1737 1736 1738
3077 14 1740 1739 1741
3078 14 1743 1742 1744
3079 14 1746 1745 1747
3080 14 1749 1748 1750
3081 14 1752 1751 1753
3082 14 1755 1754 1756
3083 14 1758 1757 1759
3084 14 1761 1760 1762
3085 14 1764 1763 1765
3086 14 1767 1766 1768
3087 14 1770 1769 1771
3088 14 1773 1772 1774
3089 14 1776 1775 1777
3090 14 1779 1778 1780
3091 14 1782 1781 1783
3092 14 1785 1784 1786
3093 14 1788 1787 1789
3094 14 1791 1790 1792
3095 14 1794 1793 1795
3096 14 1797 1796 1798
3097 14 1800 1799 1801
3098 14 1803 1802 1804
3099 14 1806 1805 1807
3100 14 1809 1808 1810
3101 14 1812 1811 1813
3102 14 1815 1814 1816
3103 14 1818 1817 1819
3104 14 1821 1820 1822
3105 14 1824 1823 1825
3106 14 1827 1826 1828
3107 14 1830 1829 1831
3108 14 1833 1832 1834
3109 14 1836 1835 1837
3110 14 1839 1838 1840
3111 14 1842 1841 1843
3112 14 1845 1844 1846
3113 14 1848 1847 1849
3114 14 1851 1850 1852
3115 14 1854 1853 1855
3116 14 1857 1856 1858
3117 14 1860 1859 1861
3118 14 1863 1862 1864
3119 14 1866 1865 1867
3120 14 1869 1868 1870
3121 14 1872 1871 1873
3122 14 1875 1874 1876
3123 14 1878 1877 1879
3124 14 1881 1880 1882
3125 14 1884 1883 1885
3126 14 1887 1886 1888
3127 14 1890 1889 1891
3128 14 1893 1892 1894
3129 14 1896 1895 1897
3130 14 1899 1898 1900
3131 14 1902 1901 1903
3132 14 1905 1904 1906
3133 14 1908 1907 1909
3134 14 1911 1910 1912
3135 14 1914 1913 1915
3136 14 1917 1916 1918
3137 14 1920 1919 1921
3138 14 1923 1922 1924
3139 14 1926 1925 1927
3140 14 1929 1928 1930
3141 14 1932 1931 1933
3142 14 1935 1934 1936
3143 14 1938 1937 1939
3144 14 1941 1940 1942
3145 14 1944 1943 1945
3146 14 1947 1946 1948
3147 14 1950 1949 1951
3148 14 1953 1952 1954
3149 14 1956 1955 1957
3150 14 1959 1958 1960
3151 14 1962 1961 1963

Dihedrals

1 1 1 2 3 4
2 1 1 2 3 13
3 2 1 2 33 34
4 3 2 3 4 5
5 3 2 3 13 12
6 4 2 33 34 35
7 2 2 33 34 64
8 4 14 1 2 3
9 4 3 2 33 34
10 3 3 4 5 6
11 3 3 13 12 6
12 1 4 3 2 33
13 3 4 3 13 12
14 3 4 5 6 7
15 3 4 5 6 12
16 3 5 4 3 13
17 5 5 6 7 8
18 3 5 6 12 13
19 6 6 7 8 9
20 7 6 7 8 9
21 6 6 7 8 10
22 7 6 7 8 10
23 6 6 7 8 11
24 7 6 7 8 11
25 3 7 6 12 13
26 5 8 7 6 12
27 1 13 3 2 33
28 2 14 1 2 33
29 1 33 34 35 36
30 1 33 34 35 45
31 2 33 34 64 65
32 3 34 35 36 37
33 3 34 35 45 44
34 4 34 64 65 66
35 2 34 64 65 95
36 4 35 34 64 65
37 3 35 36 37 38
38 3 35 45 44 38
39 1 36 35 34 64
40 3 36 35 45 44
41 3 36 37 38 39
42 3 36 37 38 44
43 3 37 36 35 45
44 5 37 38 39 40
45 3 37 38 44 45
46 6 38 39 40 41
47 7 38 39 40 41
48 6 38 39 40 42
49 7 38 39 40 42
50 6 38 39 40 43
51 7 38 39 40 43
52 3 39 38 44 45
53 5 40 39 38 44
54 1 45 35 34 64
55 1 64 65 66 67
56 1 64 65 66 76
57 2 64 65 95 96
58 3 65 66 67 68
59 3 65 66 76 75
60 4 65 95 96 97
61 2 65 95 96 126
62 4 66 65 95 96
63 3 66 67 68 69
64 3 66 76 75 69
65 1 67 66 65 95
66 3 67 66 76 75
67 3 67 68 69 70
68 3 67 68 69 75
69 3 68 67 66 76
70 5 68 69 70 71
71 3 68 69 75 76
72 6 69 70 71 72
73 7 69 70 71 72
74 6 69 70 71 73
75 7 69 70 71 73
76 6 69 70 71 74
77 7 69 70 71 74
78 3 70 69 75 76
79 5 71 70 69 75
80 1 76 66 65 95
81 1 95 96 97 98
82 1 95 96 97 107
83 2 95 96 126 127
84 3 96 97 98 99
85 3 96 97 107 106
86 4 96 126 127 128
87 2 96 126 127 157
88 4 97 96 126 127
89 3 97 98 99 100
90 3 97 107 106 100
91 1 98 97 96 126
92 3 98 97 107 106
93 3 98 99 100 101
94 3 98 99 100 106
95 3 99 98 97 107
96 5 99 100 101 102
97 3 99 100 106 107
98 6 100 101 102 103
99 7 100 101 102 103
100 6 100 101 102 104
101 7 100 101 102 104
102 6 100 101 102 105
103 7 100 101 102 105
104 3 101 100 106 107
105 5 102 101 100 106
106 1 107 97 96 126
107 1 126 127 128 129
108 1 126 127 128 138
109 2 126 127 157 158
110 3 127 128 129 130
111 3 127 128 138 137
112 4 127 157 158 159
113 2 127 157 158 188
114 4 128 127 157 158
115 3 128 129 130 131
116 3 128 138 137 131
117 1 129 128 127 157
118 3 129 128 138 137
119 3 129 130 131 132
120 3 129 130 131 137
121 3 130 129 128 138
122 5 130 131 132 133
123 3 130 131 137 138
124 6 131 132 133 134
125 7 131 132 133 134
126 6 131 132 133 135
127 7 131 132 133 135
128 6 131 132 133 136
129 7 131 132 133 136
130 3 132 131 137 138
131 5 133 132 131 137
132 1 138 128 127 157
133 1 157 158 159 160
134 1 157 158 159 169
135 2 157 158 188 189
136 3 158 159 160 161
137 3 158 159 169 168
138 4 158 188 189 190
139 2 158 188 189 219
140 4 159 158 188 189
141 3 159 160 161 162
142 3 159 169 168 162
143 1 160 159 158 188
144 3 160 159 169 168
145 3 160 161 162 163
146 3 160 161 162 168
147 3 161 160 159 169
148 5 161 162 163 164
149 3 161 162 168 169
150 6 162 163 164 165
151 7 162 163 164 165
152 6 162 163 164 166
153 7 162 163 164 166
154 6 162 163 164 167
155 7 162 163 164 167
156 3 163 162 168 169
157 5 164 163 162 168
158 1 169 159 158 188
159 1 188 189 190 191
160 1 188 189 190 200
161 2 188 189 219 220
162 3 189 190 191 192
163 3 189 190 200 199
164 4 189 219 220 221
165 2 189 219 220 250
166 4 190 189 219 220
167 3 190 191 192 193
168 3 190 200 199 193
169 1 191 190 189 219
170 3 191 190 200 199
171 3 191 192 193 194
172 3 191 192 193 199
173 3 192 191 190 200
174 5 192 193 194 195
175 3 192 193 199 200
176 6 193 194 195 196
177 7 193 194 195 196
178 6 193 194 195 197
179 7 193 194 195 197
180 6 193 194 195 198
181 7 193 194 195 198
182 3 194 193 199 200
183 5 195 194 193 199
184 1 200 190 189 219
185 1 219 220 221 222
186 1 219 220 221 231
187 2 219 220 250 251
188 3 220 221 222 223
189 3 220 221 231 230
190 4 220 250 251 252
191 2 220 250 251 281
192 4 221 220 250 251
193 3 221 222 223 224
194 3 221 231 230 224
195 1 222 221 220 250
196 3 222 221 231 230
197 3 222 223 224 225
198 3 222 223 224 230
199 3 223 222 221 231
200 5 223 224 225 226
201 3 223 224 230 231
202 6 224 225 226 227
203 7 224 225 226 227
204 6 224 225 226 228
205 7 224 225 226 228
206 6 224 225 226 229
207 7 224 225 226 229
208 3 225 224 230 231
209 5 226 225 224 230
210 1 231 221 220 250
211 1 250 251 252 253
212 1 250 251 252 262
213 2 250 251 281 282
214 3 251 252 253 254
215 3 251 252 262 261
216 4 251 281 282 283
217 2 251 281 282 296
218 4 252 251 281 282
219 3 252 253 254 255
220 3 252 262 261 255
221 1 253 252 251 281
222 3 253 252 262 261
223 3 253 254 255 256
224 3 253 254 255 261
225 3 254 253 252 262
226 5 254 255 256 257
227 3 254 255 261 262
228 6 255 256 257 258
229 7 255 256 257 258
230 6 255 256 257 259
231 7 255 256 257 259
232 6 255 256 257 260
233 7 255 256 257 260
234 3 256 255 261 262
235 5 257 256 255 261
236 1 262 252 251 281
237 1 281 282 283 284
238 1 281 282 283 293
239 3 282 283 284 285
240 3 282 283 293 292
241 3 283 284 285 286
242 3 283 293 292 286
243 1 284 283 282 296
244 3 284 283 293 292
245 3 284 285 286 287
246 3 284 285 286 292
247 3 285 284 283 293
248 5 285 286 287 288
249 3 285 286 292 293
250 6 286 287 288 289
251 7 286 287 288 289
252 6 286 287 288 290
253 7 286 287 288 290
254 6 286 287 288 291
255 7 286 287 288 291
256 3 287 286 292 293
257 5 288 287 286 292
258 1 293 283 282 296
259 8 1 2 33 46
260 8 1 2 33 47
261 8 2 1 14 313
262 8 2 1 14 314
263 8 2 1 14 315
264 3 2 3 4 18
265 3 2 3 13 32
266 8 2 33 34 48
267 4 15 1 2 3
268 4 16 1 2 3
269 4 3 2 33 46
270 4 3 2 33 47
271 3 3 4 5 19
272 3 3 13 12 31
273 9 4 3 2 17
274 3 4 3 13 32
275 5 5 6 7 20
276 5 5 6 7 21
277 3 5 6 12 31
278 3 6 5 4 18
279 3 6 12 13 32
280 3 7 6 5 19
281 3 7 6 12 31
282 4 7 8 9 22
283 4 7 8 9 23
284 4 7 8 9 24
285 4 7 8 10 25
286 4 7 8 10 26
287 4 7 8 10 27
288 4 7 8 11 28
289 4 7 8 11 29
290 4 7 8 11 30
291 4 9 8 7 20
292 4 9 8 7 21
293 4 9 8 10 25
294 4 9 8 10 26
295 4 9 8 10 27
296 4 9 8 11 28
297 4 9 8 11 29
298 4 9 8 11 30
299 4 10 8 7 20
300 4 10 8 7 21
301 4 10 8 9 22
302 4 10 8 9 23
303 4 10 8 9 24
304 4 10 8 11 28
305 4 10 8 11 29
306 4 10 8 11 30
307 4 11 8 7 20
308 4 11 8 7 21
309 4 11 8 9 22
310 4 11 8 9 23
311 4 11 8 9 24
312 4 11 8 10 25
313 4 11 8 10 26
314 4 11 8 10 27
315 3 12 6 5 19
316 5 12 6 7 20
317 5 12 6 7 21
318 9 13 3 2 17
319 5 13 3 2 17
320 3 13 3 4 18
321 8 14 1 2 17
322 10 15 1 2 17
323 8 15 1 2 33
324 10 15 1 14 313
325 10 15 1 14 314
326 10 15 1 14 315
327 10 16 1 2 17
328 8 16 1 2 33
329 10 16 1 14 313
330 10 16 1 14 314
331 10 16 1 14 315
332 8 17 2 33 34
333 10 17 2 33 46
334 10 17 2 33 47
335 3 18 4 5 19
336 3 31 12 13 32
337 8 33 34 64 77
338 8 33 34 64 78
339 3 34 35 36 49
340 3 34 35 45 63
341 8 34 64 65 79
342 4 35 34 33 46
343 4 35 34 33 47
344 4 35 34 64 77
345 4 35 34 64 78
346 3 35 36 37 50
347 3 35 45 44 62
348 9 36 35 34 48
349 5 36 35 34 48
350 3 36 35 45 63
351 5 37 38 39 51
352 5 37 38 39 52
353 3 37 38 44 62
354 3 38 37 36 49
355 3 38 44 45 63
356 3 39 38 37 50
357 3 39 38 44 62
358 4 39 40 41 53
359 4 39 40 41 54
360 4 39 40 41 55
361 4 39 40 42 56
362 4 39 40 42 57
363 4 39 40 42 58
364 4 39 40 43 59
365 4 39 40 43 60
366 4 39 40 43 61
367 4 41 40 39 51
368 4 41 40 39 52
369 4 41 40 42 56
370 4 41 40 42 57
371 4 41 40 42 58
372 4 41 40 43 59
373 4 41 40 43 60
374 4 41 40 43 61
375 4 42 40 39 51
376 4 42 40 39 52
377 4 42 40 41 53
378 4 42 40 41 54
379 4 42 40 41 55
380 4 42 40 43 59
381 4 42 40 43 60
382 4 42 40 43 61
383 4 43 40 39 51
384 4 43 40 39 52
385 4 43 40 41 53
386 4 43 40 41 54
387 4 43 40 41 55
388 4 43 40 42 56
389 4 43 40 42 57
390 4 43 40 42 58
391 3 44 38 37 50
392 5 44 38 39 51
393 5 44 38 39 52
394 9 45 35 34 48
395 5 45 35 34 48
396 3 45 35 36 49
397 10 46 33 34 48
398 8 46 33 34 64
399 10 47 33 34 48
400 8 47 33 34 64
401 8 48 34 64 65
402 10 48 34 64 77
403 10 48 34 64 78
404 3 49 36 37 50
405 3 62 44 45 63
406 8 64 65 95 108
407 8 64 65 95 109
408 3 65 66 67 80
409 3 65 66 76 94
410 8 65 95 96 110
411 4 66 65 64 77
412 4 66 65 64 78
413 4 66 65 95 108
414 4 66 65 95 109
415 3 66 67 68 81
416 3 66 76 75 93
417 9 67 66 65 79
418 5 67 66 65 79
419 3 67 66 76 94
420 5 68 69 70 82
421 5 68 69 70 83
422 3 68 69 75 93
423 3 69 68 67 80
424 3 69 75 76 94
425 3 70 69 68 81
426 3 70 69 75 93
427 4 70 71 72 84
428 4 70 71 72 85
429 4 70 71 72 86
430 4 70 71 73 87
431 4 70 71 73 88
432 4 70 71 73 89
433 4 70 71 74 90
434 4 70 71 74 91
435 4 70 71 74 92
436 4 72 71 70 82
437 4 72 71 70 83
438 4 72 71 73 87
439 4 72 71 73 88
440 4 72 71 73 89
441 4 72 71 74 90
442 4 72 71 74 91
443 4 72 71 74 92
444 4 73 71 70 82
445 4 73 71 70 83
446 4 73 71 72 84
447 4 73 71 72 85
448 4 73 71 72 86
449 4 73 71 74 90
450 4 73 71 74 91
451 4 73 71 74 92
452 4 74 71 70 82
453 4 74 71 70 83
454 4 74 71 72 84
455 4 74 71 72 85
456 4 74 71 72 86
457 4 74 71 73 87
458 4 74 71 73 88
459 4 74 71 73 89
460 3 75 69 68 81
461 5 75 69 70 82
462 5 75 69 70 83
463 9 76 66 65 79
464 5 76 66 65 79
465 3 76 66 67 80
466 10 77 64 65 79
467 8 77 64 65 95
468 10 78 64 65 79
469 8 78 64 65 95
470 8 79 65 95 96
471 10 79 65 95 108
472 10 79 65 95 109
473 3 80 67 68 81
474 3 93 75 76 94
475 8 95 96 126 139
476 8 95 96 126 140
477 3 96 97 98 111
478 3 96 97 107 125
479 8 96 126 127 141
480 4 97 96 95 108
481 4 97 96 95 109
482 4 97 96 126 139
483 4 97 96 126 140
484 3 97 98 99 112
485 3 97 107 106 124
486 9 98 97 96 110
487 5 98 97 96 110
488 3 98 97 107 125
489 5 99 100 101 113
490 5 99 100 101 114
491 3 99 100 106 124
492 3 100 99 98 111
493 3 100 106 107 125
494 3 101 100 99 112
495 3 101 100 106 124
496 4 101 102 103 115
497 4 101 102 103 116
498 4 101 102 103 117
499 4 101 102 104 118
500 4 101 102 104 119
501 4 101 102 104 120
502 4 101 102 105 121
503 4 101 102 105 122
504 4 101 102 105 123
505 4 103 102 101 113
506 4 103 102 101 114
507 4 103 102 104 118
508 4 103 102 104 119
509 4 103 102 104 120
510 4 103 102 105 121
511 4 103 102 105 122
512 4 103 102 105 123
513 4 104 102 101 113
514 4 104 102 101 114
515 4 104 102 103 115
516 4 104 102 103 116
517 4 104 102 103 117
518 4 104 102 105 121
519 4 104 102 105 122
520 4 104 102 105 123
521 4 105 102 101 113
522 4 105 102 101 114
523 4 105 102 103 115
524 4 105 102 103 116
525 4 105 102 103 117
526 4 105 102 104 118
527 4 105 102 104 119
528 4 105 102 104 120
529 3 106 100 99 112
530 5 106 100 101 113
531 5 106 100 101 114
532 9 107 97 96 110
533 5 107 97 96 110
534 3 107 97 98 111
535 10 108 95 96 110
536 8 108 95 96 126
537 10 109 95 96 110
538 8 109 95 96 126
539 8 110 96 126 127
540 10 110 96 126 139
541 10 110 96 126 140
542 3 111 98 99 112
543 3 124 106 107 125
544 8 126 127 157 170
545 8 126 127 157 171
546 3 127 128 129 142
547 3 127 128 138 156
548 8 127 157 158 172
549 4 128 127 126 139
550 4 128 127 126 140
551 4 128 127 157 170
552 4 128 127 157 171
553 3 128 129 130 143
554 3 128 138 137 155
555 9 129 128 127 141
556 5 129 128 127 141
557 3 129 128 138 156
558 5 130 131 132 144
559 5 130 131 132 145
560 3 130 131 137 155
561 3 131 130 129 142
562 3 131 137 138 156
563 3 132 131 130 143
564 3 132 131 137 155
565 4 132 133 134 146
566 4 132 133 134 147
567 4 132 133 134 148
568 4 132 133 135 149
569 4 132 133 135 150
570 4 132 133 135 151
571 4 132 133 136 152
572 4 132 133 136 153
573 4 132 133 136 154
574 4 134 133 132 144
575 4 134 133 132 145
576 4 134 133 135 149
577 4 134 133 135 150
578 4 134 133 135 151
579 4 134 133 136 152
580 4 134 133 136 153
581 4 134 133 136 154
582 4 135 133 132 144
583 4 135 133 132 145
584 4 135 133 134 146
585 4 135 133 134 147
586 4 135 133 134 148
587 4 135 133 136 152
588 4 135 133 136 153
589 4 135 133 136 154
590 4 136 133 132 144
591 4 136 133 132 145
592 4 136 133 134 146
593 4 136 133 134 147
594 4 136 133 134 148
595 4 136 133 135 149
596 4 136 133 135 150
597 4 136 133 135 151
598 3 137 131 130 143
599 5 137 131 132 144
600 5 137 131 132 145
601 9 138 128 127 141
602 5 138 128 127 141
603 3 138 128 129 142
604 10 139 126 127 141
605 8 139 126 127 157
606 10 140 126 127 141
607 8 140 126 127 157
608 8 141 127 157 158
609 10 141 127 157 170
610 10 141 127 157 171
611 3 142 129 130 143
612 3 155 137 138 156
613 8 157 158 188 201
614 8 157 158 188 202
615 3 158 159 160 173
616 3 158 159 169 187
617 8 158 188 189 203
618 4 159 158 157 170
619 4 159 158 157 171
620 4 159 158 188 201
621 4 159 158 188 202
622 3 159 160 161 174
623 3 159 169 168 186
624 9 160 159 158 172
625 5 160 159 158 172
626 3 160 159 169 187
627 5 161 162 163 175
628 5 161 162 163 176
629 3 161 162 168 186
630 3 162 161 160 173
631 3 162 168 169 187
632 3 163 162 161 174
633 3 163 162 168 186
634 4 163 164 165 177
635 4 163 164 165 178
636 4 163 164 165 179
637 4 163 164 166 180
638 4 163 164 166 181
639 4 163 164 166 182
640 4 163 164 167 183
641 4 163 164 167 184
642 4 163 164 167 185
643 4 165 164 163 175
644 4 165 164 163 176
645 4 165 164 166 180
646 4 165 164 166 181
647 4 165 164 166 182
648 4 165 164 167 183
649 4 165 164 167 184
650 4 165 164 167 185
651 4 166 164 163 175
652 4 166 164 163 176
653 4 166 164 165 177
654 4 166 164 165 178
655 4 166 164 165 179
656 4 166 164 167 183
657 4 166 164 167 184
658 4 166 164 167 185
659 4 167 164 163 175
660 4 167 164 163 176
661 4 167 164 165 177
662 4 167 164 165 178
663 4 167 164 165 179
664 4 167 164 166 180
665 4 167 164 166 181
666 4 167 164 166 182
667 3 168 162 161 174
668 5 168 162 163 175
669 5 168 162 163 176
670 9 169 159 158 172
671 5 169 159 158 172
672 3 169 159 160 173
673 10 170 157 158 172
674 8 170 157 158 188
675 10 171 157 158 172
676 8 171 157 158 188
677 8 172 158 188 189
678 10 172 158 188 201
679 10 172 158 188 202
680 3 173 160 161 174
681 3 186 168 169 187
682 8 188 189 219 232
683 8 188 189 219 233
684 3 189 190 191 204
685 3 189 190 200 218
686 8 189 219 220 234
687 4 190 189 188 201
688 4 190 189 188 202
689 4 190 189 219 232
690 4 190 189 219 233
691 3 190 191 192 205
692 3 190 200 199 217
693 9 191 190 189 203
694 5 191 190 189 203
695 3 191 190 200 218
696 5 192 193 194 206
697 5 192 193 194 207
698 3 192 193 199 217
699 3 193 192 191 204
700 3 193 199 200 218
701 3 194 193 192 205
702 3 194 193 199 217
703 4 194 195 196 208
704 4 194 195 196 209
705 4 194 195 196 210
706 4 194 195 197 211
707 4 194 195 197 212
708 4 194 195 197 213
709 4 194 195 198 214
710 4 194 195 198 215
711 4 194 195 198 216
712 4 196 195 194 206
713 4 196 195 194 207
714 4 196 195 197 211
715 4 196 195 197 212
716 4 196 195 197 213
717 4 196 195 198 214
718 4 196 195 198 215
719 4 196 195 198 216
720 4 197 195 194 206
721 4 197 195 194 207
722 4 197 195 196 208
723 4 197 195 196 209
724 4 197 195 196 210
725 4 197 195 198 214
726 4 197 195 198 215
727 4 197 195 198 216
728 4 198 195 194 206
729 4 198 195 194 207
730 4 198 195 196 208
731 4 198 195 196 209
732 4 198 195 196 210
733 4 198 195 197 211
734 4 198 195 197 212
735 4 198 195 197 213
736 3 199 193 192 205
737 5 199 193 194 206
738 5 199 193 194 207
739 9 200 190 189 203
740 5 200 190 189 203
741 3 200 190 191 204
742 10 201 188 189 203
743 8 201 188 189 219
744 10 202 188 189 203
745 8 202 188 189 219
746 8 203 189 219 220
747 10 203 189 219 232
748 10 203 189 219 233
749 3 204 191 192 205
750 3 217 199 200 218
751 8 219 220 250 263
752 8 219 220 250 264
753 3 220 221 222 235
754 3 220 221 231 249
755 8 220 250 251 265
756 4 221 220 219 232
757 4 221 220 219 233
758 4 221 220 250 263
759 4 221 220 250 264
760 3 221 222 223 236
761 3 221 231 230 248
762 9 222 221 220 234
763 5 222 221 220 234
764 3 222 221 231 249
765 5 223 224 225 237
766 5 223 224 225 238
767 3 223 224 230 248
768 3 224 223 222 235
769 3 224 230 231 249
770 3 225 224 223 236
771 3 225 224 230 248
772 4 225 226 227 239
773 4 225 226 227 240
774 4 225 226 227 241
775 4 225 226 228 242
776 4 225 226 228 243
777 4 225 226 228 244
778 4 225 226 229 245
779 4 225 226 229 246
780 4 225 226 229 247
781 4 227 226 225 237
782 4 227 226 225 238
783 4 227 226 228 242
784 4 227 226 228 243
785 4 227 226 228 244
786 4 227 226 229 245
787 4 227 226 229 246
788 4 227 226 229 247
789 4 228 226 225 237
790 4 228 226 225 238
791 4 228 226 227 239
792 4 228 226 227 240
793 4 228 226 227 241
794 4 228 226 229 245
795 4 228 226 229 246
796 4 228 226 229 247
797 4 229 226 225 237
798 4 229 226 225 238
799 4 229 226 227 239
800 4 229 226 227 240
801 4 229 226 227 241
802 4 229 226 228 242
803 4 229 226 228 243
804 4 229 226 228 244
805 3 230 224 223 236
806 5 230 224 225 237
807 5 230 224 225 238
808 9 231 221 220 234
809 5 231 221 220 234
810 3 231 221 222 235
811 10 232 219 220 234
812 8 232 219 220 250
813 10 233 219 220 234
814 8 233 219 220 250
815 8 234 220 250 251
816 10 234 220 250 263
817 10 234 220 250 264
818 3 235 222 223 236
819 3 248 230 231 249
820 8 250 251 281 294
821 8 250 251 281 295
822 3 251 252 253 266
823 3 251 252 262 280
824 8 251 281 282 297
825 4 252 251 250 263
826 4 252 251 250 264
827 4 252 251 281 294
828 4 252 251 281 295
829 3 252 253 254 267
830 3 252 262 261 279
831 9 253 252 251 265
832 5 253 252 251 265
833 3 253 252 262 280
834 5 254 255 256 268
835 5 254 255 256 269
836 3 254 255 261 279
837 3 255 254 253 266
838 3 255 261 262 280
839 3 256 255 254 267
840 3 256 255 261 279
841 4 256 257 258 270
842 4 256 257 258 271
843 4 256 257 258 272
844 4 256 257 259 273
845 4 256 257 259 274
846 4 256 257 259 275
847 4 256 257 260 276
848 4 256 257 260 277
849 4 256 257 260 278
850 4 258 257 256 268
851 4 258 257 256 269
852 4 258 257 259 273
853 4 258 257 259 274
854 4 258 257 259 275
855 4 258 257 260 276
856 4 258 257 260 277
857 4 258 257 260 278
858 4 259 257 256 268
859 4 259 257 256 269
860 4 259 257 258 270
861 4 259 257 258 271
862 4 259 257 258 272
863 4 259 257 260 276
864 4 259 257 260 277
865 4 259 257 260 278
866 4 260 257 256 268
867 4 260 257 256 269
868 4 260 257 258 270
869 4 260 257 258 271
870 4 260 257 258 272
871 4 260 257 259 273
872 4 260 257 259 274
873 4 260 257 259 275
874 3 261 255 254 267
875 5 261 255 256 268
876 5 261 255 256 269
877 9 262 252 251 265
878 5 262 252 251 265
879 3 262 252 253 266
880 10 263 250 251 265
881 8 263 250 251 281
882 10 264 250 251 265
883 8 264 250 251 281
884 8 265 251 281 282
885 10 265 251 281 294
886 10 265 251 281 295
887 3 266 253 254 267
888 3 279 261 262 280
889 8 281 282 296 316
890 8 281 282 296 317
891 8 281 282 296 318
892 3 282 283 284 298
893 3 282 283 293 312
894 4 283 282 281 294
895 4 283 282 281 295
896 4 283 282 296 316
897 4 283 282 296 317
898 4 283 282 296 318
899 3 283 284 285 299
900 3 283 293 292 311
901 9 284 283 282 297
902 5 284 283 282 297
903 3 284 283 293 312
904 5 285 286 287 300
905 5 285 286 287 301
906 3 285 286 292 311
907 3 286 285 284 298
908 3 286 292 293 312
909 3 287 286 285 299
910 3 287 286 292 311
911 4 287 288 289 302
912 4 287 288 289 303
913 4 287 288 289 304
914 4 287 288 290 305
915 4 287 288 290 306
916 4 287 288 290 307
917 4 287 288 291 308
918 4 287 288 291 309
919 4 287 288 291 310
920 4 289 288 287 300
921 4 289 288 287 301
922 4 289 288 290 305
923 4 289 288 290 306
924 4 289 288 290 307
925 4 289 288 291 308
926 4 289 288 291 309
927 4 289 288 291 310
928 4 290 288 287 300
929 4 290 288 287 301
930 4 290 288 289 302
931 4 290 288 289 303
932 4 290 288 289 304
933 4 290 288 291 308
934 4 290 288 291 309
935 4 290 288 291 310
936 4 291 288 287 300
937 4 291 288 287 301
938 4 291 288 289 302
939 4 291 288 289 303
940 4 291 288 289 304
941 4 291 288 290 305
942 4 291 288 290 306
943 4 291 288 290 307
944 3 292 286 285 299
945 5 292 286 287 300
946 5 292 286 287 301
947 9 293 283 282 297
948 5 293 283 282 297
949 3 293 283 284 298
950 8 294 281 282 296
951 10 294 281 282 297
952 8 295 281 282 296
953 10 295 281 282 297
954 10 297 282 296 316
955 10 297 282 296 317
956 10 297 282 296 318
957 3 298 284 285 299
958 3 311 292 293 312
959 1 319 320 321 322
960 1 319 320 321 331
961 2 319 320 351 352
962 3 320 321 322 323
963 3 320 321 331 330
964 4 320 351 352 353
965 2 320 351 352 382
966 4 332 319 320 321
967 4 321 320 351 352
968 3 321 322 323 324
969 3 321 331 330 324
970 1 322 321 320 351
971 3 322 321 331 330
972 3 322 323 324 325
973 3 322 323 324 330
974 3 323 322 321 331
975 5 323 324 325 326
976 3 323 324 330 331
977 6 324 325 326 327
978 7 324 325 326 327
979 6 324 325 326 328
980 7 324 325 326 328
981 6 324 325 326 329
982 7 324 325 326 329
983 3 325 324 330 331
984 5 326 325 324 330
985 1 331 321 320 351
986 2 332 319 320 351
987 1 351 352 353 354
988 1 351 352 353 363
989 2 351 352 382 383
990 3 352 353 354 355
991 3 352 353 363 362
992 4 352 382 383 384
993 2 352 382 383 413
994 4 353 352 382 383
995 3 353 354 355 356
996 3 353 363 362 356
997 1 354 353 352 382
998 3 354 353 363 362
999 3 354 355 356 357
1000 3 354 355 356 362
1001 3 355 354 353 363
1002 5 355 356 357 358
1003 3 355 356 362 363
1004 6 356 357 358 359
1005 7 356 357 358 359
1006 6 356 357 358 360
1007 7 356 357 358 360
1008 6 356 357 358 361
1009 7 356 357 358 361
1010 3 357 356 362 363
1011 5 358 357 356 362
1012 1 363 353 352 382
1013 1 382 383 384 385
1014 1 382 383 384 394
1015 2 382 383 413 414
1016 3 383 384 385 386
1017 3 383 384 394 393
1018 4 383 413 414 415
1019 2 383 413 414 444
1020 4 384 383 413 414
1021 3 384 385 386 387
1022 3 384 394 393 387
1023 1 385 384 383 413
1024 3 385 384 394 393
1025 3 385 386 387 388
1026 3 385 386 387 393
1027 3 386 385 384 394
1028 5 386 387 388 389
1029 3 386 387 393 394
1030 6 387 388 389 390
1031 7 387 388 389 390
1032 6 387 388 389 391
1033 7 387 388 389 391
1034 6 387 388 389 392
1035 7 387 388 389 392
1036 3 388 387 393 394
1037 5 389 388 387 393
1038 1 394 384 383 413
1039 1 413 414 415 416
1040 1 413 414 415 425
1041 2 413 414 444 445
1042 3 414 415 416 417
1043 3 414 415 425 424
1044 4 414 444 445 446
1045 2 414 444 445 475
1046 4 415 414 444 445
1047 3 415 416 417 418
1048 3 415 425 424 418
1049 1 416 415 414 444
1050 3 416 415 425 424
1051 3 416 417 418 419
1052 3 416 417 418 424
1053 3 417 416 415 425
1054 5 417 418 419 420
1055 3 417 418 424 425
1056 6 418 419 420 421
1057 7 418 419 420 421
1058 6 418 419 420 422
1059 7 418 419 420 422
1060 6 418 419 420 423
1061 7 418 419 420 423
1062 3 419 418 424 425
1063 5 420 419 418 424
1064 1 425 415 414 444
1065 1 444 445 446 447
1066 1 444 445 446 456
1067 2 444 445 475 476
1068 3 445 446 447 448
1069 3 445 446 456 455
1070 4 445 475 476 477
1071 2 445 475 476 506
1072 4 446 445 475 476
1073 3 446 447 448 449
1074 3 446 456 455 449
1075 1 447 446 445 475
1076 3 447 446 456 455
1077 3 447 448 449 450
1078 3 447 448 449 455
1079 3 448 447 446 456
1080 5 448 449 450 451
1081 3 448 449 455 456
1082 6 449 450 451 452
1083 7 449 450 451 452
1084 6 449 450 451 453
1085 7 449 450 451 453
1086 6 449 450 451 454
1087 7 449 450 451 454
1088 3 450 449 455 456
1089 5 451 450 449 455
1090 1 456 446 445 475
1091 1 475 476 477 478
1092 1 475 476 477 487
1093 2 475 476 506 507
1094 3 476 477 478 479
1095 3 476 477 487 486
1096 4 476 506 507 508
1097 2 476 506 507 537
1098 4 477 476 506 507
1099 3 477 478 479 480
1100 3 477 487 486 480
1101 1 478 477 476 506
1102 3 478 477 487 486
1103 3 478 479 480 481
1104 3 478 479 480 486
1105 3 479 478 477 487
1106 5 479 480 481 482
1107 3 479 480 486 487
1108 6 480 481 482 483
1109 7 480 481 482 483
1110 6 480 481 482 484
1111 7 480 481 482 484
1112 6 480 481 482 485
1113 7 480 481 482 485
1114 3 481 480 486 487
1115 5 482 481 480 486
1116 1 487 477 476 506
1117 1 506 507 508 509
1118 1 506 507 508 518
1119 2 506 507 537 538
1120 3 507 508 509 510
1121 3 507 508 518 517
1122 4 507 537 538 539
1123 2 507 537 538 568
1124 4 508 507 537 538
1125 3 508 509 510 511
1126 3 508 518 517 511
1127 1 509 508 507 537
1128 3 509 508 518 517
1129 3 509 510 511 512
1130 3 509 510 511 517
1131 3 510 509 508 518
1132 5 510 511 512 513
1133 3 510 511 517 518
1134 6 511 512 513 514
1135 7 511 512 513 514
1136 6 511 512 513 515
1137 7 511 512 513 515
1138 6 511 512 513 516
1139 7 511 512 513 516
1140 3 512 511 517 518
1141 5 513 512 511 517
1142 1 518 508 507 537
1143 1 537 538 539 540
1144 1 537 538 539 549
1145 2 537 538 568 569
1146 3 538 539 540 541
1147 3 538 539 549 548
1148 4 538 568 569 570
1149 2 538 568 569 599
1150 4 539 538 568 569
1151 3 539 540 541 542
1152 3 539 549 548 542
1153 1 540 539 538 568
1154 3 540 539 549 548
1155 3 540 541 542 543
1156 3 540 541 542 548
1157 3 541 540 539 549
1158 5 541 542 543 544
1159 3 541 542 548 549
1160 6 542 543 544 545
1161 7 542 543 544 545
1162 6 542 543 544 546
1163 7 542 543 544 546
1164 6 542 543 544 547
1165 7 542 543 544 547
1166 3 543 542 548 549
1167 5 544 543 542 548
1168 1 549 539 538 568
1169 1 568 569 570 571
1170 1 568 569 570 580
1171 2 568 569 599 600
1172 3 569 570 571 572
1173 3 569 570 580 579
1174 4 569 599 600 601
1175 2 569 599 600 614
1176 4 570 569 599 600
1177 3 570 571 572 573
1178 3 570 580 579 573
1179 1 571 570 569 599
1180 3 571 570 580 579
1181 3 571 572 573 574
1182 3 571 572 573 579
1183 3 572 571 570 580
1184 5 572 573 574 575
1185 3 572 573 579 580
1186 6 573 574 575 576
1187 7 573 574 575 576
1188 6 573 574 575 577
1189 7 573 574 575 577
1190 6 573 574 575 578
1191 7 573 574 575 578
1192 3 574 573 579 580
1193 5 575 574 573 579
1194 1 580 570 569 599
1195 1 599 600 601 602
1196 1 599 600 601 611
1197 3 600 601 602 603
1198 3 600 601 611 610
1199 3 601 602 603 604
1200 3 601 611 610 604
1201 1 602 601 600 614
1202 3 602 601 611 610
1203 3 602 603 604 605
1204 3 602 603 604 610
1205 3 603 602 601 611
1206 5 603 604 605 606
1207 3 603 604 610 611
1208 6 604 605 606 607
1209 7 604 605 606 607
1210 6 604 605 606 608
1211 7 604 605 606 608
1212 6 604 605 606 609
1213 7 604 605 606 609
1214 3 605 604 610 611
1215 5 606 605 604 610
1216 1 611 601 600 614
1217 8 319 320 351 364
1218 8 319 320 351 365
1219 8 320 319 332 631
1220 8 320 319 332 632
1221 8 320 319 332 633
1222 3 320 321 322 336
1223 3 320 321 331 350
1224 8 320 351 352 366
1225 4 333 319 320 321
1226 4 334 319 320 321
1227 4 321 320 351 364
1228 4 321 320 351 365
1229 3 321 322 323 337
1230 3 321 331 330 349
1231 9 322 321 320 335
1232 3 322 321 331 350
1233 5 323 324 325 338
1234 5 323 324 325 339
1235 3 323 324 330 349
1236 3 324 323 322 336
1237 3 324 330 331 350
1238 3 325 324 323 337
1239 3 325 324 330 349
1240 4 325 326 327 340
1241 4 325 326 327 341
1242 4 325 326 327 342
1243 4 325 326 328 343
1244 4 325 326 328 344
1245 4 325 326 328 345
1246 4 325 326 329 346
1247 4 325 326 329 347
1248 4 325 326 329 348
1249 4 327 326 325 338
1250 4 327 326 325 339
1251 4 327 326 328 343
1252 4 327 326 328 344
1253 4 327 326 328 345
1254 4 327 326 329 346
1255 4 327 326 329 347
1256 4 327 326 329 348
1257 4 328 326 325 338
1258 4 328 326 325 339
1259 4 328 326 327 340
1260 4 328 326 327 341
1261 4 328 326 327 342
1262 4 328 326 329 346
1263 4 328 326 329 347
1264 4 328 326 329 348
1265 4 329 326 325 338
1266 4 329 326 325 339
1267 4 329 326 327 340
1268 4 329 326 327 341
1269 4 329 326 327 342
1270 4 329 326 328 343
1271 4 329 326 328 344
1272 4 329 326 328 345
1273 3 330 324 323 337
1274 5 330 324 325 338
1275 5 330 324 325 339
1276 9 331 321 320 335
1277 5 331 321 320 335
1278 3 331 321 322 336
1279 8 332 319 320 335
1280 10 333 319 320 335
1281 8 333 319 320 351
1282 10 333 319 332 631
1283 10 333 319 332 632
1284 10 333 319 332 633
1285 10 334 319 320 335
1286 8 334 319 320 351
1287 10 334 319 332 631
1288 10 334 319 332 632
1289 10 334 319 332 633
1290 8 335 320 351 352
1291 10 335 320 351 364
1292 10 335 320 351 365
1293 3 336 322 323 337
1294 3 349 330 331 350
1295 8 351 352 382 395
1296 8 351 352 382 396
1297 3 352 353 354 367
1298 3 352 353 363 381
1299 8 352 382 383 397
1300 4 353 352 351 364
1301 4 353 352 351 365
1302 4 353 352 382 395
1303 4 353 352 382 396
1304 3 353 354 355 368
1305 3 353 363 362 380
1306 9 354 353 352 366
1307 5 354 353 352 366
1308 3 354 353 363 381
1309 5 355 356 357 369
1310 5 355 356 357 370
1311 3 355 356 362 380
1312 3 356 355 354 367
1313 3 356 362 363 381
1314 3 357 356 355 368
1315 3 357 356 362 380
1316 4 357 358 359 371
1317 4 357 358 359 372
1318 4 357 358 359 373
1319 4 357 358 360 374
1320 4 357 358 360 375
1321 4 357 358 360 376
1322 4 357 358 361 377
1323 4 357 358 361 378
1324 4 357 358 361 379
1325 4 359 358 357 369
1326 4 359 358 357 370
1327 4 359 358 360 374
1328 4 359 358 360 375
1329 4 359 358 360 376
1330 4 359 358 361 377
1331 4 359 358 361 378
1332 4 359 358 361 379
1333 4 360 358 357 369
1334 4 360 358 357 370
1335 4 360 358 359 371
1336 4 360 358 359 372
1337 4 360 358 359 373
1338 4 360 358 361 377
1339 4 360 358 361 378
1340 4 360 358 361 379
1341 4 361 358 357 369
1342 4 361 358 357 370
1343 4 361 358 359 371
1344 4 361 358 359 372
1345 4 361 358 359 373
1346 4 361 358 360 374
1347 4 361 358 360 375
1348 4 361 358 360 376
1349 3 362 356 355 368
1350 5 362 356 357 369
1351 5 362 356 357 370
1352 9 363 353 352 366
1353 5 363 353 352 366
1354 3 363 353 354 367
1355 10 364 351 352 366
1356 8 364 351 352 382
1357 10 365 351 352 366
1358 8 365 351 352 382
1359 8 366 352 382 383
1360 10 366 352 382 395
1361 10 366 352 382 396
1362 3 367 354 355 368
1363 3 380 362 363 381
1364 8 382 383 413 426
1365 8 382 383 413 427
1366 3 383 384 385 398
1367 3 383 384 394 412
1368 8 383 413 414 428
1369 4 384 383 382 395
1370 4 384 383 382 396
1371 4 384 383 413 426
1372 4 384 383 413 427
1373 3 384 385 386 399
1374 3 384 394 393 411
1375 9 385 384 383 397
1376 5 385 384 383 397
1377 3 385 384 394 412
1378 5 386 387 388 400
1379 5 386 387 388 401
1380 3 386 387 393 411
1381 3 387 386 385 398
1382 3 387 393 394 412
1383 3 388 387 386 399
1384 3 388 387 393 411
1385 4 388 389 390 402
1386 4 388 389 390 403
1387 4 388 389 390 404
1388 4 388 389 391 405
1389 4 388 389 391 406
1390 4 388 389 391 407
1391 4 388 389 392 408
1392 4 388 389 392 409
1393 4 388 389 392 410
1394 4 390 389 388 400
1395 4 390 389 388 401
1396 4 390 389 391 405
1397 4 390 389 391 406
1398 4 390 389 391 407
1399 4 390 389 392 408
1400 4 390 389 392 409
1401 4 390 389 392 410
1402 4 391 389 388 400
1403 4 391 389 388 401
1404 4 391 389 390 402
1405 4 391 389 390 403
1406 4 391 389 390 404
1407 4 391 389 392 408
1408 4 391 389 392 409
1409 4 391 389 392 410
1410 4 392 389 388 400
1411 4 392 389 388 401
1412 4 392 389 390 402
1413 4 392 389 390 403
1414 4 392 389 390 404
1415 4 392 389 391 405
1416 4 392 389 391 406
1417 4 392 389 391 407
1418 3 393 387 386 399
1419 5 393 387 388 400
1420 5 393 387 388 401
1421 9 394 384 383 397
1422 5 394 384 383 397
1423 3 394 384 385 398
1424 10 395 382 383 397
1425 8 395 382 383 413
1426 10 396 382 383 397
1427 8 396 382 383 413
1428 8 397 383 413 414
1429 10 397 383 413 426
1430 10 397 383 413 427
1431 3 398 385 386 399
1432 3 411 393 394 412
1433 8 413 414 444 457
1434 8 413 414 444 458
1435 3 414 415 416 429
1436 3 414 415 425 443
1437 8 414 444 445 459
1438 4 415 414 413 426
1439 4 415 414 413 427
1440 4 415 414 444 457
1441 4 415 414 444 458
1442 3 415 416 417 430
1443 3 415 425 424 442
1444 9 416 415 414 428
1445 5 416 415 414 428
1446 3 416 415 425 443
1447 5 417 418 419 431
1448 5 417 418 419 432
1449 3 417 418 424 442
1450 3 418 417 416 429
1451 3 418 424 425 443
1452 3 419 418 417 430
1453 3 419 418 424 442
1454 4 419 420 421 433
1455 4 419 420 421 434
1456 4 419 420 421 435
1457 4 419 420 422 436
1458 4 419 420 422 437
1459 4 419 420 422 438
1460 4 419 420 423 439
1461 4 419 420 423 440
1462 4 419 420 423 441
1463 4 421 420 419 431
1464 4 421 420 419 432
1465 4 421 420 422 436
1466 4 421 420 422 437
1467 4 421 420 422 438
1468 4 421 420 423 439
1469 4 421 420 423 440
1470 4 421 420 423 441
1471 4 422 420 419 431
1472 4 422 420 419 432
1473 4 422 420 421 433
1474 4 422 420 421 434
1475 4 422 420 421 435
1476 4 422 420 423 439
1477 4 422 420 423 440
1478 4 422 420 423 441
1479 4 423 420 419 431
1480 4 423 420 419 432
1481 4 423 420 421 433
1482 4 423 420 421 434
1483 4 423 420 421 435
1484 4 423 420 422 436
1485 4 423 420 422 437
1486 4 423 420 422 438
1487 3 424 418 417 430
1488 5 424 418 419 431
1489 5 424 418 419 432
1490 9 425 415 414 428
1491 5 425 415 414 428
1492 3 425 415 416 429
1493 10 426 413 414 428
1494 8 426 413 414 444
1495 10 427 413 414 428
1496 8 427 413 414 444
1497 8 428 414 444 445
1498 10 428 414 444 457
1499 10 428 414 444 458
1500 3 429 416 417 430
1501 3 442 424 425 443
1502 8 444 445 475 488
1503 8 444 445 475 489
1504 3 445 446 447 460
1505 3 445 446 456 474
1506 8 445 475 476 490
1507 4 446 445 444 457
1508 4 446 445 444 458
1509 4 446 445 475 488
1510 4 446 445 475 489
1511 3 446 447 448 461
1512 3 446 456 455 473
1513 9 447 446 445 459
1514 5 447 446 445 459
1515 3 447 446 456 474
1516 5 448 449 450 462
1517 5 448 449 450 463
1518 3 448 449 455 473
1519 3 449 448 447 460
1520 3 449 455 456 474
1521 3 450 449 448 461
1522 3 450 449 455 473
1523 4 450 451 452 464
1524 4 450 451 452 465
1525 4 450 451 452 466
1526 4 450 451 453 467
1527 4 450 451 453 468
1528 4 450 451 453 469
1529 4 450 451 454 470
1530 4 450 451 454 471
1531 4 450 451 454 472
1532 4 452 451 450 462
1533 4 452 451 450 463
1534 4 452 451 453 467
1535 4 452 451 453 468
1536 4 452 451 453 469
1537 4 452 451 454 470
1538 4 452 451 454 471
1539 4 452 451 454 472
1540 4 453 451 450 462
1541 4 453 451 450 463
1542 4 453 451 452 464
1543 4 453 451 452 465
1544 4 453 451 452 466
1545 4 453 451 454 470
1546 4 453 451 454 471
1547 4 453 451 454 472
1548 4 454 451 450 462
1549 4 454 451 450 463
1550 4 454 451 452 464
1551 4 454 451 452 465
1552 4 454 451 452 466
1553 4 454 451 453 467
1554 4 454 451 453 468
1555 4 454 451 453 469
1556 3 455 449 448 461
1557 5 455 449 450 462
1558 5 455 449 450 463
1559 9 456 446 445 459
1560 5 456 446 445 459
1561 3 456 446 447 460
1562 10 457 444 445 459
1563 8 457 444 445 475
1564 10 458 444 445 459
1565 8 458 444 445 475
1566 8 459 445 475 476
1567 10 459 445 475 488
1568 10 459 445 475 489
1569 3 460 447 448 461
1570 3 473 455 456 474
1571 8 475 476 506 519
1572 8 475 476 506 520
1573 3 476 477 478 491
1574 3 476 477 487 505
1575 8 476 506 507 521
1576 4 477 476 475 488
1577 4 477 476 475 489
1578 4 477 476 506 519
1579 4 477 476 506 520
1580 3 477 478 479 492
1581 3 477 487 486 504
1582 9 478 477 476 490
1583 5 478 477 476 490
1584 3 478 477 487 505
1585 5 479 480 481 493
1586 5 479 480 481 494
1587 3 479 480 486 504
1588 3 480 479 478 491
1589 3 480 486 487 505
1590 3 481 480 479 492
1591 3 481 480 486 504
1592 4 481 482 483 495
1593 4 481 482 483 496
1594 4 481 482 483 497
1595 4 481 482 484 498
1596 4 481 482 484 499
1597 4 481 482 484 500
1598 4 481 482 485 501
1599 4 481 482 485 502
1600 4 481 482 485 503
1601 4 483 482 481 493
1602 4 483 482 481 494
1603 4 483 482 484 498
1604 4 483 482 484 499
1605 4 483 482 484 500
1606 4 483 482 485 501
1607 4 483 482 485 502
1608 4 483 482 485 503
1609 4 484 482 481 493
1610 4 484 482 481 494
1611 4 484 482 483 495
1612 4 484 482 483 496
1613 4 484 482 483 497
1614 4 484 482 485 501
1615 4 484 482 485 502
1616 4 484 482 485 503
1617 4 485 482 481 493
1618 4 485 482 481 494
1619 4 485 482 483 495
1620 4 485 482 483 496
1621 4 485 482 483 497
1622 4 485 482 484 498
1623 4 485 482 484 499
1624 4 485 482 484 500
1625 3 486 480 479 492
1626 5 486 480 481 493
1627 5 486 480 481 494
1628 9 487 477 476 490
1629 5 487 477 476 490
1630 3 487 477 478 491
1631 10 488 475 476 490
1632 8 488 475 476 506
1633 10 489 475 476 490
1634 8 489 475 476 506
1635 8 490 476 506 507
1636 10 490 476 506 519
1637 10 490 476 506 520
1638 3 491 478 479 492
1639 3 504 486 487 505
1640 8 506 507 537 550
1641 8 506 507 537 551
1642 3 507 508 509 522
1643 3 507 508 518 536
1644 8 507 537 538 552
1645 4 508 507 506 519
1646 4 508 507 506 520
1647 4 508 507 537 550
1648 4 508 507 537 551
1649 3 508 509 510 523
1650 3 508 518 517 535
1651 9 509 508 507 521
1652 5 509 508 507 521
1653 3 509 508 518 536
1654 5 510 511 512 524
1655 5 510 511 512 525
1656 3 510 511 517 535
1657 3 511 510 509 522
1658 3 511 517 518 536
1659 3 512 511 510 523
1660 3 512 511 517 535
1661 4 512 513 514 526
1662 4 512 513 514 527
1663 4 512 513 514 528
1664 4 512 513 515 529
1665 4 512 513 515 530
1666 4 512 513 515 531
1667 4 512 513 516 532
1668 4 512 513 516 533
1669 4 512 513 516 534
1670 4 514 513 512 524
1671 4 514 513 512 525
1672 4 514 513 515 529
1673 4 514 513 515 530
1674 4 514 513 515 531
1675 4 514 513 516 532
1676 4 514 513 516 533
1677 4 514 513 516 534
1678 4 515 513 512 524
1679 4 515 513 512 525
1680 4 515 513 514 526
1681 4 515 513 514 527
1682 4 515 513 514 528
1683 4 515 513 516 532
1684 4 515 513 516 533
1685 4 515 513 516 534
1686 4 516 513 512 524
1687 4 516 513 512 525
1688 4 516 513 514 526
1689 4 516 513 514 527
1690 4 516 513 514 528
1691 4 516 513 515 529
1692 4 516 513 515 530
1693 4 516 513 515 531
1694 3 517 511 510 523
1695 5 517 511 512 524
1696 5 517 511 512 525
1697 9 518 508 507 521
1698 5 518 508 507 521
1699 3 518 508 509 522
1700 10 519 506 507 521
1701 8 519 506 507 537
1702 10 520 506 507 521
1703 8 520 506 507 537
1704 8 521 507 537 538
1705 10 521 507 537 550
1706 10 521 507 537 551
1707 3 522 509 510 523
1708 3 535 517 518 536
1709 8 537 538 568 581
1710 8 537 538 568 582
1711 3 538 539 540 553
1712 3 538 539 549 567
1713 8 538 568 569 583
1714 4 539 538 537 550
1715 4 539 538 537 551
1716 4 539 538 568 581
1717 4 539 538 568 582
1718 3 539 540 541 554
1719 3 539 549 548 566
1720 9 540 539 538 552
1721 5 540 539 538 552
1722 3 540 539 549 567
1723 5 541 542 543 555
1724 5 541 542 543 556
1725 3 541 542 548 566
1726 3 542 541 540 553
1727 3 542 548 549 567
1728 3 543 542 541 554
1729 3 543 542 548 566
1730 4 543 544 545 557
1731 4 543 544 545 558
1732 4 543 544 545 559
1733 4 543 544 546 560
1734 4 543 544 546 561
1735 4 543 544 546 562
1736 4 543 544 547 563
1737 4 543 544 547 564
1738 4 543 544 547 565
1739 4 545 544 543 555
1740 4 545 544 543 556
1741 4 545 544 546 560
1742 4 545 544 546 561
1743 4 545 544 546 562
1744 4 545 544 547 563
1745 4 545 544 547 564
1746 4 545 544 547 565
1747 4 546 544 543 555
1748 4 546 544 543 556
1749 4 546 544 545 557
1750 4 546 544 545 558
1751 4 546 544 545 559
1752 4 546 544 547 563
1753 4 546 544 547 564
1754 4 546 544 547 565
1755 4 547 544 543 555
1756 4 547 544 543 556
1757 4 547 544 545 557
1758 4 547 544 545 558
1759 4 547 544 545 559
1760 4 547 544 546 560
1761 4 547 544 546 561
1762 4 547 544 546 562
1763 3 548 542 541 554
1764 5 548 542 543 555
1765 5 548 542 543 556
1766 9 549 539 538 552
1767 5 549 539 538 552
1768 3 549 539 540 553
1769 10 550 537 538 552
1770 8 550 537 538 568
1771 10 551 537 538 552
1772 8 551 537 538 568
1773 8 552 538 568 569
1774 10 552 538 568 581
1775 10 552 538 568 582
1776 3 553 540 541 554
1777 3 566 548 549 567
1778 8 568 569 599 612
1779 8 568 569 599 613
1780 3 569 570 571 584
1781 3 569 570 580 598
1782 8 569 599 600 615
1783 4 570 569 568 581
1784 4 570 569 568 582
1785 4 570 569 599 612
1786 4 570 569 599 613
1787 3 570 571 572 585
1788 3 570 580 579 597
1789 9 571 570 569 583
1790 5 571 570 569 583
1791 3 571 570 580 598
1792 5 572 573 574 586
1793 5 572 573 574 587
1794 3 572 573 579 597
1795 3 573 572 571 584
1796 3 573 579 580 598
1797 3 574 573 572 585
1798 3 574 573 579 597
1799 4 574 575 576 588
1800 4 574 575 576 589
1801 4 574 575 576 590
1802 4 574 575 577 591
1803 4 574 575 577 592
1804 4 574 575 577 593
1805 4 574 575 578 594
1806 4 574 575 578 595
1807 4 574 575 578 596
1808 4 576 575 574 586
1809 4 576 575 574 587
1810 4 576 575 577 591
1811 4 576 575 577 592
1812 4 576 575 577 593
1813 4 576 575 578 594
1814 4 576 575 578 595
1815 4 576 575 578 596
1816 4 577 575 574 586
1817 4 577 575 574 587
1818 4 577 575 576 588
1819 4 577 575 576 589
1820 4 577 575 576 590
1821 4 577 575 578 594
1822 4 577 575 578 595
1823 4 577 575 578 596
1824 4 578 575 574 586
1825 4 578 575 574 587
1826 4 578 575 576 588
1827 4 578 575 576 589
1828 4 578 575 576 590
1829 4 578 575 577 591
1830 4 578 575 577 592
1831 4 578 575 577 593
1832 3 579 573 572 585
1833 5 579 573 574 586
1834 5 579 573 574 587
1835 9 580 570 569 583
1836 5 580 570 569 583
1837 3 580 570 571 584
1838 10 581 568 569 583
1839 8 581 568 569 599
1840 10 582 568 569 583
1841 8 582 568 569 599
1842 8 583 569 599 600
1843 10 583 569 599 612
1844 10 583 569 599 613
1845 3 584 571 572 585
1846 3 597 579 580 598
1847 8 599 600 614 634
1848 8 599 600 614 635
1849 8 599 600 614 636
1850 3 600 601 602 616
1851 3 600 601 611 630
1852 4 601 600 599 612
1853 4 601 600 599 613
1854 4 601 600 614 634
1855 4 601 600 614 635
1856 4 601 600 614 636
1857 3 601 602 603 617
1858 3 601 611 610 629
1859 9 602 601 600 615
1860 5 602 601 600 615
1861 3 602 601 611 630
1862 5 603 604 605 618
1863 5 603 604 605 619
1864 3 603 604 610 629
1865 3 604 603 602 616
1866 3 604 610 611 630
1867 3 605 604 603 617
1868 3 605 604 610 629
1869 4 605 606 607 620
1870 4 605 606 607 621
1871 4 605 606 607 622
1872 4 605 606 608 623
1873 4 605 606 608 624
1874 4 605 606 608 625
1875 4 605 606 609 626
1876 4 605 606 609 627
1877 4 605 606 609 628
1878 4 607 606 605 618
1879 4 607 606 605 619
1880 4 607 606 608 623
1881 4 607 606 608 624
1882 4 607 606 608 625
1883 4 607 606 609 626
1884 4 607 606 609 627
1885 4 607 606 609 628
1886 4 608 606 605 618
1887 4 608 606 605 619
1888 4 608 606 607 620
1889 4 608 606 607 621
1890 4 608 606 607 622
1891 4 608 606 609 626
1892 4 608 606 609 627
1893 4 608 606 609 628
1894 4 609 606 605 618
1895 4 609 606 605 619
1896 4 609 606 607 620
1897 4 609 606 607 621
1898 4 609 606 607 622
1899 4 609 606 608 623
1900 4 609 606 608 624
1901 4 609 606 608 625
1902 3 610 604 603 617
1903 5 610 604 605 618
1904 5 610 604 605 619
1905 9 611 601 600 615
1906 5 611 601 600 615
1907 3 611 601 602 616
1908 8 612 599 600 614
1909 10 612 599 600 615
1910 8 613 599 600 614
1911 10 613 599 600 615
1912 10 615 600 614 634
1913 10 615 600 614 635
1914 10 615 600 614 636
1915 3 616 602 603 617
1916 3 629 610 611 630
1917 1 637 638 639 640
1918 1 637 638 639 649
1919 2 637 638 669 670
1920 3 638 639 640 641
1921 3 638 639 649 648
1922 4 638 669 670 671
1923 2 638 669 670 700
1924 4 650 637 638 639
1925 4 639 638 669 670
1926 3 639 640 641 642
1927 3 639 649 648 642
1928 1 640 639 638 669
1929 3 640 639 649 648
1930 3 640 641 642 643
1931 3 640 641 642 648
1932 3 641 640 639 649
1933 5 641 642 643 644
1934 3 641 642 648 649
1935 6 642 643 644 645
1936 7 642 643 644 645
1937 6 642 643 644 646
1938 7 642 643 644 646
1939 6 642 643 644 647
1940 7 642 643 644 647
1941 3 643 642 648 649
1942 5 644 643 642 648
1943 1 649 639 638 669
1944 2 650 637 638 669
1945 1 669 670 671 672
1946 1 669 670 671 681
1947 2 669 670 700 701
1948 3 670 671 672 673
1949 3 670 671 681 680
1950 4 670 700 701 702
1951 2 670 700 701 731
1952 4 671 670 700 701
1953 3 671 672 673 674
1954 3 671 681 680 674
1955 1 672 671 670 700
1956 3 672 671 681 680
1957 3 672 673 674 675
1958 3 672 673 674 680
1959 3 673 672 671 681
1960 5 673 674 675 676
1961 3 673 674 680 681
1962 6 674 675 676 677
1963 7 674 675 676 677
1964 6 674 675 676 678
1965 7 674 675 676 678
1966 6 674 675 676 679
1967 7 674 675 676 679
1968 3 675 674 680 681
1969 5 676 675 674 680
1970 1 681 671 670 700
1971 1 700 701 702 703
1972 1 700 701 702 712
1973 2 700 701 731 732
1974 3 701 702 703 704
1975 3 701 702 712 711
1976 4 701 731 732 733
1977 2 701 731 732 762
1978 4 702 701 731 732
1979 3 702 703 704 705
1980 3 702 712 711 705
1981 1 703 702 701 731
1982 3 703 702 712 711
1983 3 703 704 705 706
1984 3 703 704 705 711
1985 3 704 703 702 712
1986 5 704 705 706 707
1987 3 704 705 711 712
1988 6 705 706 707 708
1989 7 705 706 707 708
1990 6 705 706 707 709
1991 7 705 706 707 709
1992 6 705 706 707 710
1993 7 705 706 707 710
1994 3 706 705 711 712
1995 5 707 706 705 711
1996 1 712 702 701 731
1997 1 731 732 733 734
1998 1 731 732 733 743
1999 2 731 732 762 763
2000 3 732 733 734 735
2001 3 732 733 743 742
2002 4 732 762 763 764
2003 2 732 762 763 793
2004 4 733 732 762 763
2005 3 733 734 735 736
2006 3 733 743 742 736
2007 1 734 733 732 762
2008 3 734 733 743 742
2009 3 734 735 736 737
2010 3 734 735 736 742
2011 3 735 734 733 743
2012 5 735 736 737 738
2013 3 735 736 742 743
2014 6 736 737 738 739
2015 7 736 737 738 739
2016 6 736 737 738 740
2017 7 736 737 738 740
2018 6 736 737 738 741
2019 7 736 737 738 741
2020 3 737 736 742 743
2021 5 738 737 736 742
2022 1 743 733 732 762
2023 1 762 763 764 765
2024 1 762 763 764 774
2025 2 762 763 793 794
2026 3 763 764 765 766
2027 3 763 764 774 773
2028 4 763 793 794 795
2029 2 763 793 794 824
2030 4 764 763 793 794
2031 3 764 765 766 767
2032 3 764 774 773 767
2033 1 765 764 763 793
2034 3 765 764 774 773
2035 3 765 766 767 768
2036 3 765 766 767 773
2037 3 766 765 764 774
2038 5 766 767 768 769
2039 3 766 767 773 774
2040 6 767 768 769 770
2041 7 767 768 769 770
2042 6 767 768 769 771
2043 7 767 768 769 771
2044 6 767 768 769 772
2045 7 767 768 769 772
2046 3 768 767 773 774
2047 5 769 768 767 773
2048 1 774 764 763 793
2049 1 793 794 795 796
2050 1 793 794 795 805
2051 2 793 794 824 825
2052 3 794 795 796 797
2053 3 794 795 805 804
2054 4 794 824 825 826
2055 2 794 824 825 855
2056 4 795 794 824 825
2057 3 795 796 797 798
2058 3 795 805 804 798
2059 1 796 795 794 824
2060 3 796 795 805 804
2061 3 796 797 798 799
2062 3 796 797 798 804
2063 3 797 796 795 805
2064 5 797 798 799 800
2065 3 797 798 804 805
2066 6 798 799 800 801
2067 7 798 799 800 801
2068 6 798 799 800 802
2069 7 798 799 800 802
2070 6 798 799 800 803
2071 7 798 799 800 803
2072 3 799 798 804 805
2073 5 800 799 798 804
2074 1 805 795 794 824
2075 1 824 825 826 827
2076 1 824 825 826 836
2077 2 824 825 855 856
2078 3 825 826 827 828
2079 3 825 826 836 835
2080 4 825 855 856 857
2081 2 825 855 856 886
2082 4 826 825 855 856
2083 3 826 827 828 829
2084 3 826 836 835 829
2085 1 827 826 825 855
2086 3 827 826 836 835
2087 3 827 828 829 830
2088 3 827 828 829 835
2089 3 828 827 826 836
2090 5 828 829 830 831
2091 3 828 829 835 836
2092 6 829 830 831 832
2093 7 829 830 831 832
2094 6 829 830 831 833
2095 7 829 830 831 833
2096 6 829 830 831 834
2097 7 829 830 831 834
2098 3 830 829 835 836
2099 5 831 830 829 835
2100 1 836 826 825 855
2101 1 855 856 857 858
2102 1 855 856 857 867
2103 2 855 856 886 887
2104 3 856 857 858 859
2105 3 856 857 867 866
2106 4 856 886 887 888
2107 2 856 886 887 917
2108 4 857 856 886 887
2109 3 857 858 859 860
2110 3 857 867 866 860
2111 1 858 857 856 886
2112 3 858 857 867 866
2113 3 858 859 860 861
2114 3 858 859 860 866
2115 3 859 858 857 867
2116 5 859 860 861 862
2117 3 859 860 866 867
2118 6 860 861 862 863
2119 7 860 861 862 863
2120 6 860 861 862 864
2121 7 860 861 862 864
2122 6 860 861 862 865
2123 7 860 861 862 865
2124 3 861 860 866 867
2125 5 862 861 860 866
2126 1 867 857 856 886
2127 1 886 887 888 889
2128 1 886 887 888 898
2129 2 886 887 917 918
2130 3 887 888 889 890
2131 3 887 888 898 897
2132 4 887 917 918 919
2133 2 887 917 918 932
2134 4 888 887 917 918
2135 3 888 889 890 891
2136 3 888 898 897 891
2137 1 889 888 887 917
2138 3 889 888 898 897
2139 3 889 890 891 892
2140 3 889 890 891 897
2141 3 890 889 888 898
2142 5 890 891 892 893
2143 3 890 891 897 898
2144 6 891 892 893 894
2145 7 891 892 893 894
2146 6 891 892 893 895
2147 7 891 892 893 895
2148 6 891 892 893 896
2149 7 891 892 893 896
2150 3 892 891 897 898
2151 5 893 892 891 897
2152 1 898 888 887 917
2153 1 917 918 919 920
2154 1 917 918 919 929
2155 3 918 919 920 921
2156 3 918 919 929 928
2157 3 919 920 921 922
2158 3 919 929 928 922
2159 1 920 919 918 932
2160 3 920 919 929 928
2161 3 920 921 922 923
2162 3 920 921 922 928
2163 3 921 920 919 929
2164 5 921 922 923 924
2165 3 921 922 928 929
2166 6 922 923 924 925
2167 7 922 923 924 925
2168 6 922 923 924 926
2169 7 922 923 924 926
2170 6 922 923 924 927
2171 7 922 923 924 927
2172 3 923 922 928 929
2173 5 924 923 922 928
2174 1 929 919 918 932
2175 8 637 638 669 682
2176 8 637 638 669 683
2177 8 638 637 650 949
2178 8 638 637 650 950
2179 8 638 637 650 951
2180 3 638 639 640 654
2181 3 638 639 649 668
2182 8 638 669 670 684
2183 4 651 637 638 639
2184 4 652 637 638 639
2185 4 639 638 669 682
2186 4 639 638 669 683
2187 3 639 640 641 655
2188 3 639 649 648 667
2189 9 640 639 638 653
2190 3 640 639 649 668
2191 5 641 642 643 656
2192 5 641 642 643 657
2193 3 641 642 648 667
2194 3 642 641 640 654
2195 3 642 648 649 668
2196 3 643 642 641 655
2197 3 643 642 648 667
2198 4 643 644 645 658
2199 4 643 644 645 659
2200 4 643 644 645 660
2201 4 643 644 646 661
2202 4 643 644 646 662
2203 4 643 644 646 663
2204 4 643 644 647 664
2205 4 643 644 647 665
2206 4 643 644 647 666
2207 4 645 644 643 656
2208 4 645 644 643 657
2209 4 645 644 646 661
2210 4 645 644 646 662
2211 4 645 644 646 663
2212 4 645 644 647 664
2213 4 645 644 647 665
2214 4 645 644 647 666
2215 4 646 644 643 656
2216 4 646 644 643 657
2217 4 646 644 645 658
2218 4 646 644 645 659
2219 4 646 644 645 660
2220 4 646 644 647 664
2221 4 646 644 647 665
2222 4 646 644 647 666
2223 4 647 644 643 656
2224 4 647 644 643 657
2225 4 647 644 645 658
2226 4 647 644 645 659
2227 4 647 644 645 660
2228 4 647 644 646 661
2229 4 647 644 646 662
2230 4 647 644 646 663
2231 3 648 642 641 655
2232 5 648 642 643 656
2233 5 648 642 643 657
2234 9 649 639 638 653
2235 5 649 639 638 653
2236 3 649 639 640 654
2237 8 650 637 638 653
2238 10 651 637 638 653
2239 8 651 637 638 669
2240 10 651 637 650 949
2241 10 651 637 650 950
2242 10 651 637 650 951
2243 10 652 637 638 653
2244 8 652 637 638 669
2245 10 652 637 650 949
2246 10 652 637 650 950
2247 10 652 637 650 951
2248 8 653 638 669 670
2249 10 653 638 669 682
2250 10 653 638 669 683
2251 3 654 640 641 655
2252 3 667 648 649 668
2253 8 669 670 700 713
2254 8 669 670 700 714
2255 3 670 671 672 685
2256 3 670 671 681 699
2257 8 670 700 701 715
2258 4 671 670 669 682
2259 4 671 670 669 683
2260 4 671 670 700 713
2261 4 671 670 700 714
2262 3 671 672 673 686
2263 3 671 681 680 698
2264 9 672 671 670 684
2265 5 672 671 670 684
2266 3 672 671 681 699
2267 5 673 674 675 687
2268 5 673 674 675 688
2269 3 673 674 680 698
2270 3 674 673 672 685
2271 3 674 680 681 699
2272 3 675 674 673 686
2273 3 675 674 680 698
2274 4 675 676 677 689
2275 4 675 676 677 690
2276 4 675 676 677 691
2277 4 675 676 678 692
2278 4 675 676 678 693
2279 4 675 676 678 694
2280 4 675 676 679 695
2281 4 675 676 679 696
2282 4 675 676 679 697
2283 4 677 676 675 687
2284 4 677 676 675 688
2285 4 677 676 678 692
2286 4 677 676 678 693
2287 4 677 676 678 694
2288 4 677 676 679 695
2289 4 677 676 679 696
2290 4 677 676 679 697
2291 4 678 676 675 687
2292 4 678 676 675 688
2293 4 678 676 677 689
2294 4 678 676 677 690
2295 4 678 676 677 691
2296 4 678 676 679 695
2297 4 678 676 679 696
2298 4 678 676 679 697
2299 4 679 676 675 687
2300 4 679 676 675 688
2301 4 679 676 677 689
2302 4 679 676 677 690
2303 4 679 676 677 691
2304 4 679 676 678 692
2305 4 679 676 678 693
2306 4 679 676 678 694
2307 3 680 674 673 686
2308 5 680 674 675 687
2309 5 680 674 675 688
2310 9 681 671 670 684
2311 5 681 671 670 684
2312 3 681 671 672 685
2313 10 682 669 670 684
2314 8 682 669 670 700
2315 10 683 669 670 684
2316 8 683 669 670 700
2317 8 684 670 700 701
2318 10 684 670 700 713
2319 10 684 670 700 714
2320 3 685 672 673 686
2321 3 698 680 681 699
2322 8 700 701 731 744
2323 8 700 701 731 745
2324 3 701 702 703 716
2325 3 701 702 712 730
2326 8 701 731 732 746
2327 4 702 701 700 713
2328 4 702 701 700 714
2329 4 702 701 731 744
2330 4 702 701 731 745
2331 3 702 703 704 717
2332 3 702 712 711 729
2333 9 703 702 701 715
2334 5 703 702 701 715
2335 3 703 702 712 730
2336 5 704 705 706 718
2337 5 704 705 706 719
2338 3 704 705 711 729
2339 3 705 704 703 716
2340 3 705 711 712 730
2341 3 706 705 704 717
2342 3 706 705 711 729
2343 4 706 707 708 720
2344 4 706 707 708 721
2345 4 706 707 708 722
2346 4 706 707 709 723
2347 4 706 707 709 724
2348 4 706 707 709 725
2349 4 706 707 710 726
2350 4 706 707 710 727
2351 4 706 707 710 728
2352 4 708 707 706 718
2353 4 708 707 706 719
2354 4 708 707 709 723
2355 4 708 707 709 724
2356 4 708 707 709 725
2357 4 708 707 710 726
2358 4 708 707 710 727
2359 4 708 707 710 728
2360 4 709 707 706 718
2361 4 709 707 706 719
2362 4 709 707 708 720
2363 4 709 707 708 721
2364 4 709 707 708 722
2365 4 709 707 710 726
2366 4 709 707 710 727
2367 4 709 707 710 728
2368 4 710 707 706 718
2369 4 710 707 706 719
2370 4 710 707 708 720
2371 4 710 707 708 721
2372 4 710 707 708 722
2373 4 710 707 709 723
2374 4 710 707 709 724
2375 4 710 707 709 725
2376 3 711 705 704 717
2377 5 711 705 706 718
2378 5 711 705 706 719
2379 9 712 702 701 715
2380 5 712 702 701 715
2381 3 712 702 703 716
2382 10 713 700 701 715
2383 8 713 700 701 731
2384 10 714 700 701 715
2385 8 714 700 701 731
2386 8 715 701 731 732
2387 10 715 701 731 744
2388 10 715 701 731 745
2389 3 716 703 704 717
2390 3 729 711 712 730
2391 8 731 732 762 775
2392 8 731 732 762 776
2393 3 732 733 734 747
2394 3 732 733 743 761
2395 8 732 762 763 777
2396 4 733 732 731 744
2397 4 733 732 731 745
2398 4 733 732 762 775
2399 4 733 732 762 776
2400 3 733 734 735 748
2401 3 733 743 742 760
2402 9 734 733 732 746
2403 5 734 733 732 746
2404 3 734 733 743 761
2405 5 735 736 737 749
2406 5 735 736 737 750
2407 3 735 736 742 760
2408 3 736 735 734 747
2409 3 736 742 743 761
2410 3 737 736 735 748
2411 3 737 736 742 760
2412 4 737 738 739 751
2413 4 737 738 739 752
2414 4 737 738 739 753
2415 4 737 738 740 754
2416 4 737 738 740 755
2417 4 737 738 740 756
2418 4 737 738 741 757
2419 4 737 738 741 758
2420 4 737 738 741 759
2421 4 739 738 737 749
2422 4 739 738 737 750
2423 4 739 738 740 754
2424 4 739 738 740 755
2425 4 739 738 740 756
2426 4 739 738 741 757
2427 4 739 738 741 758
2428 4 739 738 741 759
2429 4 740 738 737 749
2430 4 740 738 737 750
2431 4 740 738 739 751
2432 4 740 738 739 752
2433 4 740 738 739 753
2434 4 740 738 741 757
2435 4 740 738 741 758
2436 4 740 738 741 759
2437 4 741 738 737 749
2438 4 741 738 737 750
2439 4 741 738 739 751
2440 4 741 738 739 752
2441 4 741 738 739 753
2442 4 741 738 740 754
2443 4 741 738 740 755
2444 4 741 738 740 756
2445 3 742 736 735 748
2446 5 742 736 737 749
2447 5 742 736 737 750
2448 9 743 733 732 746
2449 5 743 733 732 746
2450 3 743 733 734 747
2451 10 744 731 732 746
2452 8 744 731 732 762
2453 10 745 731 732 746
2454 8 745 731 732 762
2455 8 746 732 762 763
2456 10 746 732 762 775
2457 10 746 732 762 776
2458 3 747 734 735 748
2459 3 760 742 743 761
2460 8 762 763 793 806
2461 8 762 763 793 807
2462 3 763 764 765 778
2463 3 763 764 774 792
2464 8 763 793 794 808
2465 4 764 763 762 775
2466 4 764 763 762 776
2467 4 764 763 793 806
2468 4 764 763 793 807
2469 3 764 765 766 779
2470 3 764 774 773 791
2471 9 765 764 763 777
2472 5 765 764 763 777
2473 3 765 764 774 792
2474 5 766 767 768 780
2475 5 766 767 768 781
2476 3 766 767 773 791
2477 3 767 766 765 778
2478 3 767 773 774 792
2479 3 768 767 766 779
2480 3 768 767 773 791
2481 4 768 769 770 782
2482 4 768 769 770 783
2483 4 768 769 770 784
2484 4 768 769 771 785
2485 4 768 769 771 786
2486 4 768 769 771 787
2487 4 768 769 772 788
2488 4 768 769 772 789
2489 4 768 769 772 790
2490 4 770 769 768 780
2491 4 770 769 768 781
2492 4 770 769 771 785
2493 4 770 769 771 786
2494 4 770 769 771 787
2495 4 770 769 772 788
2496 4 770 769 772 789
2497 4 770 769 772 790
2498 4 771 769 768 780
2499 4 771 769 768 781
2500 4 771 769 770 782
2501 4 771 769 770 783
2502 4 771 769 770 784
2503 4 771 769 772 788
2504 4 771 769 772 789
2505 4 771 769 772 790
2506 4 772 769 768 780
2507 4 772 769 768 781
2508 4 772 769 770 782
2509 4 772 769 770 783
2510 4 772 769 770 784
2511 4 772 769 771 785
2512 4 772 769 771 786
2513 4 772 769 771 787
2514 3 773 767 766 779
2515 5 773 767 768 780
2516 5 773 767 768 781
2517 9 774 764 763 777
2518 5 774 764 763 777
2519 3 774 764 765 778
2520 10 775 762 763 777
2521 8 775 762 763 793
2522 10 776 762 763 777
2523 8 776 762 763 793
2524 8 777 763 793 794
2525 10 777 763 793 806
2526 10 777 763 793 807
2527 3 778 765 766 779
2528 3 791 773 774 792
2529 8 793 794 824 837
2530 8 793 794 824 838
2531 3 794 795 796 809
2532 3 794 795 805 823
2533 8 794 824 825 839
2534 4 795 794 793 806
2535 4 795 794 793 807
2536 4 795 794 824 837
2537 4 795 794 824 838
2538 3 795 796 797 810
2539 3 795 805 804 822
2540 9 796 795 794 808
2541 5 796 795 794 808
2542 3 796 795 805 823
2543 5 797 798 799 811
2544 5 797 798 799 812
2545 3 797 798 804 822
2546 3 798 797 796 809
2547 3 798 804 805 823
2548 3 799 798 797 810
2549 3 799 798 804 822
2550 4 799 800 801 813
2551 4 799 800 801 814
2552 4 799 800 801 815
2553 4 799 800 802 816
2554 4 799 800 802 817
2555 4 799 800 802 818
2556 4 799 800 803 819
2557 4 799 800 803 820
2558 4 799 800 803 821
2559 4 801 800 799 811
2560 4 801 800 799 812
2561 4 801 800 802 816
2562 4 801 800 802 817
2563 4 801 800 802 818
2564 4 801 800 803 819
2565 4 801 800 803 820
2566 4 801 800 803 821
2567 4 802 800 799 811
2568 4 802 800 799 812
2569 4 802 800 801 813
2570 4 802 800 801 814
2571 4 802 800 801 815
2572 4 802 800 803 819
2573 4 802 800 803 820
2574 4 802 800 803 821
2575 4 803 800 799 811
2576 4 803 800 799 812
2577 4 803 800 801 813
2578 4 803 800 801 814
2579 4 803 800 801 815
2580 4 803 800 802 816
2581 4 803 800 802 817
2582 4 803 800 802 818
2583 3 804 798 797 810
2584 5 804 798 799 811
2585 5 804 798 799 812
2586 9 805 795 794 808
2587 5 805 795 794 808
2588 3 805 795 796 809
2589 10 806 793 794 808
2590 8 806 793 794 824
2591 10 807 793 794 808
2592 8 807 793 794 824
2593 8 808 794 824 825
2594 10 808 794 824 837
2595 10 808 794 824 838
2596 3 809 796 797 810
2597 3 822 804 805 823
2598 8 824 825 855 868
2599 8 824 825 855 869
2600 3 825 826 827 840
2601 3 825 826 836 854
2602 8 825 855 856 870
2603 4 826 825 824 837
2604 4 826 825 824 838
2605 4 826 825 855 868
2606 4 826 825 855 869
2607 3 826 827 828 841
2608 3 826 836 835 853
2609 9 827 826 825 839
2610 5 827 826 825 839
2611 3 827 826 836 854
2612 5 828 829 830 842
2613 5 828 829 830 843
2614 3 828 829 835 853
2615 3 829 828 827 840
2616 3 829 835 836 854
2617 3 830 829 828 841
2618 3 830 829 835 853
2619 4 830 831 832 844
2620 4 830 831 832 845
2621 4 830 831 832 846
2622 4 830 831 833 847
2623 4 830 831 833 848
2624 4 830 831 833 849
2625 4 830 831 834 850
2626 4 830 831 834 851
2627 4 830 831 834 852
2628 4 832 831 830 842
2629 4 832 831 830 843
2630 4 832 831 833 847
2631 4 832 831 833 848
2632 4 832 831 833 849
2633 4 832 831 834 850
2634 4 832 831 834 851
2635 4 832 831 834 852
2636 4 833 831 830 842
2637 4 833 831 830 843
2638 4 833 831 832 844
2639 4 833 831 832 845
2640 4 833 831 832 846
2641 4 833 831 834 850
2642 4 833 831 834 851
2643 4 833 831 834 852
2644 4 834 831 830 842
2645 4 834 831 830 843
2646 4 834 831 832 844
2647 4 834 831 832 845
2648 4 834 831 832 846
2649 4 834 831 833 847
2650 4 834 831 833 848
2651 4 834 831 833 849
2652 3 835 829 828 841
2653 5 835 829 830 842
2654 5 835 829 830 843
2655 9 836 826 825 839
2656 5 836 826 825 839
2657 3 836 826 827 840
2658 10 837 824 825 839
2659 8 837 824 825 855
2660 10 838 824 825 839
2661 8 838 824 825 855
2662 8 839 825 855 856
2663 10 839 825 855 868
2664 10 839 825 855 869
2665 3 840 827 828 841
2666 3 853 835 836 854
2667 8 855 856 886 899
2668 8 855 856 886 900
2669 3 856 857 858 871
2670 3 856 857 867 885
2671 8 856 886 887 901
2672 4 857 856 855 868
2673 4 857 856 855 869
2674 4 857 856 886 899
2675 4 857 856 886 900
2676 3 857 858 859 872
2677 3 857 867 866 884
2678 9 858 857 856 870
2679 5 858 857 856 870
2680 3 858 857 867 885
2681 5 859 860 861 873
2682 5 859 860 861 874
2683 3 859 860 866 884
2684 3 860 859 858 871
2685 3 860 866 867 885
2686 3 861 860 859 872
2687 3 861 860 866 884
2688 4 861 862 863 875
2689 4 861 862 863 876
2690 4 861 862 863 877
2691 4 861 862 864 878
2692 4 861 862 864 879
2693 4 861 862 864 880
2694 4 861 862 865 881
2695 4 861 862 865 882
2696 4 861 862 865 883
2697 4 863 862 861 873
2698 4 863 862 861 874
2699 4 863 862 864 878
2700 4 863 862 864 879
2701 4 863 862 864 880
2702 4 863 862 865 881
2703 4 863 862 865 882
2704 4 863 862 865 883
2705 4 864 862 861 873
2706 4 864 862 861 874
2707 4 864 862 863 875
2708 4 864 862 863 876
2709 4 864 862 863 877
2710 4 864 862 865 881
2711 4 864 862 865 882
2712 4 864 862 865 883
2713 4 865 862 861 873
2714 4 865 862 861 874
2715 4 865 862 863 875
2716 4 865 862 863 876
2717 4 865 862 863 877
2718 4 865 862 864 878
2719 4 865 862 864 879
2720 4 865 862 864 880
2721 3 866 860 859 872
2722 5 866 860 861 873
2723 5 866 860 861 874
2724 9 867 857 856 870
2725 5 867 857 856 870
2726 3 867 857 858 871
2727 10 868 855 856 870
2728 8 868 855 856 886
2729 10 869 855 856 870
2730 8 869 855 856 886
2731 8 870 856 886 887
2732 10 870 856 886 899
2733 10 870 856 886 900
2734 3 871 858 859 872
2735 3 884 866 867 885
2736 8 886 887 917 930
2737 8 886 887 917 931
2738 3 887 888 889 902
2739 3 887 888 898 916
2740 8 887 917 918 933
2741 4 888 887 886 899
2742 4 888 887 886 900
2743 4 888 887 917 930
2744 4 888 887 917 931
2745 3 888 889 890 903
2746 3 888 898 897 915
2747 9 889 888 887 901
2748 5 889 888 887 901
2749 3 889 888 898 916
2750 5 890 891 892 904
2751 5 890 891 892 905
2752 3 890 891 897 915
2753 3 891 890 889 902
2754 3 891 897 898 916
2755 3 892 891 890 903
2756 3 892 891 897 915
2757 4 892 893 894 906
2758 4 892 893 894 907
2759 4 892 893 894 908
2760 4 892 893 895 909
2761 4 892 893 895 910
2762 4 892 893 895 911
2763 4 892 893 896 912
2764 4 892 893 896 913
2765 4 892 893 896 914
2766 4 894 893 892 904
2767 4 894 893 892 905
2768 4 894 893 895 909
2769 4 894 893 895 910
2770 4 894 893 895 911
2771 4 894 893 896 912
2772 4 894 893 896 913
2773 4 894 893 896 914
2774 4 895 893 892 904
2775 4 895 893 892 905
2776 4 895 893 894 906
2777 4 895 893 894 907
2778 4 895 893 894 908
2779 4 895 893 896 912
2780 4 895 893 896 913
2781 4 895 893 896 914
2782 4 896 893 892 904
2783 4 896 893 892 905
2784 4 896 893 894 906
2785 4 896 893 894 907
2786 4 896 893 894 908
2787 4 896 893 895 909
2788 4 896 893 895 910
2789 4 896 893 895 911
2790 3 897 891 890 903
2791 5 897 891 892 904
2792 5 897 891 892 905
2793 9 898 888 887 901
2794 5 898 888 887 901
2795 3 898 888 889 902
2796 10 899 886 887 901
2797 8 899 886 887 917
2798 10 900 886 887 901
2799 8 900 886 887 917
2800 8 901 887 917 918
2801 10 901 887 917 930
2802 10 901 887 917 931
2803 3 902 889 890 903
2804 3 915 897 898 916
2805 8 917 918 932 952
2806 8 917 918 932 953
2807 8 917 918 932 954
2808 3 918 919 920 934
2809 3 918 919 929 948
2810 4 919 918 917 930
2811 4 919 918 917 931
2812 4 919 918 932 952
2813 4 919 918 932 953
2814 4 919 918 932 954
2815 3 919 920 921 935
2816 3 919 929 928 947
2817 9 920 919 918 933
2818 5 920 919 918 933
2819 3 920 919 929 948
2820 5 921 922 923 936
2821 5 921 922 923 937
2822 3 921 922 928 947
2823 3 922 921 920 934
2824 3 922 928 929 948
2825 3 923 922 921 935
2826 3 923 922 928 947
2827 4 923 924 925 938
2828 4 923 924 925 939
2829 4 923 924 925 940
2830 4 923 924 926 941
2831 4 923 924 926 942
2832 4 923 924 926 943
2833 4 923 924 927 944
2834 4 923 924 927 945
2835 4 923 924 927 946
2836 4 925 924 923 936
2837 4 925 924 923 937
2838 4 925 924 926 941
2839 4 925 924 926 942
2840 4 925 924 926 943
2841 4 925 924 927 944
2842 4 925 924 927 945
2843 4 925 924 927 946
2844 4 926 924 923 936
2845 4 926 924 923 937
2846 4 926 924 925 938
2847 4 926 924 925 939
2848 4 926 924 925 940
2849 4 926 924 927 944
2850 4 926 924 927 945
2851 4 926 924 927 946
2852 4 927 924 923 936
2853 4 927 924 923 937
2854 4 927 924 925 938
2855 4 927 924 925 939
2856 4 927 924 925 940
2857 4 927 924 926 941
2858 4 927 924 926 942
2859 4 927 924 926 943
2860 3 928 922 921 935
2861 5 928 922 923 936
2862 5 928 922 923 937
2863 9 929 919 918 933
2864 5 929 919 918 933
2865 3 929 919 920 934
2866 8 930 917 918 932
2867 10 930 917 918 933
2868 8 931 917 918 932
2869 10 931 917 918 933
2870 10 933 918 932 952
2871 10 933 918 932 953
2872 10 933 918 932 954
2873 3 934 920 921 935
2874 3 947 928 929 948
2875 1 955 956 957 958
2876 1 955 956 957 967
2877 2 955 956 987 988
2878 3 956 957 958 959
2879 3 956 957 967 966
2880 4 956 987 988 989
2881 2 956 987 988 1018
2882 4 968 955 956 957
2883 4 957 956 987 988
2884 3 957 958 959 960
2885 3 957 967 966 960
2886 1 958 957 956 987
2887 3 958 957 967 966
2888 3 958 959 960 961
2889 3 958 959 960 966
2890 3 959 958 957 967
2891 5 959 960 961 962
2892 3 959 960 966 967
2893 6 960 961 962 963
2894 7 960 961 962 963
2895 6 960 961 962 964
2896 7 960 961 962 964
2897 6 960 961 962 965
2898 7 960 961 962 965
2899 3 961 960 966 967
2900 5 962 961 960 966
2901 1 967 957 956 987
2902 2 968 955 956 987
2903 1 987 988 989 990
2904 1 987 988 989 999
2905 2 987 988 1018 1019
2906 3 988 989 990 991
2907 3 988 989 999 998
2908 4 988 1018 1019 1020
2909 2 988 1018 1019 1049
2910 4 989 988 1018 1019
2911 3 989 990 991 992
2912 3 989 999 998 992
2913 1 990 989 988 1018
2914 3 990 989 999 998
2915 3 990 991 992 993
2916 3 990 991 992 998
2917 3 991 990 989 999
2918 5 991 992 993 994
2919 3 991 992 998 999
2920 6 992 993 994 995
2921 7 992 993 994 995
2922 6 992 993 994 996
2923 7 992 993 994 996
2924 6 992 993 994 997
2925 7 992 993 994 997
2926 3 993 992 998 999
2927 5 994 993 992 998
2928 1 999 989 988 1018
2929 1 1018 1019 1020 1021
2930 1 1018 1019 1020 1030
2931 2 1018 1019 1049 1050
2932 3 1019 1020 1021 1022
2933 3 1019 1020 1030 1029
2934 4 1019 1049 1050 1051
2935 2 1019 1049 1050 1080
2936 4 1020 1019 1049 1050
2937 3 1020 1021 1022 1023
2938 3 1020 1030 1029 1023
2939 1 1021 1020 1019 1049
2940 3 1021 1020 1030 1029
2941 3 1021 1022 1023 1024
2942 3 1021 1022 1023 1029
2943 3 1022 1021 1020 1030
2944 5 1022 1023 1024 1025
2945 3 1022 1023 1029 1030
2946 6 1023 1024 1025 1026
2947 7 1023 1024 1025 1026
2948 6 1023 1024 1025 1027
2949 7 1023 1024 1025 1027
2950 6 1023 1024 1025 1028
2951 7 1023 1024 1025 1028
2952 3 1024 1023 1029 1030
2953 5 1025 1024 1023 1029
2954 1 1030 1020 1019 1049
2955 1 1049 1050 1051 1052
2956 1 1049 1050 1051 1061
2957 2 1049 1050 1080 1081
2958 3 1050 1051 1052 1053
2959 3 1050 1051 1061 1060
2960 4 1050 1080 1081 1082
2961 2 1050 1080 1081 1111
2962 4 1051 1050 1080 1081
2963 3 1051 1052 1053 1054
2964 3 1051 1061 1060 1054
2965 1 1052 1051 1050 1080
2966 3 1052 1051 1061 1060
2967 3 1052 1053 1054 1055
2968 3 1052 1053 1054 1060
2969 3 1053 1052 1051 1061
2970 5 1053 1054 1055 1056
2971 3 1053 1054 1060 1061
2972 6 1054 1055 1056 1057
2973 7 1054 1055 1056 1057
2974 6 1054 1055 1056 1058
2975 7 1054 1055 1056 1058
2976 6 1054 1055 1056 1059
2977 7 1054 1055 1056 1059
2978 3 1055 1054 1060 1061
2979 5 1056 1055 1054 1060
2980 1 1061 1051 1050 1080
2981 1 1080 1081 1082 1083
2982 1 1080 1081 1082 1092
2983 2 1080 1081 1111 1112
2984 3 1081 1082 1083 1084
2985 3 1081 1082 1092 1091
2986 4 1081 1111 1112 1113
2987 2 1081 1111 1112 1142
2988 4 1082 1081 1111 1112
2989 3 1082 1083 1084 1085
2990 3 1082 1092 1091 1085
2991 1 1083 1082 1081 1111
2992 3 1083 1082 1092 1091
2993 3 1083 1084 1085 1086
2994 3 1083 1084 1085 1091
2995 3 1084 1083 1082 1092
2996 5 1084 1085 1086 1087
2997 3 1084 1085 1091 1092
2998 6 1085 1086 1087 1088
2999 7 1085 1086 1087 1088
3000 6 1085 1086 1087 1089
3001 7 1085 1086 1087 1089
3002 6 1085 1086 1087 1090
3003 7 1085 1086 1087 1090
3004 3 1086 1085 1091 1092
3005 5 1087 1086 1085 1091
3006 1 1092 1082 1081 1111
3007 1 1111 1112 1113 1114
3008 1 1111 1112 1113 1123
3009 2 1111 1112 1142 1143
3010 3 1112 1113 1114 1115
3011 3 1112 1113 1123 1122
3012 4 1112 1142 1143 1144
3013 2 1112 1142 1143 1173
3014 4 1113 1112 1142 1143
3015 3 1113 1114 1115 1116
3016 3 1113 1123 1122 1116
3017 1 1114 1113 1112 1142
3018 3 1114 1113 1123 1122
3019 3 1114 1115 1116 1117
3020 3 1114 1115 1116 1122
3021 3 1115 1114 1113 1123
3022 5 1115 1116 1117 1118
3023 3 1115 1116 1122 1123
3024 6 1116 1117 1118 1119
3025 7 1116 1117 1118 1119
3026 6 1116 1117 1118 1120
3027 7 1116 1117 1118 1120
3028 6 1116 1117 1118 1121
3029 7 1116 1117 1118 1121
3030 3 1117 1116 1122 1123
3031 5 1118 1117 1116 1122
3032 1 1123 1113 1112 1142
3033 1 1142 1143 1144 1145
3034 1 1142 1143 1144 1154
3035 2 1142 1143 1173 1174
3036 3 1143 1144 1145 1146
3037 3 1143 1144 1154 1153
3038 4 1143 1173 1174 1175
3039 2 1143 1173 1174 1204
3040 4 1144 1143 1173 1174
3041 3 1144 1145 1146 1147
3042 3 1144 1154 1153 1147
3043 1 1145 1144 1143 1173
3044 3 1145 1144 1154 1153
3045 3 1145 1146 1147 1148
3046 3 1145 1146 1147 1153
3047 3 1146 1145 1144 1154
3048 5 1146 1147 1148 1149
3049 3 1146 1147 1153 1154
3050 6 1147 1148 1149 1150
3051 7 1147 1148 1149 1150
3052 6 1147 1148 1149 1151
3053 7 1147 1148 1149 1151
3054 6 1147 1148 1149 1152
3055 7 1147 1148 1149 1152
3056 3 1148 1147 1153 1154
3057 5 1149 1148 1147 1153
3058 1 1154 1144 1143 1173
3059 1 1173 1174 1175 1176
3060 1 1173 1174 1175 1185
3061 2 1173 1174 1204 1205
3062 3 1174 1175 1176 1177
3063 3 1174 1175 1185 1184
3064 4 1174 1204 1205 1206
3065 2 1174 1204 1205 1235
3066 4 1175 1174 1204 1205
3067 3 1175 1176 1177 1178
3068 3 1175 1185 1184 1178
3069 1 1176 1175 1174 1204
3070 3 1176 1175 1185 1184
3071 3 1176 1177 1178 1179
3072 3 1176 1177 1178 1184
3073 3 1177 1176 1175 1185
3074 5 1177 1178 1179 1180
3075 3 1177 1178 1184 1185
3076 6 1178 1179 1180 1181
3077 7 1178 1179 1180 1181
3078 6 1178 1179 1180 1182
3079 7 1178 1179 1180 1182
3080 6 1178 1179 1180 1183
3081 7 1178 1179 1180 1183
3082 3 1179 1178 1184 1185
3083 5 1180 1179 1178 1184
3084 1 1185 1175 1174 1204
3085 1 1204 1205 1206 1207
3086 1 1204 1205 1206 1216
3087 2 1204 1205 1235 1236
3088 3 1205 1206 1207 1208
3089 3 1205 1206 1216 1215
3090 4 1205 1235 1236 1237
3091 2 1205 1235 1236 1250
3092 4 1206 1205 1235 1236
3093 3 1206 1207 1208 1209
3094 3 1206 1216 1215 1209
3095 1 1207 1206 1205 1235
3096 3 1207 1206 1216 1215
3097 3 1207 1208 1209 1210
3098 3 1207 1208 1209 1215
3099 3 1208 1207 1206 1216
3100 5 1208 1209 1210 1211
3101 3 1208 1209 1215 1216
3102 6 1209 1210 1211 1212
3103 7 1209 1210 1211 1212
3104 6 1209 1210 1211 1213
3105 7 1209 1210 1211 1213
3106 6 1209 1210 1211 1214
3107 7 1209 1210 1211 1214
3108 3 1210 1209 1215 1216
3109 5 1211 1210 1209 1215
3110 1 1216 1206 1205 1235
3111 1 1235 1236 1237 1238
3112 1 1235 1236 1237 1247
3113 3 1236 1237 1238 1239
3114 3 1236 1237 1247 1246
3115 3 1237 1238 1239 1240
3116 3 1237 1247 1246 1240
3117 1 1238 1237 1236 1250
3118 3 1238 1237 1247 1246
3119 3 1238 1239 1240 1241
3120 3 1238 1239 1240 1246
3121 3 1239 1238 1237 1247
3122 5 1239 1240 1241 1242
3123 3 1239 1240 1246 1247
3124 6 1240 1241 1242 1243
3125 7 1240 1241 1242 1243
3126 6 1240 1241 1242 1244
3127 7 1240 1241 1242 1244
3128 6 1240 1241 1242 1245
3129 7 1240 1241 1242 1245
3130 3 1241 1240 1246 1247
3131 5 1242 1241 1240 1246
3132 1 1247 1237 1236 1250
3133 8 955 956 987 1000
3134 8 955 956 987 1001
3135 8 956 955 968 1267
3136 8 956 955 968 1268
3137 8 956 955 968 1269
3138 3 956 957 958 972
3139 3 956 957 967 986
3140 8 956 987 988 1002
3141 4 969 955 956 957
3142 4 970 955 956 957
3143 4 957 956 987 1000
3144 4 957 956 987 1001
3145 3 957 958 959 973
3146 3 957 967 966 985
3147 9 958 957 956 971
3148 3 958 957 967 986
3149 5 959 960 961 974
3150 5 959 960 961 975
3151 3 959 960 966 985
3152 3 960 959 958 972
3153 3 960 966 967 986
3154 3 961 960 959 973
3155 3 961 960 966 985
3156 4 961 962 963 976
3157 4 961 962 963 977
3158 4 961 962 963 978
3159 4 961 962 964 979
3160 4 961 962 964 980
3161 4 961 962 964 981
3162 4 961 962 965 982
3163 4 961 962 965 983
3164 4 961 962 965 984
3165 4 963 962 961 974
3166 4 963 962 961 975
3167 4 963 962 964 979
3168 4 963 962 964 980
3169 4 963 962 964 981
3170 4 963 962 965 982
3171 4 963 962 965 983
3172 4 963 962 965 984
3173 4 964 962 961 974
3174 4 964 962 961 975
3175 4 964 962 963 976
3176 4 964 962 963 977
3177 4 964 962 963 978
3178 4 964 962 965 982
3179 4 964 962 965 983
3180 4 964 962 965 984
3181 4 965 962 961 974
3182 4 965 962 961 975
3183 4 965 962 963 976
3184 4 965 962 963 977
3185 4 965 962 963 978
3186 4 965 962 964 979
3187 4 965 962 964 980
3188 4 965 962 964 981
3189 3 966 960 959 973
3190 5 966 960 961 974
3191 5 966 960 961 975
3192 9 967 957 956 971
3193 5 967 957 956 971
3194 3 967 957 958 972
3195 8 968 955 956 971
3196 10 969 955 956 971
3197 8 969 955 956 987
3198 10 969 955 968 1267
3199 10 969 955 968 1268
3200 10 969 955 968 1269
3201 10 970 955 956 971
3202 8 970 955 956 987
3203 10 970 955 968 1267
3204 10 970 955 968 1268
3205 10 970 955 968 1269
3206 8 971 956 987 988
3207 10 971 956 987 1000
3208 10 971 956 987 1001
3209 3 972 958 959 973
3210 3 985 966 967 986
3211 8 987 988 1018 1031
3212 8 987 988 1018 1032
3213 3 988 989 990 1003
3214 3 988 989 999 1017
3215 8 988 1018 1019 1033
3216 4 989 988 987 1000
3217 4 989 988 987 1001
3218 4 989 988 1018 1031
3219 4 989 988 1018 1032
3220 3 989 990 991 1004
3221 3 989 999 998 1016
3222 9 990 989 988 1002
3223 5 990 989 988 1002
3224 3 990 989 999 1017
3225 5 991 992 993 1005
3226 5 991 992 993 1006
3227 3 991 992 998 1016
3228 3 992 991 990 1003
3229 3 992 998 999 1017
3230 3 993 992 991 1004
3231 3 993 992 998 1016
3232 4 993 994 995 1007
3233 4 993 994 995 1008
3234 4 993 994 995 1009
3235 4 993 994 996 1010
3236 4 993 994 996 1011
3237 4 993 994 996 1012
3238 4 993 994 997 1013
3239 4 993 994 997 1014
3240 4 993 994 997 1015
3241 4 995 994 993 1005
3242 4 995 994 993 1006
3243 4 995 994 996 1010
3244 4 995 994 996 1011
3245 4 995 994 996 1012
3246 4 995 994 997 1013
3247 4 995 994 997 1014
3248 4 995 994 997 1015
3249 4 996 994 993 1005
3250 4 996 994 993 1006
3251 4 996 994 995 1007
3252 4 996 994 995 1008
3253 4 996 994 995 1009
3254 4 996 994 997 1013
3255 4 996 994 997 1014
3256 4 996 994 997 1015
3257 4 997 994 993 1005
3258 4 997 994 993 1006
3259 4 997 994 995 1007
3260 4 997 994 995 1008
3261 4 997 994 995 1009
3262 4 997 994 996 1010
3263 4 997 994 996 1011
3264 4 997 994 996 1012
3265 3 998 992 991 1004
3266 5 998 992 993 1005
3267 5 998 992 993 1006
3268 9 999 989 988 1002
3269 5 999 989 988 1002
3270 3 999 989 990 1003
3271 10 1000 987 988 1002
3272 8 1000 987 988 1018
3273 10 1001 987 988 1002
3274 8 1001 987 988 1018
3275 8 1002 988 1018 1019
3276 10 1002 988 1018 1031
3277 10 1002 988 1018 1032
3278 3 1003 990 991 1004
3279 3 1016 998 999 1017
3280 8 1018 1019 1049 1062
3281 8 1018 1019 1049 1063
3282 3 1019 1020 1021 1034
3283 3 1019 1020 1030 1048
3284 8 1019 1049 1050 1064
3285 4 1020 1019 1018 1031
3286 4 1020 1019 1018 1032
3287 4 1020 1019 1049 1062
3288 4 1020 1019 1049 1063
3289 3 1020 1021 1022 1035
3290 3 1020 1030 1029 1047
3291 9 1021 1020 1019 1033
3292 5 1021 1020 1019 1033
3293 3 1021 1020 1030 1048
3294 5 1022 1023 1024 1036
3295 5 1022 1023 1024 1037
3296 3 1022 1023 1029 1047
3297 3 1023 1022 1021 1034
3298 3 1023 1029 1030 1048
3299 3 1024 1023 1022 1035
3300 3 1024 1023 1029 1047
3301 4 1024 1025 1026 1038
3302 4 1024 1025 1026 1039
3303 4 1024 1025 1026 1040
3304 4 1024 1025 1027 1041
3305 4 1024 1025 1027 1042
3306 4 1024 1025 1027 1043
3307 4 1024 1025 1028 1044
3308 4 1024 1025 1028 1045
3309 4 1024 1025 1028 1046
3310 4 1026 1025 1024 1036
3311 4 1026 1025 1024 1037
3312 4 1026 1025 1027 1041
3313 4 1026 1025 1027 1042
3314 4 1026 1025 1027 1043
3315 4 1026 1025 1028 1044
3316 4 1026 1025 1028 1045
3317 4 1026 1025 1028 1046
3318 4 1027 1025 1024 1036
3319 4 1027 1025 1024 1037
3320 4 1027 1025 1026 1038
3321 4 1027 1025 1026 1039
3322 4 1027 1025 1026 1040
3323 4 1027 1025 1028 1044
3324 4 1027 1025 1028 1045
3325 4 1027 1025 1028 1046
3326 4 1028 1025 1024 1036
3327 4 1028 1025 1024 1037
3328 4 1028 1025 1026 1038
3329 4 1028 1025 1026 1039
3330 4 1028 1025 1026 1040
3331 4 1028 1025 1027 1041
3332 4 1028 1025 1027 1042
3333 4 1028 1025 1027 1043
3334 3 1029 1023 1022 1035
3335 5 1029 1023 1024 1036
3336 5 1029 1023 1024 1037
3337 9 1030 1020 1019 1033
3338 5 1030 1020 1019 1033
3339 3 1030 1020 1021 1034
3340 10 1031 1018 1019 1033
3341 8 1031 1018 1019 1049
3342 10 1032 1018 1019 1033
3343 8 1032 1018 1019 1049
3344 8 1033 1019 1049 1050
3345 10 1033 1019 1049 1062
3346 10 1033 1019 1049 1063
3347 3 1034 1021 1022 1035
3348 3 1047 1029 1030 1048
3349 8 1049 1050 1080 1093
3350 8 1049 1050 1080 1094
3351 3 1050 1051 1052 1065
3352 3 1050 1051 1061 1079
3353 8 1050 1080 1081 1095
3354 4 1051 1050 1049 1062
3355 4 1051 1050 1049 1063
3356 4 1051 1050 1080 1093
3357 4 1051 1050 1080 1094
3358 3 1051 1052 1053 1066
3359 3 1051 1061 1060 1078
3360 9 1052 1051 1050 1064
3361 5 1052 1051 1050 1064
3362 3 1052 1051 1061 1079
3363 5 1053 1054 1055 1067
3364 5 1053 1054 1055 1068
3365 3 1053 1054 1060 1078
3366 3 1054 1053 1052 1065
3367 3 1054 1060 1061 1079
3368 3 1055 1054 1053 1066
3369 3 1055 1054 1060 1078
3370 4 1055 1056 1057 1069
3371 4 1055 1056 1057 1070
3372 4 1055 1056 1057 1071
3373 4 1055 1056 1058 1072
3374 4 1055 1056 1058 1073
3375 4 1055 1056 1058 1074
3376 4 1055 1056 1059 1075
3377 4 1055 1056 1059 1076
3378 4 1055 1056 1059 1077
3379 4 1057 1056 1055 1067
3380 4 1057 1056 1055 1068
3381 4 1057 1056 1058 1072
3382 4 1057 1056 1058 1073
3383 4 1057 1056 1058 1074
3384 4 1057 1056 1059 1075
3385 4 1057 1056 1059 1076
3386 4 1057 1056 1059 1077
3387 4 1058 1056 1055 1067
3388 4 1058 1056 1055 1068
3389 4 1058 1056 1057 1069
3390 4 1058 1056 1057 1070
3391 4 1058 1056 1057 1071
3392 4 1058 1056 1059 1075
3393 4 1058 1056 1059 1076
3394 4 1058 1056 1059 1077
3395 4 1059 1056 1055 1067
3396 4 1059 1056 1055 1068
3397 4 1059 1056 1057 1069
3398 4 1059 1056 1057 1070
3399 4 1059 1056 1057 1071
3400 4 1059 1056 1058 1072
3401 4 1059 1056 1058 1073
3402 4 1059 1056 1058 1074
3403 3 1060 1054 1053 1066
3404 5 1060 1054 1055 1067
3405 5 1060 1054 1055 1068
3406 9 1061 1051 1050 1064
3407 5 1061 1051 1050 1064
3408 3 1061 1051 1052 1065
3409 10 1062 1049 1050 1064
3410 8 1062 1049 1050 1080
3411 10 1063 1049 1050 1064
3412 8 1063 1049 1050 1080
3413 8 1064 1050 1080 1081
3414 10 1064 1050 1080 1093
3415 10 1064 1050 1080 1094
3416 3 1065 1052 1053 1066
3417 3 1078 1060 1061 1079
3418 8 1080 1081 1111 1124
3419 8 1080 1081 1111 1125
3420 3 1081 1082 1083 1096
3421 3 1081 1082 1092 1110
3422 8 1081 1111 1112 1126
3423 4 1082 1081 1080 1093
3424 4 1082 1081 1080 1094
3425 4 1082 1081 1111 1124
3426 4 1082 1081 1111 1125
3427 3 1082 1083 1084 1097
3428 3 1082 1092 1091 1109
3429 9 1083 1082 1081 1095
3430 5 1083 1082 1081 1095
3431 3 1083 1082 1092 1110
3432 5 1084 1085 1086 1098
3433 5 1084 1085 1086 1099
3434 3 1084 1085 1091 1109
3435 3 1085 1084 1083 1096
3436 3 1085 1091 1092 1110
3437 3 1086 1085 1084 1097
3438 3 1086 1085 1091 1109
3439 4 1086 1087 1088 1100
3440 4 1086 1087 1088 1101
3441 4 1086 1087 1088 1102
3442 4 1086 1087 1089 1103
3443 4 1086 1087 1089 1104
3444 4 1086 1087 1089 1105
3445 4 1086 1087 1090 1106
3446 4 1086 1087 1090 1107
3447 4 1086 1087 1090 1108
3448 4 1088 1087 1086 1098
3449 4 1088 1087 1086 1099
3450 4 1088 1087 1089 1103
3451 4 1088 1087 1089 1104
3452 4 1088 1087 1089 1105
3453 4 1088 1087 1090 1106
3454 4 1088 1087 1090 1107
3455 4 1088 1087 1090 1108
3456 4 1089 1087 1086 1098
3457 4 1089 1087 1086 1099
3458 4 1089 1087 1088 1100
3459 4 1089 1087 1088 1101
3460 4 1089 1087 1088 1102
3461 4 1089 1087 1090 1106
3462 4 1089 1087 1090 1107
3463 4 1089 1087 1090 1108
3464 4 1090 1087 1086 1098
3465 4 1090 1087 1086 1099
3466 4 1090 1087 1088 1100
3467 4 1090 1087 1088 1101
3468 4 1090 1087 1088 1102
3469 4 1090 1087 1089 1103
3470 4 1090 1087 1089 1104
3471 4 1090 1087 1089 1105
3472 3 1091 1085 1084 1097
3473 5 1091 1085 1086 1098
3474 5 1091 1085 1086 1099
3475 9 1092 1082 1081 1095
3476 5 1092 1082 1081 1095
3477 3 1092 1082 1083 1096
3478 10 1093 1080 1081 1095
3479 8 1093 1080 1081 1111
3480 10 1094 1080 1081 1095
3481 8 1094 1080 1081 1111
3482 8 1095 1081 1111 1112
3483 10 1095 1081 1111 1124
3484 10 1095 1081 1111 1125
3485 3 1096 1083 1084 1097
3486 3 1109 1091 1092 1110
3487 8 1111 1112 1142 1155
3488 8 1111 1112 1142 1156
3489 3 1112 1113 1114 1127
3490 3 1112 1113 1123 1141
3491 8 1112 1142 1143 1157
3492 4 1113 1112 1111 1124
3493 4 1113 1112 1111 1125
3494 4 1113 1112 1142 1155
3495 4 1113 1112 1142 1156
3496 3 1113 1114 1115 1128
3497 3 1113 1123 1122 1140
3498 9 1114 1113 1112 1126
3499 5 1114 1113 1112 1126
3500 3 1114 1113 1123 1141
3501 5 1115 1116 1117 1129
3502 5 1115 1116 1117 1130
3503 3 1115 1116 1122 1140
3504 3 1116 1115 1114 1127
3505 3 1116 1122 1123 1141
3506 3 1117 1116 1115 1128
3507 3 1117 1116 1122 1140
3508 4 1117 1118 1119 1131
3509 4 1117 1118 1119 1132
3510 4 1117 1118 1119 1133
3511 4 1117 1118 1120 1134
3512 4 1117 1118 1120 1135
3513 4 1117 1118 1120 1136
3514 4 1117 1118 1121 1137
3515 4 1117 1118 1121 1138
3516 4 1117 1118 1121 1139
3517 4 1119 1118 1117 1129
3518 4 1119 1118 1117 1130
3519 4 1119 1118 1120 1134
3520 4 1119 1118 1120 1135
3521 4 1119 1118 1120 1136
3522 4 1119 1118 1121 1137
3523 4 1119 1118 1121 1138
3524 4 1119 1118 1121 1139
3525 4 1120 1118 1117 1129
3526 4 1120 1118 1117 1130
3527 4 1120 1118 1119 1131
3528 4 1120 1118 1119 1132
3529 4 1120 1118 1119 1133
3530 4 1120 1118 1121 1137
3531 4 1120 1118 1121 1138
3532 4 1120 1118 1121 1139
3533 4 1121 1118 1117 1129
3534 4 1121 1118 1117 1130
3535 4 1121 1118 1119 1131
3536 4 1121 1118 1119 1132
3537 4 1121 1118 1119 1133
3538 4 1121 1118 1120 1134
3539 4 1121 1118 1120 1135
3540 4 1121 1118 1120 1136
3541 3 1122 1116 1115 1128
3542 5 1122 1116 1117 1129
3543 5 1122 1116 1117 1130
3544 9 1123 1113 1112 1126
3545 5 1123 1113 1112 1126
3546 3 1123 1113 1114 1127
3547 10 1124 1111 1112 1126
3548 8 1124 1111 1112 1142
3549 10 1125 1111 1112 1126
3550 8 1125 1111 1112 1142
3551 8 1126 1112 1142 1143
3552 10 1126 1112 1142 1155
3553 10 1126 1112 1142 1156
3554 3 1127 1114 1115 1128
3555 3 1140 1122 1123 1141
3556 8 1142 1143 1173 1186
3557 8 1142 1143 1173 1187
3558 3 1143 1144 1145 1158
3559 3 1143 1144 1154 1172
3560 8 1143 1173 1174 1188
3561 4 1144 1143 1142 1155
3562 4 1144 1143 1142 1156
3563 4 1144 1143 1173 1186
3564 4 1144 1143 1173 1187
3565 3 1144 1145 1146 1159
3566 3 1144 1154 1153 1171
3567 9 1145 1144 1143 1157
3568 5 1145 1144 1143 1157
3569 3 1145 1144 1154 1172
3570 5 1146 1147 1148 1160
3571 5 1146 1147 1148 1161
3572 3 1146 1147 1153 1171
3573 3 1147 1146 1145 1158
3574 3 1147 1153 1154 1172
3575 3 1148 1147 1146 1159
3576 3 1148 1147 1153 1171
3577 4 1148 1149 1150 1162
3578 4 1148 1149 1150 1163
3579 4 1148 1149 1150 1164
3580 4 1148 1149 1151 1165
3581 4 1148 1149 1151 1166
3582 4 1148 1149 1151 1167
3583 4 1148 1149 1152 1168
3584 4 1148 1149 1152 1169
3585 4 1148 1149 1152 1170
3586 4 1150 1149 1148 1160
3587 4 1150 1149 1148 1161
3588 4 1150 1149 1151 1165
3589 4 1150 1149 1151 1166
3590 4 1150 1149 1151 1167
3591 4 1150 1149 1152 1168
3592 4 1150 1149 1152 1169
3593 4 1150 1149 1152 1170
3594 4 1151 1149 1148 1160
3595 4 1151 1149 1148 1161
3596 4 1151 1149 1150 1162
3597 4 1151 1149 1150 1163
3598 4 1151 1149 1150 1164
3599 4 1151 1149 1152 1168
3600 4 1151 1149 1152 1169
3601 4 1151 1149 1152 1170
3602 4 1152 1149 1148 1160
3603 4 1152 1149 1148 1161
3604 4 1152 1149 1150 1162
3605 4 1152 1149 1150 1163
3606 4 1152 1149 1150 1164
3607 4 1152 1149 1151 1165
3608 4 1152 1149 1151 1166
3609 4 1152 1149 1151 1167
3610 3 1153 1147 1146 1159
3611 5 1153 1147 1148 1160
3612 5 1153 1147 1148 1161
3613 9 1154 1144 1143 1157
3614 5 1154 1144 1143 1157
3615 3 1154 1144 1145 1158
3616 10 1155 1142 1143 1157
3617 8 1155 1142 1143 1173
3618 10 1156 1142 1143 1157
3619 8 1156 1142 1143 1173
3620 8 1157 1143 1173 1174
3621 10 1157 1143 1173 1186
3622 10 1157 1143 1173 1187
3623 3 1158 1145 1146 1159
3624 3 1171 1153 1154 1172
3625 8 1173 1174 1204 1217
3626 8 1173 1174 1204 1218
3627 3 1174 1175 1176 1189
3628 3 1174 1175 1185 1203
3629 8 1174 1204 1205 1219
3630 4 1175 1174 1173 1186
3631 4 1175 1174 1173 1187
3632 4 1175 1174 1204 1217
3633 4 1175 1174 1204 1218
3634 3 1175 1176 1177 1190
3635 3 1175 1185 1184 1202
3636 9 1176 1175 1174 1188
3637 5 1176 1175 1174 1188
3638 3 1176 1175 1185 1203
3639 5 1177 1178 1179 1191
3640 5 1177 1178 1179 1192
3641 3 1177 1178 1184 1202
3642 3 1178 1177 1176 1189
3643 3 1178 1184 1185 1203
3644 3 1179 1178 1177 1190
3645 3 1179 1178 1184 1202
3646 4 1179 1180 1181 1193
3647 4 1179 1180 1181 1194
3648 4 1179 1180 1181 1195
3649 4 1179 1180 1182 1196
3650 4 1179 1180 1182 1197
3651 4 1179 1180 1182 1198
3652 4 1179 1180 1183 1199
3653 4 1179 1180 1183 1200
3654 4 1179 1180 1183 1201
3655 4 1181 1180 1179 1191
3656 4 1181 1180 1179 1192
3657 4 1181 1180 1182 1196
3658 4 1181 1180 1182 1197
3659 4 1181 1180 1182 1198
3660 4 1181 1180 1183 1199
3661 4 1181 1180 1183 1200
3662 4 1181 1180 1183 1201
3663 4 1182 1180 1179 1191
3664 4 1182 1180 1179 1192
3665 4 1182 1180 1181 1193
3666 4 1182 1180 1181 1194
3667 4 1182 1180 1181 1195
3668 4 1182 1180 1183 1199
3669 4 1182 1180 1183 1200
3670 4 1182 1180 1183 1201
3671 4 1183 1180 1179 1191
3672 4 1183 1180 1179 1192
3673 4 1183 1180 1181 1193
3674 4 1183 1180 1181 1194
3675 4 1183 1180 1181 1195
3676 4 1183 1180 1182 1196
3677 4 1183 1180 1182 1197
3678 4 1183 1180 1182 1198
3679 3 1184 1178 1177 1190
3680 5 1184 1178 1179 1191
3681 5 1184 1178 1179 1192
3682 9 1185 1175 1174 1188
3683 5 1185 1175 1174 1188
3684 3 1185 1175 1176 1189
3685 10 1186 1173 1174 1188
3686 8 1186 1173 1174 1204
3687 10 1187 1173 1174 1188
3688 8 1187 1173 1174 1204
3689 8 1188 1174 1204 1205
3690 10 1188 1174 1204 1217
3691 10 1188 1174 1204 1218
3692 3 1189 1176 1177 1190
3693 3 1202 1184 1185 1203
3694 8 1204 1205 1235 1248
3695 8 1204 1205 1235 1249
3696 3 1205 1206 1207 1220
3697 3 1205 1206 1216 1234
3698 8 1205 1235 1236 1251
3699 4 1206 1205 1204 1217
3700 4 1206 1205 1204 1218
3701 4 1206 1205 1235 1248
3702 4 1206 1205 1235 1249
3703 3 1206 1207 1208 1221
3704 3 1206 1216 1215 1233
3705 9 1207 1206 1205 1219
3706 5 1207 1206 1205 1219
3707 3 1207 1206 1216 1234
3708 5 1208 1209 1210 1222
3709 5 1208 1209 1210 1223
3710 3 1208 1209 1215 1233
3711 3 1209 1208 1207 1220
3712 3 1209 1215 1216 1234
3713 3 1210 1209 1208 1221
3714 3 1210 1209 1215 1233
3715 4 1210 1211 1212 1224
3716 4 1210 1211 1212 1225
3717 4 1210 1211 1212 1226
3718 4 1210 1211 1213 1227
3719 4 1210 1211 1213 1228
3720 4 1210 1211 1213 1229
3721 4 1210 1211 1214 1230
3722 4 1210 1211 1214 1231
3723 4 1210 1211 1214 1232
3724 4 1212 1211 1210 1222
3725 4 1212 1211 1210 1223
3726 4 1212 1211 1213 1227
3727 4 1212 1211 1213 1228
3728 4 1212 1211 1213 1229
3729 4 1212 1211 1214 1230
3730 4 1212 1211 1214 1231
3731 4 1212 1211 1214 1232
3732 4 1213 1211 1210 1222
3733 4 1213 1211 1210 1223
3734 4 1213 1211 1212 1224
3735 4 1213 1211 1212 1225
3736 4 1213 1211 1212 1226
3737 4 1213 1211 1214 1230
3738 4 1213 1211 1214 1231
3739 4 1213 1211 1214 1232
3740 4 1214 1211 1210 1222
3741 4 1214 1211 1210 1223
3742 4 1214 1211 1212 1224
3743 4 1214 1211 1212 1225
3744 4 1214 1211 1212 1226
3745 4 1214 1211 1213 1227
3746 4 1214 1211 1213 1228
3747 4 1214 1211 1213 1229
3748 3 1215 1209 1208 1221
3749 5 1215 1209 1210 1222
3750 5 1215 1209 1210 1223
3751 9 1216 1206 1205 1219
3752 5 1216 1206 1205 1219
3753 3 1216 1206 1207 1220
3754 10 1217 1204 1205 1219
3755 8 1217 1204 1205 1235
3756 10 1218 1204 1205 1219
3757 8 1218 1204 1205 1235
3758 8 1219 1205 1235 1236
3759 10 1219 1205 1235 1248
3760 10 1219 1205 1235 1249
3761 3 1220 1207 1208 1221
3762 3 1233 1215 1216 1234
3763 8 1235 1236 1250 1270
3764 8 1235 1236 1250 1271
3765 8 1235 1236 1250 1272
3766 3 1236 1237 1238 1252
3767 3 1236 1237 1247 1266
3768 4 1237 1236 1235 1248
3769 4 1237 1236 1235 1249
3770 4 1237 1236 1250 1270
3771 4 1237 1236 1250 1271
3772 4 1237 1236 1250 1272
3773 3 1237 1238 1239 1253
3774 3 1237 1247 1246 1265
3775 9 1238 1237 1236 1251
3776 5 1238 1237 1236 1251
3777 3 1238 1237 1247 1266
3778 5 1239 1240 1241 1254
3779 5 1239 1240 1241 1255
3780 3 1239 1240 1246 1265
3781 3 1240 1239 1238 1252
3782 3 1240 1246 1247 1266
3783 3 1241 1240 1239 1253
3784 3 1241 1240 1246 1265
3785 4 1241 1242 1243 1256
3786 4 1241 1242 1243 1257
3787 4 1241 1242 1243 1258
3788 4 1241 1242 1244 1259
3789 4 1241 1242 1244 1260
3790 4 1241 1242 1244 1261
3791 4 1241 1242 1245 1262
3792 4 1241 1242 1245 1263
3793 4 1241 1242 1245 1264
3794 4 1243 1242 1241 1254
3795 4 1243 1242 1241 1255
3796 4 1243 1242 1244 1259
3797 4 1243 1242 1244 1260
3798 4 1243 1242 1244 1261
3799 4 1243 1242 1245 1262
3800 4 1243 1242 1245 1263
3801 4 1243 1242 1245 1264
3802 4 1244 1242 1241 1254
3803 4 1244 1242 1241 1255
3804 4 1244 1242 1243 1256
3805 4 1244 1242 1243 1257
3806 4 1244 1242 1243 1258
3807 4 1244 1242 1245 1262
3808 4 1244 1242 1245 1263
3809 4 1244 1242 1245 1264
3810 4 1245 1242 1241 1254
3811 4 1245 1242 1241 1255
3812 4 1245 1242 1243 1256
3813 4 1245 1242 1243 1257
3814 4 1245 1242 1243 1258
3815 4 1245 1242 1244 1259
3816 4 1245 1242 1244 1260
3817 4 1245 1242 1244 1261
3818 3 1246 1240 1239 1253
3819 5 1246 1240 1241 1254
3820 5 1246 1240 1241 1255
3821 9 1247 1237 1236 1251
3822 5 1247 1237 1236 1251
3823 3 1247 1237 1238 1252
3824 8 1248 1235 1236 1250
3825 10 1248 1235 1236 1251
3826 8 1249 1235 1236 1250
3827 10 1249 1235 1236 1251
3828 10 1251 1236 1250 1270
3829 10 1251 1236 1250 1271
3830 10 1251 1236 1250 1272
3831 3 1252 1238 1239 1253
3832 3 1265 1246 1247 1266
3833 1 1273 1274 1275 1276
3834 1 1273 1274 1275 1285
3835 2 1273 1274 1305 1306
3836 3 1274 1275 1276 1277
3837 3 1274 1275 1285 1284
3838 4 1274 1305 1306 1307
3839 2 1274 1305 1306 1336
3840 4 1286 1273 1274 1275
3841 4 1275 1274 1305 1306
3842 3 1275 1276 1277 1278
3843 3 1275 1285 1284 1278
3844 1 1276 1275 1274 1305
3845 3 1276 1275 1285 1284
3846 3 1276 1277 1278 1279
3847 3 1276 1277 1278 1284
3848 3 1277 1276 1275 1285
3849 5 1277 1278 1279 1280
3850 3 1277 1278 1284 1285
3851 6 1278 1279 1280 1281
3852 7 1278 1279 1280 1281
3853 6 1278 1279 1280 1282
3854 7 1278 1279 1280 1282
3855 6 1278 1279 1280 1283
3856 7 1278 1279 1280 1283
3857 3 1279 1278 1284 1285
3858 5 1280 1279 1278 1284
3859 1 1285 1275 1274 1305
3860 2 1286 1273 1274 1305
3861 1 1305 1306 1307 1308
3862 1 1305 1306 1307 1317
3863 2 1305 1306 1336 1337
3864 3 1306 1307 1308 1309
3865 3 1306 1307 1317 1316
3866 4 1306 1336 1337 1338
3867 2 1306 1336 1337 1367
3868 4 1307 1306 1336 1337
3869 3 1307 1308 1309 1310
3870 3 1307 1317 1316 1310
3871 1 1308 1307 1306 1336
3872 3 1308 1307 1317 1316
3873 3 1308 1309 1310 1311
3874 3 1308 1309 1310 1316
3875 3 1309 1308 1307 1317
3876 5 1309 1310 1311 1312
3877 3 1309 1310 1316 1317
3878 6 1310 1311 1312 1313
3879 7 1310 1311 1312 1313
3880 6 1310 1311 1312 1314
3881 7 1310 1311 1312 1314
3882 6 1310 1311 1312 1315
3883 7 1310 1311 1312 1315
3884 3 1311 1310 1316 1317
3885 5 1312 1311 1310 1316
3886 1 1317 1307 1306 1336
3887 1 1336 1337 1338 1339
3888 1 1336 1337 1338 1348
3889 2 1336 1337 1367 1368
3890 3 1337 1338 1339 1340
3891 3 1337 1338 1348 1347
3892 4 1337 1367 1368 1369
3893 2 1337 1367 1368 1398
3894 4 1338 1337 1367 1368
3895 3 1338 1339 1340 1341
3896 3 1338 1348 1347 1341
3897 1 1339 1338 1337 1367
3898 3 1339 1338 1348 1347
3899 3 1339 1340 1341 1342
3900 3 1339 1340 1341 1347
3901 3 1340 1339 1338 1348
3902 5 1340 1341 1342 1343
3903 3 1340 1341 1347 1348
3904 6 1341 1342 1343 1344
3905 7 1341 1342 1343 1344
3906 6 1341 1342 1343 1345
3907 7 1341 1342 1343 1345
3908 6 1341 1342 1343 1346
3909 7 1341 1342 1343 1346
3910 3 1342 1341 1347 1348
3911 5 1343 1342 1341 1347
3912 1 1348 1338 1337 1367
3913 1 1367 1368 1369 1370
3914 1 1367 1368 1369 1379
3915 2 1367 1368 1398 1399
3916 3 1368 1369 1370 1371
3917 3 1368 1369 1379 1378
3918 4 1368 1398 1399 1400
3919 2 1368 1398 1399 1429
3920 4 1369 1368 1398 1399
3921 3 1369 1370 1371 1372
3922 3 1369 1379 1378 1372
3923 1 1370 1369 1368 1398
3924 3 1370 1369 1379 1378
3925 3 1370 1371 1372 1373
3926 3 1370 1371 1372 1378
3927 3 1371 1370 1369 1379
3928 5 1371 1372 1373 1374
3929 3 1371 1372 1378 1379
3930 6 1372 1373 1374 1375
3931 7 1372 1373 1374 1375
3932 6 1372 1373 1374 1376
3933 7 1372 1373 1374 1376
3934 6 1372 1373 1374 1377
3935 7 1372 1373 1374 1377
3936 3 1373 1372 1378 1379
3937 5 1374 1373 1372 1378
3938 1 1379 1369 1368 1398
3939 1 1398 1399 1400 1401
3940 1 1398 1399 1400 1410
3941 2 1398 1399 1429 1430
3942 3 1399 1400 1401 1402
3943 3 1399 1400 1410 1409
3944 4 1399 1429 1430 1431
3945 2 1399 1429 1430 1460
3946 4 1400 1399 1429 1430
3947 3 1400 1401 1402 1403
3948 3 1400 1410 1409 1403
3949 1 1401 1400 1399 1429
3950 3 1401 1400 1410 1409
3951 3 1401 1402 1403 1404
3952 3 1401 1402 1403 1409
3953 3 1402 1401 1400 1410
3954 5 1402 1403 1404 1405
3955 3 1402 1403 1409 1410
3956 6 1403 1404 1405 1406
3957 7 1403 1404 1405 1406
3958 6 1403 1404 1405 1407
3959 7 1403 1404 1405 1407
3960 6 1403 1404 1405 1408
3961 7 1403 1404 1405 1408
3962 3 1404 1403 1409 1410
3963 5 1405 1404 1403 1409
3964 1 1410 1400 1399 1429
3965 1 1429 1430 1431 1432
3966 1 1429 1430 1431 1441
3967 2 1429 1430 1460 1461
3968 3 1430 1431 1432 1433
3969 3 1430 1431 1441 1440
3970 4 1430 1460 1461 1462
3971 2 1430 1460 1461 1491
3972 4 1431 1430 1460 1461
3973 3 1431 1432 1433 1434
3974 3 1431 1441 1440 1434
3975 1 1432 1431 1430 1460
3976 3 1432 1431 1441 1440
3977 3 1432 1433 1434 1435
3978 3 1432 1433 1434 1440
3979 3 1433 1432 1431 1441
3980 5 1433 1434 1435 1436
3981 3 1433 1434 1440 1441
3982 6 1434 1435 1436 1437
3983 7 1434 1435 1436 1437
3984 6 1434 1435 1436 1438
3985 7 1434 1435 1436 1438
3986 6 1434 1435 1436 1439
3987 7 1434 1435 1436 1439
3988 3 1435 1434 1440 1441
3989 5 1436 1435 1434 1440
3990 1 1441 1431 1430 1460
3991 1 1460 1461 1462 1463
3992 1 1460 1461 1462 1472
3993 2 1460 1461 1491 1492
3994 3 1461 1462 1463 1464
3995 3 1461 1462 1472 1471
3996 4 1461 1491 1492 1493
3997 2 1461 1491 1492 1522
3998 4 1462 1461 1491 1492
3999 3 1462 1463 1464 1465
4000 3 1462 1472 1471 1465
4001 1 1463 1462 1461 1491
4002 3 1463 1462 1472 1471
4003 3 1463 1464 1465 1466
4004 3 1463 1464 1465 1471
4005 3 1464 1463 1462 1472
4006 5 1464 1465 1466 1467
4007 3 1464 1465 1471 1472
4008 6 1465 1466 1467 1468
4009 7 1465 1466 1467 1468
4010 6 1465 1466 1467 1469
4011 7 1465 1466 1467 1469
4012 6 1465 1466 1467 1470
4013 7 1465 1466 1467 1470
4014 3 1466 1465 1471 1472
4015 5 1467 1466 1465 1471
4016 1 1472 1462 1461 1491
4017 1 1491 1492 1493 1494
4018 1 1491 1492 1493 1503
4019 2 1491 1492 1522 1523
4020 3 1492 1493 1494 1495
4021 3 1492 1493 1503 1502
4022 4 1492 1522 1523 1524
4023 2 1492 1522 1523 1553
4024 4 1493 1492 1522 1523
4025 3 1493 1494 1495 1496
4026 3 1493 1503 1502 1496
4027 1 1494 1493 1492 1522
4028 3 1494 1493 1503 1502
4029 3 1494 1495 1496 1497
4030 3 1494 1495 1496 1502
4031 3 1495 1494 1493 1503
4032 5 1495 1496 1497 1498
4033 3 1495 1496 1502 1503
4034 6 1496 1497 1498 1499
4035 7 1496 1497 1498 1499
4036 6 1496 1497 1498 1500
4037 7 1496 1497 1498 1500
4038 6 1496 1497 1498 1501
4039 7 1496 1497 1498 1501
4040 3 1497 1496 1502 1503
4041 5 1498 1497 1496 1502
4042 1 1503 1493 1492 1522
4043 1 1522 1523 1524 1525
4044 1 1522 1523 1524 1534
4045 2 1522 1523 1553 1554
4046 3 1523 1524 1525 1526
4047 3 1523 1524 1534 1533
4048 4 1523 1553 1554 1555
4049 2 1523 1553 1554 1568
4050 4 1524 1523 1553 1554
4051 3 1524 1525 1526 1527
4052 3 1524 1534 1533 1527
4053 1 1525 1524 1523 1553
4054 3 1525 1524 1534 1533
4055 3 1525 1526 1527 1528
4056 3 1525 1526 1527 1533
4057 3 1526 1525 1524 1534
4058 5 1526 1527 1528 1529
4059 3 1526 1527 1533 1534
4060 6 1527 1528 1529 1530
4061 7 1527 1528 1529 1530
4062 6 1527 1528 1529 1531
4063 7 1527 1528 1529 1531
4064 6 1527 1528 1529 1532
4065 7 1527 1528 1529 1532
4066 3 1528 1527 1533 1534
4067 5 1529 1528 1527 1533
4068 1 1534 1524 1523 1553
4069 1 1553 1554 1555 1556
4070 1 1553 1554 1555 1565
4071 3 1554 1555 1556 1557
4072 3 1554 1555 1565 1564
4073 3 1555 1556 1557 1558
4074 3 1555 1565 1564 1558
4075 1 1556 1555 1554 1568
4076 3 1556 1555 1565 1564
4077 3 1556 1557 1558 1559
4078 3 1556 1557 1558 1564
4079 3 1557 1556 1555 1565
4080 5 1557 1558 1559 1560
4081 3 1557 1558 1564 1565
4082 6 1558 1559 1560 1561
4083 7 1558 1559 1560 1561
4084 6 1558 1559 1560 1562
4085 7 1558 1559 1560 1562
4086 6 1558 1559 1560 1563
4087 7 1558 1559 1560 1563
4088 3 1559 1558 1564 1565
4089 5 1560 1559 1558 1564
4090 1 1565 1555 1554 1568
4091 8 1273 1274 1305 1318
4092 8 1273 1274 1305 1319
4093 8 1274 1273 1286 1585
4094 8 1274 1273 1286 1586
4095 8 1274 1273 1286 1587
4096 3 1274 1275 1276 1290
4097 3 1274 1275 1285 1304
4098 8 1274 1305 1306 1320
4099 4 1287 1273 1274 1275
4100 4 1288 1273 1274 1275
4101 4 1275 1274 1305 1318
4102 4 1275 1274 1305 1319
4103 3 1275 1276 1277 1291
4104 3 1275 1285 1284 1303
4105 9 1276 1275 1274 1289
4106 3 1276 1275 1285 1304
4107 5 1277 1278 1279 1292
4108 5 1277 1278 1279 1293
4109 3 1277 1278 1284 1303
4110 3 1278 1277 1276 1290
4111 3 1278 1284 1285 1304
4112 3 1279 1278 1277 1291
4113 3 1279 1278 1284 1303
4114 4 1279 1280 1281 1294
4115 4 1279 1280 1281 1295
4116 4 1279 1280 1281 1296
4117 4 1279 1280 1282 1297
4118 4 1279 1280 1282 1298
4119 4 1279 1280 1282 1299
4120 4 1279 1280 1283 1300
4121 4 1279 1280 1283 1301
4122 4 1279 1280 1283 1302
4123 4 1281 1280 1279 1292
4124 4 1281 1280 1279 1293
4125 4 1281 1280 1282 1297
4126 4 1281 1280 1282 1298
4127 4 1281 1280 1282 1299
4128 4 1281 1280 1283 1300
4129 4 1281 1280 1283 1301
4130 4 1281 1280 1283 1302
4131 4 1282 1280 1279 1292
4132 4 1282 1280 1279 1293
4133 4 1282 1280 1281 1294
4134 4 1282 1280 1281 1295
4135 4 1282 1280 1281 1296
4136 4 1282 1280 1283 1300
4137 4 1282 1280 1283 1301
4138 4 1282 1280 1283 1302
4139 4 1283 1280 1279 1292
4140 4 1283 1280 1279 1293
4141 4 1283 1280 1281 1294
4142 4 1283 1280 1281 1295
4143 4 1283 1280 1281 1296
4144 4 1283 1280 1282 1297
4145 4 1283 1280 1282 1298
4146 4 1283 1280 1282 1299
4147 3 1284 1278 1277 1291
4148 5 1284 1278 1279 1292
4149 5 1284 1278 1279 1293
4150 9 1285 1275 1274 1289
4151 5 1285 1275 1274 1289
4152 3 1285 1275 1276 1290
4153 8 1286 1273 1274 1289
4154 10 1287 1273 1274 1289
4155 8 1287 1273 1274 1305
4156 10 1287 1273 1286 1585
4157 10 1287 1273 1286 1586
4158 10 1287 1273 1286 1587
4159 10 1288 1273 1274 1289
4160 8 1288 1273 1274 1305
4161 10 1288 1273 1286 1585
4162 10 1288 1273 1286 1586
4163 10 1288 1273 1286 1587
4164 8 1289 1274 1305 1306
4165 10 1289 1274 1305 1318
4166 10 1289 1274 1305 1319
4167 3 1290 1276 1277 1291
4168 3 1303 1284 1285 1304
4169 8 1305 1306 1336 1349
4170 8 1305 1306 1336 1350
4171 3 1306 1307 1308 1321
4172 3 1306 1307 1317 1335
4173 8 1306 1336 1337 1351
4174 4 1307 1306 1305 1318
4175 4 1307 1306 1305 1319
4176 4 1307 1306 1336 1349
4177 4 1307 1306 1336 1350
4178 3 1307 1308 1309 1322
4179 3 1307 1317 1316 1334
4180 9 1308 1307 1306 1320
4181 5 1308 1307 1306 1320
4182 3 1308 1307 1317 1335
4183 5 1309 1310 1311 1323
4184 5 1309 1310 1311 1324
4185 3 1309 1310 1316 1334
4186 3 1310 1309 1308 1321
4187 3 1310 1316 1317 1335
4188 3 1311 1310 1309 1322
4189 3 1311 1310 1316 1334
4190 4 1311 1312 1313 1325
4191 4 1311 1312 1313 1326
4192 4 1311 1312 1313 1327
4193 4 1311 1312 1314 1328
4194 4 1311 1312 1314 1329
4195 4 1311 1312 1314 1330
4196 4 1311 1312 1315 1331
4197 4 1311 1312 1315 1332
4198 4 1311 1312 1315 1333
4199 4 1313 1312 1311 1323
4200 4 1313 1312 1311 1324
4201 4 1313 1312 1314 1328
4202 4 1313 1312 1314 1329
4203 4 1313 1312 1314 1330
4204 4 1313 1312 1315 1331
4205 4 1313 1312 1315 1332
4206 4 1313 1312 1315 1333
4207 4 1314 1312 1311 1323
4208 4 1314 1312 1311 1324
4209 4 1314 1312 1313 1325
4210 4 1314 1312 1313 1326
4211 4 1314 1312 1313 1327
4212 4 1314 1312 1315 1331
4213 4 1314 1312 1315 1332
4214 4 1314 1312 1315 1333
4215 4 1315 1312 1311 1323
4216 4 1315 1312 1311 1324
4217 4 1315 1312 1313 1325
4218 4 1315 1312 1313 1326
4219 4 1315 1312 1313 1327
4220 4 1315 1312 1314 1328
4221 4 1315 1312 1314 1329
4222 4 1315 1312 1314 1330
4223 3 1316 1310 1309 1322
4224 5 1316 1310 1311 1323
4225 5 1316 1310 1311 1324
4226 9 1317 1307 1306 1320
4227 5 1317 1307 1306 1320
4228 3 1317 1307 1308 1321
4229 10 1318 1305 1306 1320
4230 8 1318 1305 1306 1336
4231 10 1319 1305 1306 1320
4232 8 1319 1305 1306 1336
4233 8 1320 1306 1336 1337
4234 10 1320 1306 1336 1349
4235 10 1320 1306 1336 1350
4236 3 1321 1308 1309 1322
4237 3 1334 1316 1317 1335
4238 8 1336 1337 1367 1380
4239 8 1336 1337 1367 1381
4240 3 1337 1338 1339 1352
4241 3 1337 1338 1348 1366
4242 8 1337 1367 1368 1382
4243 4 1338 1337 1336 1349
4244 4 1338 1337 1336 1350
4245 4 1338 1337 1367 1380
4246 4 1338 1337 1367 1381
4247 3 1338 1339 1340 1353
4248 3 1338 1348 1347 1365
4249 9 1339 1338 1337 1351
4250 5 1339 1338 1337 1351
4251 3 1339 1338 1348 1366
4252 5 1340 1341 1342 1354
4253 5 1340 1341 1342 1355
4254 3 1340 1341 1347 1365
4255 3 1341 1340 1339 1352
4256 3 1341 1347 1348 1366
4257 3 1342 1341 1340 1353
4258 3 1342 1341 1347 1365
4259 4 1342 1343 1344 1356
4260 4 1342 1343 1344 1357
4261 4 1342 1343 1344 1358
4262 4 1342 1343 1345 1359
4263 4 1342 1343 1345 1360
4264 4 1342 1343 1345 1361
4265 4 1342 1343 1346 1362
4266 4 1342 1343 1346 1363
4267 4 1342 1343 1346 1364
4268 4 1344 1343 1342 1354
4269 4 1344 1343 1342 1355
4270 4 1344 1343 1345 1359
4271 4 1344 1343 1345 1360
4272 4 1344 1343 1345 1361
4273 4 1344 1343 1346 1362
4274 4 1344 1343 1346 1363
4275 4 1344 1343 1346 1364
4276 4 1345 1343 1342 1354
4277 4 1345 1343 1342 1355
4278 4 1345 1343 1344 1356
4279 4 1345 1343 1344 1357
4280 4 1345 1343 1344 1358
4281 4 1345 1343 1346 1362
4282 4 1345 1343 1346 1363
4283 4 1345 1343 1346 1364
4284 4 1346 1343 1342 1354
4285 4 1346 1343 1342 1355
4286 4 1346 1343 1344 1356
4287 4 1346 1343 1344 1357
4288 4 1346 1343 1344 1358
4289 4 1346 1343 1345 1359
4290 4 1346 1343 1345 1360
4291 4 1346 1343 1345 1361
4292 3 1347 1341 1340 1353
4293 5 1347 1341 1342 1354
4294 5 1347 1341 1342 1355
4295 9 1348 1338 1337 1351
4296 5 1348 1338 1337 1351
4297 3 1348 1338 1339 1352
4298 10 1349 1336 1337 1351
4299 8 1349 1336 1337 1367
4300 10 1350 1336 1337 1351
4301 8 1350 1336 1337 1367
4302 8 1351 1337 1367 1368
4303 10 1351 1337 1367 1380
4304 10 1351 1337 1367 1381
4305 3 1352 1339 1340 1353
4306 3 1365 1347 1348 1366
4307 8 1367 1368 1398 1411
4308 8 1367 1368 1398 1412
4309 3 1368 1369 1370 1383
4310 3 1368 1369 1379 1397
4311 8 1368 1398 1399 1413
4312 4 1369 1368 1367 1380
4313 4 1369 1368 1367 1381
4314 4 1369 1368 1398 1411
4315 4 1369 1368 1398 1412
4316 3 1369 1370 1371 1384
4317 3 1369 1379 1378 1396
4318 9 1370 1369 1368 1382
4319 5 1370 1369 1368 1382
4320 3 1370 1369 1379 1397
4321 5 1371 1372 1373 1385
4322 5 1371 1372 1373 1386
4323 3 1371 1372 1378 1396
4324 3 1372 1371 1370 1383
4325 3 1372 1378 1379 1397
4326 3 1373 1372 1371 1384
4327 3 1373 1372 1378 1396
4328 4 1373 1374 1375 1387
4329 4 1373 1374 1375 1388
4330 4 1373 1374 1375 1389
4331 4 1373 1374 1376 1390
4332 4 1373 1374 1376 1391
4333 4 1373 1374 1376 1392
4334 4 1373 1374 1377 1393
4335 4 1373 1374 1377 1394
4336 4 1373 1374 1377 1395
4337 4 1375 1374 1373 1385
4338 4 1375 1374 1373 1386
4339 4 1375 1374 1376 1390
4340 4 1375 1374 1376 1391
4341 4 1375 1374 1376 1392
4342 4 1375 1374 1377 1393
4343 4 1375 1374 1377 1394
4344 4 1375 1374 1377 1395
4345 4 1376 1374 1373 1385
4346 4 1376 1374 1373 1386
4347 4 1376 1374 1375 1387
4348 4 1376 1374 1375 1388
4349 4 1376 1374 1375 1389
4350 4 1376 1374 1377 1393
4351 4 1376 1374 1377 1394
4352 4 1376 1374 1377 1395
4353 4 1377 1374 1373 1385
4354 4 1377 1374 1373 1386
4355 4 1377 1374 1375 1387
4356 4 1377 1374 1375 1388
4357 4 1377 1374 1375 1389
4358 4 1377 1374 1376 1390
4359 4 1377 1374 1376 1391
4360 4 1377 1374 1376 1392
4361 3 1378 1372 1371 1384
4362 5 1378 1372 1373 1385
4363 5 1378 1372 1373 1386
4364 9 1379 1369 1368 1382
4365 5 1379 1369 1368 1382
4366 3 1379 1369 1370 1383
4367 10 1380 1367 1368 1382
4368 8 1380 1367 1368 1398
4369 10 1381 1367 1368 1382
4370 8 1381 1367 1368 1398
4371 8 1382 1368 1398 1399
4372 10 1382 1368 1398 1411
4373 10 1382 1368 1398 1412
4374 3 1383 1370 1371 1384
4375 3 1396 1378 1379 1397
4376 8 1398 1399 1429 1442
4377 8 1398 1399 1429 1443
4378 3 1399 1400 1401 1414
4379 3 1399 1400 1410 1428
4380 8 1399 1429 1430 1444
4381 4 1400 1399 1398 1411
4382 4 1400 1399 1398 1412
4383 4 1400 1399 1429 1442
4384 4 1400 1399 1429 1443
4385 3 1400 1401 1402 1415
4386 3 1400 1410 1409 1427
4387 9 1401 1400 1399 1413
4388 5 1401 1400 1399 1413
4389 3 1401 1400 1410 1428
4390 5 1402 1403 1404 1416
4391 5 1402 1403 1404 1417
4392 3 1402 1403 1409 1427
4393 3 1403 1402 1401 1414
4394 3 1403 1409 1410 1428
4395 3 1404 1403 1402 1415
4396 3 1404 1403 1409 1427
4397 4 1404 1405 1406 1418
4398 4 1404 1405 1406 1419
4399 4 1404 1405 1406 1420
4400 4 1404 1405 1407 1421
4401 4 1404 1405 1407 1422
4402 4 1404 1405 1407 1423
4403 4 1404 1405 1408 1424
4404 4 1404 1405 1408 1425
4405 4 1404 1405 1408 1426
4406 4 1406 1405 1404 1416
4407 4 1406 1405 1404 1417
4408 4 1406 1405 1407 1421
4409 4 1406 1405 1407 1422
4410 4 1406 1405 1407 1423
4411 4 1406 1405 1408 1424
4412 4 1406 1405 1408 1425
4413 4 1406 1405 1408 1426
4414 4 1407 1405 1404 1416
4415 4 1407 1405 1404 1417
4416 4 1407 1405 1406 1418
4417 4 1407 1405 1406 1419
4418 4 1407 1405 1406 1420
4419 4 1407 1405 1408 1424
4420 4 1407 1405 1408 1425
4421 4 1407 1405 1408 1426
4422 4 1408 1405 1404 1416
4423 4 1408 1405 1404 1417
4424 4 1408 1405 1406 1418
4425 4 1408 1405 1406 1419
4426 4 1408 1405 1406 1420
4427 4 1408 1405 1407 1421
4428 4 1408 1405 1407 1422
4429 4 1408 1405 1407 1423
4430 3 1409 1403 1402 1415
4431 5 1409 1403 1404 1416
4432 5 1409 1403 1404 1417
4433 9 1410 1400 1399 1413
4434 5 1410 1400 1399 1413
4435 3 1410 1400 1401 1414
4436 10 1411 1398 1399 1413
4437 8 1411 1398 1399 1429
4438 10 1412 1398 1399 1413
4439 8 1412 1398 1399 1429
4440 8 1413 1399 1429 1430
4441 10 1413 1399 1429 1442
4442 10 1413 1399 1429 1443
4443 3 1414 1401 1402 1415
4444 3 1427 1409 1410 1428
4445 8 1429 1430 1460 1473
4446 8 1429 1430 1460 1474
4447 3 1430 1431 1432 1445
4448 3 1430 1431 1441 1459
4449 8 1430 1460 1461 1475
4450 4 1431 1430 1429 1442
4451 4 1431 1430 1429 1443
4452 4 1431 1430 1460 1473
4453 4 1431 1430 1460 1474
4454 3 1431 1432 1433 1446
4455 3 1431 1441 1440 1458
4456 9 1432 1431 1430 1444
4457 5 1432 1431 1430 1444
4458 3 1432 1431 1441 1459
4459 5 1433 1434 1435 1447
4460 5 1433 1434 1435 1448
4461 3 1433 1434 1440 1458
4462 3 1434 1433 1432 1445
4463 3 1434 1440 1441 1459
4464 3 1435 1434 1433 1446
4465 3 1435 1434 1440 1458
4466 4 1435 1436 1437 1449
4467 4 1435 1436 1437 1450
4468 4 1435 1436 1437 1451
4469 4 1435 1436 1438 1452
4470 4 1435 1436 1438 1453
4471 4 1435 1436 1438 1454
4472 4 1435 1436 1439 1455
4473 4 1435 1436 1439 1456
4474 4 1435 1436 1439 1457
4475 4 1437 1436 1435 1447
4476 4 1437 1436 1435 1448
4477 4 1437 1436 1438 1452
4478 4 1437 1436 1438 1453
4479 4 1437 1436 1438 1454
4480 4 1437 1436 1439 1455
4481 4 1437 1436 1439 1456
4482 4 1437 1436 1439 1457
4483 4 1438 1436 1435 1447
4484 4 1438 1436 1435 1448
4485 4 1438 1436 1437 1449
4486 4 1438 1436 1437 1450
4487 4 1438 1436 1437 1451
4488 4 1438 1436 1439 1455
4489 4 1438 1436 1439 1456
4490 4 1438 1436 1439 1457
4491 4 1439 1436 1435 1447
4492 4 1439 1436 1435 1448
4493 4 1439 1436 1437 1449
4494 4 1439 1436 1437 1450
4495 4 1439 1436 1437 1451
4496 4 1439 1436 1438 1452
4497 4 1439 1436 1438 1453
4498 4 1439 1436 1438 1454
4499 3 1440 1434 1433 1446
4500 5 1440 1434 1435 1447
4501 5 1440 1434 1435 1448
4502 9 1441 1431 1430 1444
4503 5 1441 1431 1430 1444
4504 3 1441 1431 1432 1445
4505 10 1442 1429 1430 1444
4506 8 1442 1429 1430 1460
4507 10 1443 1429 1430 1444
4508 8 1443 1429 1430 1460
4509 8 1444 1430 1460 1461
4510 10 1444 1430 1460 1473
4511 10 1444 1430 1460 1474
4512 3 1445 1432 1433 1446
4513 3 1458 1440 1441 1459
4514 8 1460 1461 1491 1504
4515 8 1460 1461 1491 1505
4516 3 1461 1462 1463 1476
4517 3 1461 1462 1472 1490
4518 8 1461 1491 1492 1506
4519 4 1462 1461 1460 1473
4520 4 1462 1461 1460 1474
4521 4 1462 1461 1491 1504
4522 4 1462 1461 1491 1505
4523 3 1462 1463 1464 1477
4524 3 1462 1472 1471 1489
4525 9 1463 1462 1461 1475
4526 5 1463 1462 1461 1475
4527 3 1463 1462 1472 1490
4528 5 1464 1465 1466 1478
4529 5 1464 1465 1466 1479
4530 3 1464 1465 1471 1489
4531 3 1465 1464 1463 1476
4532 3 1465 1471 1472 1490
4533 3 1466 1465 1464 1477
4534 3 1466 1465 1471 1489
4535 4 1466 1467 1468 1480
4536 4 1466 1467 1468 1481
4537 4 1466 1467 1468 1482
4538 4 1466 1467 1469 1483
4539 4 1466 1467 1469 1484
4540 4 1466 1467 1469 1485
4541 4 1466 1467 1470 1486
4542 4 1466 1467 1470 1487
4543 4 1466 1467 1470 1488
4544 4 1468 1467 1466 1478
4545 4 1468 1467 1466 1479
4546 4 1468 1467 1469 1483
4547 4 1468 1467 1469 1484
4548 4 1468 1467 1469 1485
4549 4 1468 1467 1470 1486
4550 4 1468 1467 1470 1487
4551 4 1468 1467 1470 1488
4552 4 1469 1467 1466 1478
4553 4 1469 1467 1466 1479
4554 4 1469 1467 1468 1480
4555 4 1469 1467 1468 1481
4556 4 1469 1467 1468 1482
4557 4 1469 1467 1470 1486
4558 4 1469 1467 1470 1487
4559 4 1469 1467 1470 1488
4560 4 1470 1467 1466 1478
4561 4 1470 1467 1466 1479
4562 4 1470 1467 1468 1480
4563 4 1470 1467 1468 1481
4564 4 1470 1467 1468 1482
4565 4 1470 1467 1469 1483
4566 4 1470 1467 1469 1484
4567 4 1470 1467 1469 1485
4568 3 1471 1465 1464 1477
4569 5 1471 1465 1466 1478
4570 5 1471 1465 1466 1479
4571 9 1472 1462 1461 1475
4572 5 1472 1462 1461 1475
4573 3 1472 1462 1463 1476
4574 10 1473 1460 1461 1475
4575 8 1473 1460 1461 1491
4576 10 1474 1460 1461 1475
4577 8 1474 1460 1461 1491
4578 8 1475 1461 1491 1492
4579 10 1475 1461 1491 1504
4580 10 1475 1461 1491 1505
4581 3 1476 1463 1464 1477
4582 3 1489 1471 1472 1490
4583 8 1491 1492 1522 1535
4584 8 1491 1492 1522 1536
4585 3 1492 1493 1494 1507
4586 3 1492 1493 1503 1521
4587 8 1492 1522 1523 1537
4588 4 1493 1492 1491 1504
4589 4 1493 1492 1491 1505
4590 4 1493 1492 1522 1535
4591 4 1493 1492 1522 1536
4592 3 1493 1494 1495 1508
4593 3 1493 1503 1502 1520
4594 9 1494 1493 1492 1506
4595 5 1494 1493 1492 1506
4596 3 1494 1493 1503 1521
4597 5 1495 1496 1497 1509
4598 5 1495 1496 1497 1510
4599 3 1495 1496 1502 1520
4600 3 1496 1495 1494 1507
4601 3 1496 1502 1503 1521
4602 3 1497 1496 1495 1508
4603 3 1497 1496 1502 1520
4604 4 1497 1498 1499 1511
4605 4 1497 1498 1499 1512
4606 4 1497 1498 1499 1513
4607 4 1497 1498 1500 1514
4608 4 1497 1498 1500 1515
4609 4 1497 1498 1500 1516
4610 4 1497 1498 1501 1517
4611 4 1497 1498 1501 1518
4612 4 1497 1498 1501 1519
4613 4 1499 1498 1497 1509
4614 4 1499 1498 1497 1510
4615 4 1499 1498 1500 1514
4616 4 1499 1498 1500 1515
4617 4 1499 1498 1500 1516
4618 4 1499 1498 1501 1517
4619 4 1499 1498 1501 1518
4620 4 1499 1498 1501 1519
4621 4 1500 1498 1497 1509
4622 4 1500 1498 1497 1510
4623 4 1500 1498 1499 1511
4624 4 1500 1498 1499 1512
4625 4 1500 1498 1499 1513
4626 4 1500 1498 1501 1517
4627 4 1500 1498 1501 1518
4628 4 1500 1498 1501 1519
4629 4 1501 1498 1497 1509
4630 4 1501 1498 1497 1510
4631 4 1501 1498 1499 1511
4632 4 1501 1498 1499 1512
4633 4 1501 1498 1499 1513
4634 4 1501 1498 1500 1514
4635 4 1501 1498 1500 1515
4636 4 1501 1498 1500 1516
4637 3 1502 1496 1495 1508
4638 5 1502 1496 1497 1509
4639 5 1502 1496 1497 1510
4640 9 1503 1493 1492 1506
4641 5 1503 1493 1492 1506
4642 3 1503 1493 1494 1507
4643 10 1504 1491 1492 1506
4644 8 1504 1491 1492 1522
4645 10 1505 1491 1492 1506
4646 8 1505 1491 1492 1522
4647 8 1506 1492 1522 1523
4648 10 1506 1492 1522 1535
4649 10 1506 1492 1522 1536
4650 3 1507 1494 1495 1508
4651 3 1520 1502 1503 1521
4652 8 1522 1523 1553 1566
4653 8 1522 1523 1553 1567
4654 3 1523 1524 1525 1538
4655 3 1523 1524 1534 1552
4656 8 1523 1553 1554 1569
4657 4 1524 1523 1522 1535
4658 4 1524 1523 1522 1536
4659 4 1524 1523 1553 1566
4660 4 1524 1523 1553 1567
4661 3 1524 1525 1526 1539
4662 3 1524 1534 1533 1551
4663 9 1525 1524 1523 1537
4664 5 1525 1524 1523 1537
4665 3 1525 1524 1534 1552
4666 5 1526 1527 1528 1540
4667 5 1526 1527 1528 1541
4668 3 1526 1527 1533 1551
4669 3 1527 1526 1525 1538
4670 3 1527 1533 1534 1552
4671 3 1528 1527 1526 1539
4672 3 1528 1527 1533 1551
4673 4 1528 1529 1530 1542
4674 4 1528 1529 1530 1543
4675 4 1528 1529 1530 1544
4676 4 1528 1529 1531 1545
4677 4 1528 1529 1531 1546
4678 4 1528 1529 1531 1547
4679 4 1528 1529 1532 1548
4680 4 1528 1529 1532 1549
4681 4 1528 1529 1532 1550
4682 4 1530 1529 1528 1540
4683 4 1530 1529 1528 1541
4684 4 1530 1529 1531 1545
4685 4 1530 1529 1531 1546
4686 4 1530 1529 1531 1547
4687 4 1530 1529 1532 1548
4688 4 1530 1529 1532 1549
4689 4 1530 1529 1532 1550
4690 4 1531 1529 1528 1540
4691 4 1531 1529 1528 1541
4692 4 1531 1529 1530 1542
4693 4 1531 1529 1530 1543
4694 4 1531 1529 1530 1544
4695 4 1531 1529 1532 1548
4696 4 1531 1529 1532 1549
4697 4 1531 1529 1532 1550
4698 4 1532 1529 1528 1540
4699 4 1532 1529 1528 1541
4700 4 1532 1529 1530 1542
4701 4 1532 1529 1530 1543
4702 4 1532 1529 1530 1544
4703 4 1532 1529 1531 1545
4704 4 1532 1529 1531 1546
4705 4 1532 1529 1531 1547
4706 3 1533 1527 1526 1539
4707 5 1533 1527 1528 1540
4708 5 1533 1527 1528 1541
4709 9 1534 1524 1523 1537
4710 5 1534 1524 1523 1537
4711 3 1534 1524 1525 1538
4712 10 1535 1522 1523 1537
4713 8 1535 1522 1523 1553
4714 10 1536 1522 1523 1537
4715 8 1536 1522 1523 1553
4716 8 1537 1523 1553 1554
4717 10 1537 1523 1553 1566
4718 10 1537 1523 1553 1567
4719 3 1538 1525 1526 1539
4720 3 1551 1533 1534 1552
4721 8 1553 1554 1568 1588
4722 8 1553 1554 1568 1589
4723 8 1553 1554 1568 1590
4724 3 1554 1555 1556 1570
4725 3 1554 1555 1565 1584
4726 4 1555 1554 1553 1566
4727 4 1555 1554 1553 1567
4728 4 1555 1554 1568 1588
4729 4 1555 1554 1568 1589
4730 4 1555 1554 1568 1590
4731 3 1555 1556 1557 1571
4732 3 1555 1565 1564 1583
4733 9 1556 1555 1554 1569
4734 5 1556 1555 1554 1569
4735 3 1556 1555 1565 1584
4736 5 1557 1558 1559 1572
4737 5 1557 1558 1559 1573
4738 3 1557 1558 1564 1583
4739 3 1558 1557 1556 1570
4740 3 1558 1564 1565 1584
4741 3 1559 1558 1557 1571
4742 3 1559 1558 1564 1583
4743 4 1559 1560 1561 1574
4744 4 1559 1560 1561 1575
4745 4 1559 1560 1561 1576
4746 4 1559 1560 1562 1577
4747 4 1559 1560 1562 1578
4748 4 1559 1560 1562 1579
4749 4 1559 1560 1563 1580
4750 4 1559 1560 1563 1581
4751 4 1559 1560 1563 1582
4752 4 1561 1560 1559 1572
4753 4 1561 1560 1559 1573
4754 4 1561 1560 1562 1577
4755 4 1561 1560 1562 1578
4756 4 1561 1560 1562 1579
4757 4 1561 1560 1563 1580
4758 4 1561 1560 1563 1581
4759 4 1561 1560 1563 1582
4760 4 1562 1560 1559 1572
4761 4 1562 1560 1559 1573
4762 4 1562 1560 1561 1574
4763 4 1562 1560 1561 1575
4764 4 1562 1560 1561 1576
4765 4 1562 1560 1563 1580
4766 4 1562 1560 1563 1581
4767 4 1562 1560 1563 1582
4768 4 1563 1560 1559 1572
4769 4 1563 1560 1559 1573
4770 4 1563 1560 1561 1574
4771 4 1563 1560 1561 1575
4772 4 1563 1560 1561 1576
4773 4 1563 1560 1562 1577
4774 4 1563 1560 1562 1578
4775 4 1563 1560 1562 1579
4776 3 1564 1558 1557 1571
4777 5 1564 1558 1559 1572
4778 5 1564 1558 1559 1573
4779 9 1565 1555 1554 1569
4780 5 1565 1555 1554 1569
4781 3 1565 1555 1556 1570
4782 8 1566 1553 1554 1568
4783 10 1566 1553 1554 1569
4784 8 1567 1553 1554 1568
4785 10 1567 1553 1554 1569
4786 10 1569 1554 1568 1588
4787 10 1569 1554 1568 1589
4788 10 1569 1554 1568 1590
4789 3 1570 1556 1557 1571
4790 3 1583 1564 1565 1584

Impropers

1 1 4 13 3 2
2 1 7 5 6 12
3 1 34 36 35 45
4 1 39 37 38 44
5 1 65 67 66 76
6 1 70 68 69 75
7 1 96 98 97 107
8 1 101 99 100 106
9 1 127 129 128 138
10 1 132 130 131 137
11 1 158 160 159 169
12 1 163 161 162 168
13 1 189 191 190 200
14 1 194 192 193 199
15 1 220 222 221 231
16 1 225 223 224 230
17 1 251 253 252 262
18 1 256 254 255 261
19 1 282 284 283 293
20 1 287 285 286 292
21 1 3 5 4 18
22 1 4 6 5 19
23 1 6 13 12 31
24 1 3 12 13 32
25 1 35 37 36 49
26 1 36 38 37 50
27 1 38 45 44 62
28 1 35 44 45 63
29 1 66 68 67 80
30 1 67 69 68 81
31 1 69 76 75 93
32 1 66 75 76 94
33 1 97 99 98 111
34 1 98 100 99 112
35 1 100 107 106 124
36 1 97 106 107 125
37 1 128 130 129 142
38 1 129 131 130 143
39 1 131 138 137 155
40 1 128 137 138 156
41 1 159 161 160 173
42 1 160 162 161 174
43 1 162 169 168 186
44 1 159 168 169 187
45 1 190 192 191 204
46 1 191 193 192 205
47 1 193 200 199 217
48 1 190 199 200 218
49 1 221 223 222 235
50 1 222 224 223 236
51 1 224 231 230 248
52 1 221 230 231 249
53 1 252 254 253 266
54 1 253 255 254 267
55 1 255 262 261 279
56 1 252 261 262 280
57 1 283 285 284 298
58 1 284 286 285 299
59 1 286 293 292 311
60 1 283 292 293 312
61 1 322 331 321 320
62 1 325 323 324 330
63 1 352 354 353 363
64 1 357 355 356 362
65 1 383 385 384 394
66 1 388 386 387 393
67 1 414 416 415 425
68 1 419 417 418 424
69 1 445 447 446 456
70 1 450 448 449 455
71 1 476 478 477 487
72 1 481 479 480 486
73 1 507 509 508 518
74 1 512 510 511 517
75 1 538 540 539 549
76 1 543 541 542 548
77 1 569 571 570 580
78 1 574 572 573 579
79 1 600 602 601 611
80 1 605 603 604 610
81 1 321 323 322 336
82 1 322 324 323 337
83 1 324 331 330 349
84 1 321 330 331 350
85 1 353 355 354 367
86 1 354 356 355 368
87 1 356 363 362 380
88 1 353 362 363 381
89 1 384 386 385 398
90 1 385 387 386 399
91 1 387 394 393 411
92 1 384 393 394 412
93 1 415 417 416 429
94 1 416 418 417 430
95 1 418 425 424 442
96 1 415 424 425 443
97 1 446 448 447 460
98 1 447 449 448 461
99 1 449 456 455 473
100 1 446 455 456 474
101 1 477 479 478 491
102 1 478 480 479 492
103 1 480 487 486 504
104 1 477 486 487 505
105 1 508 510 509 522
106 1 509 511 510 523
107 1 511 518 517 535
108 1 508 517 518 536
109 1 539 541 540 553
110 1 540 542 541 554
111 1 542 549 548 566
112 1 539 548 549 567
113 1 570 572 571 584
114 1 571 573 572 585
115 1 573 580 579 597
116 1 570 579 580 598
117 1 601 603 602 616
118 1 602 604 603 617
119 1 604 611 610 629
120 1 601 610 611 630
121 1 640 649 639 638
122 1 643 641 642 648
123 1 670 672 671 681
124 1 675 673 674 680
125 1 701 703 702 712
126 1 706 704 705 711
127 1 732 734 733 743
128 1 737 735 736 742
129 1 763 765 764 774
130 1 768 766 767 773
131 1 794 796 795 805
132 1 799 797 798 804
133 1 825 827 826 836
134 1 830 828 829 835
135 1 856 858 857 867
136 1 861 859 860 866
137 1 887 889 888 898
138 1 892 890 891 897
139 1 918 920 919 929
140 1 923 921 922 928
141 1 639 641 640 654
142 1 640 642 641 655
143 1 642 649 648 667
144 1 639 648 649 668
145 1 671 673 672 685
146 1 672 674 673 686
147 1 674 681 680 698
148 1 671 680 681 699
149 1 702 704 703 716
150 1 703 705 704 717
151 1 705 712 711 729
152 1 702 711 712 730
153 1 733 735 734 747
154 1 734 736 735 748
155 1 736 743 742 760
156 1 733 742 743 761
157 1 764 766 765 778
158 1 765 767 766 779
159 1 767 774 773 791
160 1 764 773 774 792
161 1 795 797 796 809
162 1 796 798 797 810
163 1 798 805 804 822
164 1 795 804 805 823
165 1 826 828 827 840
166 1 827 829 828 841
167 1 829 836 835 853
168 1 826 835 836 854
169 1 857 859 858 871
170 1 858 860 859 872
171 1 860 867 866 884
172 1 857 866 867 885
173 1 888 890 889 902
174 1 889 891 890 903
175 1 891 898 897 915
176 1 888 897 898 916
177 1 919 921 920 934
178 1 920 922 921 935
179 1 922 929 928 947
180 1 919 928 929 948
181 1 958 967 957 956
182 1 961 959 960 966
183 1 988 990 989 999
184 1 993 991 992 998
185 1 1019 1021 1020 1030
186 1 1024 1022 1023 1029
187 1 1050 1052 1051 1061
188 1 1055 1053 1054 1060
189 1 1081 1083 1082 1092
190 1 1086 1084 1085 1091
191 1 1112 1114 1113 1123
192 1 1117 1115 1116 1122
193 1 1143 1145 1144 1154
194 1 1148 1146 1147 1153
195 1 1174 1176 1175 1185
196 1 1179 1177 1178 1184
197 1 1205 1207 1206 1216
198 1 1210 1208 1209 1215
199 1 1236 1238 1237 1247
200 1 1241 1239 1240 1246
201 1 957 959 958 972
202 1 958 960 959 973
203 1 960 967 966 985
204 1 957 966 967 986
205 1 989 991 990 1003
206 1 990 992 991 1004
207 1 992 999 998 1016
208 1 989 998 999 1017
209 1 1020 1022 1021 1034
210 1 1021 1023 1022 1035
211 1 1023 1030 1029 1047
212 1 1020 1029 1030 1048
213 1 1051 1053 1052 1065
214 1 1052 1054 1053 1066
215 1 1054 1061 1060 1078
216 1 1051 1060 1061 1079
217 1 1082 1084 1083 1096
218 1 1083 1085 1084 1097
219 1 1085 1092 1091 1109
220 1 1082 1091 1092 1110
221 1 1113 1115 1114 1127
222 1 1114 1116 1115 1128
223 1 1116 1123 1122 1140
224 1 1113 1122 1123 1141
225 1 1144 1146 1145 1158
226 1 1145 1147 1146 1159
227 1 1147 1154 1153 1171
228 1 1144 1153 1154 1172
229 1 1175 1177 1176 1189
230 1 1176 1178 1177 1190
231 1 1178 1185 1184 1202
232 1 1175 1184 1185 1203
233 1 1206 1208 1207 1220
234 1 1207 1209 1208 1221
235 1 1209 1216 1215 1233
236 1 1206 1215 1216 1234
237 1 1237 1239 1238 1252
238 1 1238 1240 1239 1253
239 1 1240 1247 1246 1265
240 1 1237 1246 1247 1266
241 1 1276 1285 1275 1274
242 1 1279 1277 1278 1284
243 1 1306 1308 1307 1317
244 1 1311 1309 1310 1316
245 1 1337 1339 1338 1348
246 1 1342 1340 1341 1347
247 1 1368 1370 1369 1379
248 1 1373 1371 1372 1378
249 1 1399 1401 1400 1410
250 1 1404 1402 1403 1409
251 1 1430 1432 1431 1441
252 1 1435 1433 1434 1440
253 1 1461 1463 1462 1472
254 1 1466 1464 1465 1471
255 1 1492 1494 1493 1503
256 1 1497 1495 1496 1502
257 1 1523 1525 1524 1534
258 1 1528 1526 1527 1533
259 1 1554 1556 1555 1565
260 1 1559 1557 1558 1564
261 1 1275 1277 1276 1290
262 1 1276 1278 1277 1291
263 1 1278 1285 1284 1303
264 1 1275 1284 1285 1304
265 1 1307 1309 1308 1321
266 1 1308 1310 1309 1322
267 1 1310 1317 1316 1334
268 1 1307 1316 1317 1335
269 1 1338 1340 1339 1352
270 1 1339 1341 1340 1353
271 1 1341 1348 1347 1365
272 1 1338 1347 1348 1366
273 1 1369 1371 1370 1383
274 1 1370 1372 1371 1384
275 1 1372 1379 1378 1396
276 1 1369 1378 1379 1397
277 1 1400 1402 1401 1414
278 1 1401 1403 1402 1415
279 1 1403 1410 1409 1427
280 1 1400 1409 1410 1428
281 1 1431 1433 1432 1445
282 1 1432 1434 1433 1446
283 1 1434 1441 1440 1458
284 1 1431 1440 1441 1459
285 1 1462 1464 1463 1476
286 1 1463 1465 1464 1477
287 1 1465 1472 1471 1489
288 1 1462 1471 1472 1490
289 1 1493 1495 1494 1507
290 1 1494 1496 1495 1508
291 1 1496 1503 1502 1520
292 1 1493 1502 1503 1521
293 1 1524 1526 1525 1538
294 1 1525 1527 1526 1539
295 1 1527 1534 1533 1551
296 1 1524 1533 1534 1552
297 1 1555 1557 1556 1570
298 1 1556 1558 1557 1571
299 1 1558 1565 1564 1583
300 1 1555 1564 1565 1584
