LAMMPS (22 Jul 2025 - Update 1)
OMP_NUM_THREADS environment is not set. Defaulting to 1 thread.
  using 1 OpenMP thread(s) per MPI task
package gpu 1 neigh no
# Bulk spce reference
# generated by aemwater -- do not edit; edit the template instead

units           real
atom_style      full
boundary        p p p

pair_style      lj/cut/coul/long 10.0 10.0
# GAFF2 is a Lorentz-Berthelot force field. The LAMMPS default for lj/cut is
# GEOMETRIC mixing, which silently changes every cross interaction.
pair_modify     mix arithmetic tail yes
kspace_style    pppm 0.0001
bond_style      harmonic
angle_style     harmonic
dihedral_style  charmm
improper_style  cvff
# Amber 1-4 scaling: LJ/2 and Coulomb/1.2. Applied here, so every CHARMM
# dihedral weight in the data file is 0.
special_bonds   lj 0.0 0.0 0.5 coul 0.0 0.0 0.8333333333

read_data       bulk.data
Reading data file ...
  orthogonal box = (0 0 0) to (25.004081 25.004081 25.004081)
  1 by 1 by 1 MPI processor grid
  reading atoms ...
  1563 atoms
  scanning bonds ...
  2 = max bonds/atom
  scanning angles ...
  1 = max angles/atom
  orthogonal box = (0 0 0) to (25.004081 25.004081 25.004081)
  1 by 1 by 1 MPI processor grid
  reading bonds ...
  1042 bonds
  reading angles ...
  521 angles
Finding 1-2 1-3 1-4 neighbors ...
  special bond factors lj:    0        0        0.5     
  special bond factors coul:  0        0        0.8333333333
     2 = max # of 1-2 neighbors
     1 = max # of 1-3 neighbors
     1 = max # of 1-4 neighbors
     2 = max # of special neighbors
  special bonds CPU = 0.001 seconds
  read_data CPU = 0.023 seconds
neighbor        2.0 bin
neigh_modify    delay 0 every 1 check yes
# The ghost-atom cutoff defaults to the pair cutoff + skin. Bonded partners must
# also be within it, and a stretched bond in a freshly packed cell can exceed it,
# which LAMMPS reports as a communication-cutoff warning before losing atoms.
comm_modify     cutoff 12.0

# Molecule IDs are assigned by the data writer in packing order: polymer chains
# first, then counterions, then any water added later. `<>` is LAMMPS's inclusive
# range operator.
group           polymer molecule <> 1 0
0 atoms in group polymer
group           water type 1 2
1563 atoms in group water

thermo          500
thermo_style    custom step temp press vol density etotal ke pe ebond eangle edihed evdwl ecoul elong
thermo_modify   flush yes

# ================================================================ BULK WATER ==
# Reference reservoir. The protocol must match the membrane Widom run in every
# detail that shifts mu_ex -- cutoff, kspace accuracy, tail correction, water
# model, insertion count -- because the saturation criterion resolves a
# difference much smaller than any of those systematic shifts.

# ---------------------------------------------------------------- stage 1 ----
# The lattice is overlap-free by construction, so no soft push-off is needed;
# a short minimisation removes the jitter-induced strain.
min_style       cg
minimize        1e-06 1e-06 500 5000

CITE-CITE-CITE-CITE-CITE-CITE-CITE-CITE-CITE-CITE-CITE-CITE-CITE

Your simulation uses code contributions which should be cited:

- GPU package (short-range, long-range and three-body potentials): doi:10.1016/j.cpc.2010.12.021, doi:10.1016/j.cpc.2011.10.012, doi:10.1016/j.cpc.2013.08.002, doi:10.1016/j.commatsci.2014.10.068, doi:10.1016/j.cpc.2016.10.020, doi:10.3233/APC200086

@Article{Brown11,
 author = {W. M. Brown and P. Wang and S. J. Plimpton and A. N. Tharrington},
 title = {Implementing Molecular Dynamics on Hybrid High Performance Computers---Short Range Forces},
 journal = {Comput.\ Phys.\ Commun.},
 year =    2011,
 volume =  182,
 pages =   {898--911},
 doi =     {10.1016/j.cpc.2010.12.021}
}

@Article{Brown12,
 author = {W. M. Brown and A. Kohlmeyer and S. J. Plimpton and A. N. Tharrington},
 title = {Implementing Molecular Dynamics on Hybrid High Performance Computers - Particle-Particle Particle-Mesh},
 journal = {Comput.\ Phys.\ Commun.},
 year =    2012,
 volume =  183,
 doi =     {10.1016/j.cpc.2011.10.012},
 pages =   {449--459}
}

@Article{Brown13,
 author = {W. M. Brown and Y. Masako},
 title = {Implementing Molecular Dynamics on Hybrid High Performance Computers---Three-Body Potentials},
 journal = {Comput.\ Phys.\ Commun.},
 year =    2013,
 volume =  184,
 pages =   {2785--2793},
 doi =     {10.1016/j.cpc.2013.08.002},
}

@Article{Trung15,
 author = {T. D. Nguyen and S. J. Plimpton},
 title = {Accelerating Dissipative Particle Dynamics Simulations for Soft Matter Systems},
 journal = {Comput.\ Mater.\ Sci.},
 year =    2015,
 doi =     {10.1016/j.commatsci.2014.10.068},
 volume =  100,
 pages =   {173--180}
}

@Article{Trung17,
 author = {T. D. Nguyen},
 title = {{GPU}-Accelerated {T}ersoff Potentials for Massively Parallel
    Molecular Dynamics Simulations},
 journal = {Comput.\ Phys.\ Commun.},
 year =    2017,
 doi =     {10.1016/j.cpc.2016.10.020},
 volume =  212,
 pages =   {113--122}
}

@inproceedings{Nikolskiy19,
 author = {V. Nikolskiy and V. Stegailov},
 title = {{GPU} Acceleration of Four-Site Water Models in {LAMMPS}},
 booktitle = {Proceedings of the International Conference on Parallel
    Computing (ParCo 2019), Prague, Czech Republic},
 doi =     {10.3233/APC200086},
 year =    2019
}

CITE-CITE-CITE-CITE-CITE-CITE-CITE-CITE-CITE-CITE-CITE-CITE-CITE

PPPM initialization ...
  using 12-bit tables for long-range coulomb
  G vector (1/distance) = 0.27620514
  grid = 15 15 15
  stencil order = 5
  estimated absolute RMS force accuracy = 0.016399033
  estimated relative force accuracy = 4.9385199e-05
  using double precision KISS FFT
  3d grid and FFT values/proc = 10648 3375
Generated 1 of 1 mixed pair_coeff terms from arithmetic mixing rule
Neighbor list info ...
  update: every = 1 steps, delay = 0 steps, check = yes
  max neighbors/atom: 2000, page size: 100000
  master list distance cutoff = 12
  ghost atom cutoff = 12
  binsize = 6, bins = 5 5 5
  1 neighbor lists, perpetual/occasional/extra = 1 0 0
  (1) pair lj/cut/coul/long/gpu, perpetual
      attributes: full, newton on
      pair build: full/bin
      stencil: full/bin/3d
      bin: standard
Per MPI rank memory allocation (min/avg/max) = 15.13 | 15.13 | 15.13 Mbytes
   Step          Temp          Press          Volume        Density         TotEng         KinEng         PotEng         E_bond        E_angle        E_dihed         E_vdwl         E_coul         E_long    
         0   0              60081.442      15632.653      0.99700653     2264.7623      0              2264.7623      9.4940396e-08  1.9793712e-08  0              2030.2447      28930.931     -28696.414    
       500   0              1446.9301      15632.653      0.99700653    -7192.2374      0             -7192.2374      306.86606      100.28946      0              1874.6698      19567.911     -29041.974    
Loop time of 4.05287 on 1 procs for 500 steps with 1563 atoms

62.6% CPU use with 1 MPI tasks x 1 OpenMP threads

Minimization stats:
  Stopping criterion = max iterations
  Energy initial, next-to-last, final = 
      2264.76230210859  -7192.10594156114  -7192.23741000681
  Force two-norm initial, final = 987.23268 17.513342
  Force max component initial, final = 60.339628 2.7788875
  Final line search alpha, max atom move = 0.0091878258 0.025531934
  Iterations, force evaluations = 500 973

MPI task timing breakdown:
Section |  min time  |  avg time  |  max time  |%varavg| %total
---------------------------------------------------------------
Pair    | 0.86975    | 0.86975    | 0.86975    |   0.0 | 21.46
Bond    | 0.16318    | 0.16318    | 0.16318    |   0.0 |  4.03
Kspace  | 1.6996     | 1.6996     | 1.6996     |   0.0 | 41.94
Neigh   | 1.1373     | 1.1373     | 1.1373     |   0.0 | 28.06
Comm    | 0.12005    | 0.12005    | 0.12005    |   0.0 |  2.96
Output  | 0.0007043  | 0.0007043  | 0.0007043  |   0.0 |  0.02
Modify  | 9.0614e-05 | 9.0614e-05 | 9.0614e-05 |   0.0 |  0.00
Other   |            | 0.06221    |            |       |  1.54

Nlocal:           1563 ave        1563 max        1563 min
Histogram: 1 0 0 0 0 0 0 0 0 0
Nghost:           9825 ave        9825 max        9825 min
Histogram: 1 0 0 0 0 0 0 0 0 0
Neighs:              0 ave           0 max           0 min
Histogram: 1 0 0 0 0 0 0 0 0 0
FullNghs:  1.16435e+06 ave 1.16435e+06 max 1.16435e+06 min
Histogram: 1 0 0 0 0 0 0 0 0 0

Total # of neighbors = 1164354
Ave neighs/atom = 744.94818
Ave special neighs/atom = 2
Neighbor list builds = 15
Dangerous builds = 0

# ---------------------------------------------------------------- stage 2 ----
# Rigid water. SPC/E and TIP3P are *defined* with fixed geometry: integrating
# their internal degrees of freedom gives a different liquid with a different
# chemical potential.
fix             rigid_water all shake 0.0001 20 0 b 1 a 1
Finding SHAKE clusters ...
       0 = # of size 2 clusters
       0 = # of size 3 clusters
       0 = # of size 4 clusters
     521 = # of frozen angles
  find clusters CPU = 0.001 seconds
timestep        1.0
velocity        all create 300.0 31337 mom yes rot yes dist gaussian

# NPT to the target state point. The lattice melts within a few ps; the run is
# long enough that the density is measured on liquid, not on a melting solid.
fix             npt_bulk all npt temp 300.0 300.0 100.0 iso 1.0 1.0 1000.0
# Variables must exist before the fix that references them: LAMMPS resolves
# v_ names at fix-definition time, not at run time.
variable        dens equal density
variable        vol equal vol
fix             rho all ave/time 500 10 5000 v_dens v_vol file bulk_density.dat
run             50000
PPPM initialization ...
  using 12-bit tables for long-range coulomb
  G vector (1/distance) = 0.27620514
  grid = 15 15 15
  stencil order = 5
  estimated absolute RMS force accuracy = 0.016399033
  estimated relative force accuracy = 4.9385199e-05
  using double precision KISS FFT
  3d grid and FFT values/proc = 10648 3375
Generated 1 of 1 mixed pair_coeff terms from arithmetic mixing rule
Per MPI rank memory allocation (min/avg/max) = 14.92 | 14.92 | 14.92 Mbytes
   Step          Temp          Press          Volume        Density         TotEng         KinEng         PotEng         E_bond        E_angle        E_dihed         E_vdwl         E_coul         E_long    
       500   300            309.53317      15632.653      0.99700653    -6668.4859      930.90698     -7599.3929      0              0              0              1874.6698      19567.911     -29041.974    
      1000   218.55357     -179.65173      16687.829      0.93396555    -5441.3525      678.1768      -6119.5293      0              0              0              1210.1834      21705.431     -29035.144    
      1500   319.87816     -517.46787      16626.156      0.93742997    -4611.075       992.58937     -5603.6643      0              0              0              983.8331       22441.373     -29028.87     
      2000   295.99898     -31.162368      15930.397      0.97837218    -4797.5004      918.49173     -5715.9921      0              0              0              1064.6954      22253.009     -29033.696    
      2500   299.06705     -468.91086      15666.265      0.99486745    -4889.5215      928.012       -5817.5335      0              0              0              1073.6218      22144.627     -29035.783    
      3000   290.27052      602.4554       15671.4        0.99454144    -4912.2806      900.71618     -5812.9967      0              0              0              1142.9773      22077.955     -29033.93     
      3500   301.13893     -325.96431      15689.154      0.99341605    -4764.6992      934.44111     -5699.1403      0              0              0              1044.2501      22287.908     -29031.299    
      4000   307.77085      1291.2975      15236.843      1.022906      -4785.264       955.02011     -5740.2841      0              0              0              1130.475       22162.143     -29032.902    
      4500   302.45401      1048.7814      15425.743      1.0103796     -4803.2057      938.52183     -5741.7275      0              0              0              1120.7341      22170.198     -29032.659    
      5000   299.72561      171.8849       15732.734      0.99066424    -4846.3485      930.05554     -5776.404       0              0              0              1101.8559      22153.289     -29031.549    
      5500   299.09209      74.554962      15717.985      0.99159383    -4844.8794      928.0897      -5772.9691      0              0              0              1088.4039      22172.206     -29033.579    
      6000   295.09761      265.15744      15476.478      1.0070674     -4884.1855      915.69475     -5799.8803      0              0              0              1095.0051      22136.602     -29031.488    
      6500   294.30175      543.60195      15551.5        1.0022092     -4922.1259      913.22517     -5835.351       0              0              0              1145.7647      22053.537     -29034.653    
      7000   301.53957     -273.24429      15736.865      0.99040419    -4880.6374      935.68431     -5816.3217      0              0              0              1087.3258      22129.86      -29033.507    
      7500   302.31797     -669.41453      15874.016      0.98184713    -4854.6615      938.09969     -5792.7612      0              0              0              1064.5912      22174.302     -29031.655    
      8000   313.56352     -971.26699      15487.371      1.0063591     -4848.6642      972.99491     -5821.6591      0              0              0              1026.9791      22182.269     -29030.907    
      8500   313.66134     -150.92258      15514.155      1.0046218     -4808.1687      973.29844     -5781.4671      0              0              0              1061.6994      22190.519     -29033.685    
      9000   308.36399      648.60343      15547.292      1.0024805     -4839.7244      956.86064     -5796.585       0              0              0              1134.6647      22098.9       -29030.15     
      9500   296.61094     -0.74720087     15773.253      0.98811937    -4913.3141      920.39063     -5833.7047      0              0              0              1113.698       22086.443     -29033.846    
     10000   285.61558      539.92235      15763.976      0.98870087    -4880.3746      886.27178     -5766.6463      0              0              0              1143.2004      22123.406     -29033.253    
     10500   299.12887      389.1657       15632.105      0.99704148    -4909.163       928.20383     -5837.3668      0              0              0              1140.2927      22053.192     -29030.852    
     11000   292.57539     -782.6786       15815.824      0.98545969    -4882.8329      907.86824     -5790.7011      0              0              0              1047.7888      22197.016     -29035.506    
     11500   295.74685      280.06457      15564.632      1.0013637     -4893.6706      917.70936     -5811.3799      0              0              0              1117.3157      22104.179     -29032.874    
     12000   318.62008      676.33917      15781.353      0.9876122     -4733.0999      988.68552     -5721.7854      0              0              0              1114.833       22193.839     -29030.458    
     12500   301.15447     -54.988444      15724.721      0.99116906    -4905.7726      934.48932     -5840.2619      0              0              0              1110.5348      22084.229     -29035.026    
     13000   288.22754      498.35956      15539.449      1.0029865     -4895.9421      894.37678     -5790.3188      0              0              0              1116.6239      22123.61      -29030.553    
     13500   302.78978     -70.553939      15663.164      0.99506445    -4829.2696      939.56372     -5768.8333      0              0              0              1088.8172      22179.289     -29036.94     
     14000   301.96463      111.81502      15720.84       0.99141374    -4831.1284      937.00327     -5768.1316      0              0              0              1094.0443      22172.724     -29034.9      
     14500   305.99099     -724.60066      15880.846      0.98142489    -4905.3056      949.49717     -5854.8028      0              0              0              1081.4086      22098.52      -29034.731    
     15000   302.87572      151.13871      15668.268      0.99474029    -4901.8642      939.83041     -5841.6946      0              0              0              1129.0445      22062.913     -29033.652    
     15500   292.67129     -736.38137      15666.688      0.9948406     -4886.3324      908.16583     -5794.4982      0              0              0              1043.3598      22196.702     -29034.56     
     16000   314.80484      568.7939       15935.809      0.97803991    -4888.8169      976.84675     -5865.6636      0              0              0              1175.8358      21993.827     -29035.326    
     16500   294.69836     -498.69646      15667.588      0.99478347    -4891.5878      914.45586     -5806.0437      0              0              0              1066.6823      22159.267     -29031.993    
     17000   292.03462     -82.781853      15508.279      1.0050024     -4926.2004      906.19023     -5832.3906      0              0              0              1100.6104      22098.877     -29031.878    
     17500   298.71449      560.64946      15704.122      0.99246921    -4855.2867      926.91801     -5782.2048      0              0              0              1137.8331      22111.767     -29031.805    
     18000   303.92776      358.22359      15825.799      0.98483854    -4866.2092      943.09491     -5809.3041      0              0              0              1137.7624      22082.504     -29029.571    
     18500   303.72769      84.632641      15761.536      0.98885398    -4838.3638      942.47408     -5780.8379      0              0              0              1107.52        22148.487     -29036.845    
     19000   292.31664      880.19746      15802.831      0.98626995    -4797.6403      907.06533     -5704.7057      0              0              0              1142.3492      22188.045     -29035.1      
     19500   292.23327      868.39388      15318.698      1.0174401     -4861.6653      906.80665     -5768.472       0              0              0              1125.2623      22139.589     -29033.323    
     20000   310.93729      36.333535      15671.071      0.99456234    -4848.6488      964.84563     -5813.4944      0              0              0              1097.9637      22124.793     -29036.251    
     20500   289.63235      249.16428      15641.231      0.99645975    -4959.3656      898.73593     -5858.1015      0              0              0              1137.3899      22038.916     -29034.408    
     21000   307.78374     -133.37459      15924.659      0.97872468    -4846.6941      955.0601      -5801.7542      0              0              0              1104.7086      22126.444     -29032.907    
     21500   293.01262      200.6326       15530.226      1.0035821     -4911.8524      909.22497     -5821.0774      0              0              0              1102.5636      22108.347     -29031.988    
     22000   291.49993     -570.34608      15975.049      0.97563753    -4861.6048      904.53105     -5766.1358      0              0              0              1065.809       22198.796     -29030.741    
     22500   304.2391      -52.560292      15642.456      0.99638174    -4909.6351      944.061       -5853.6961      0              0              0              1109.6677      22073.47      -29036.834    
     23000   315.33276      1126.4552      15607.4        0.99861969    -4819.1576      978.48488     -5797.6425      0              0              0              1165.5985      22074.562     -29037.803    
     23500   284.15841     -511.61882      15862.949      0.98253211    -4953.6579      881.75016     -5835.4081      0              0              0              1102.7862      22097.055     -29035.249    
     24000   294.65087     -10.756752      15759.325      0.98899269    -4876.1051      914.3085      -5790.4136      0              0              0              1110.3264      22129.799     -29030.539    
     24500   297.19199     -109.19803      15973.723      0.97571849    -4845.4672      922.19366     -5767.6609      0              0              0              1095.6261      22172.302     -29035.589    
     25000   297.3576      -6.3089522      15759.133      0.98900474    -4810.8891      922.70755     -5733.5966      0              0              0              1067.39        22231.752     -29032.738    
     25500   280.4084       555.82866      15444.018      1.0091841     -4896.7116      870.11378     -5766.8254      0              0              0              1112.7241      22155.744     -29035.294    
     26000   298.91059      637.34396      15636.275      0.99677556    -4816.1362      927.52653     -5743.6627      0              0              0              1132.0517      22151.853     -29027.568    
     26500   301.2364       494.71838      15825.284      0.98487063    -4817.7133      934.74356     -5752.4569      0              0              0              1119.9965      22154.379     -29026.832    
     27000   297.55481     -367.66482      15758.126      0.98906796    -4872.1347      923.31948     -5795.4542      0              0              0              1080.1957      22159.084     -29034.734    
     27500   311.01658      288.02255      15650.282      0.99588345    -4823.1753      965.09169     -5788.267       0              0              0              1112.2644      22130.897     -29031.428    
     28000   302.04297      1045.9388      15602.016      0.99896432    -4790.4482      937.24637     -5727.6946      0              0              0              1123.7923      22180.496     -29031.983    
     28500   313.60636     -282.00748      15456.385      1.0083766     -4806.0636      973.12784     -5779.1915      0              0              0              1053.0912      22201.113     -29033.396    
     29000   306.28753      1232.7653      15746.912      0.9897723     -4825.7189      950.41733     -5776.1362      0              0              0              1175.2932      22078.698     -29030.127    
     29500   301.30068     -243.93726      15972.837      0.97577266    -4817.2163      934.94301     -5752.1593      0              0              0              1090.0989      22185.941     -29028.199    
     30000   297.55305     -476.41876      15832.3        0.98443417    -4959.0138      923.31405     -5882.3278      0              0              0              1114.2628      22037.169     -29033.76     
     30500   303.09452      517.8161       15865.874      0.982351      -4825.8679      940.50935     -5766.3773      0              0              0              1139.8245      22126.002     -29032.204    
     31000   299.05904     -254.67437      15677.105      0.99417958    -4870.253       927.98717     -5798.2402      0              0              0              1074.4233      22162.522     -29035.185    
     31500   302.95708     -1170.3697      15826.361      0.98480357    -4885.7397      940.08287     -5825.8226      0              0              0              1033.4297      22171.96      -29031.213    
     32000   295.70022     -1150.5699      15760.306      0.98893111    -4849.0337      917.56466     -5766.5984      0              0              0              1009.671       22259.181     -29035.451    
     32500   292.09097      375.26096      15448.099      1.0089175     -4962.8446      906.36509     -5869.2097      0              0              0              1136.2381      22026.576     -29032.024    
     33000   306.22363     -389.24315      15786.628      0.98728222    -4881.331       950.21904     -5831.5501      0              0              0              1090.7734      22111.802     -29034.125    
     33500   301.33519      1040.8123      15705.146      0.99240446    -4932.0255      935.05012     -5867.0756      0              0              0              1204.1178      21964.88      -29036.073    
     34000   300.48294      121.88264      15789.226      0.98711977    -4863.5585      932.40555     -5795.964       0              0              0              1121.429       22115.003     -29032.396    
     34500   306.64473     -846.90178      15652.578      0.99573742    -4919.4867      951.52574     -5871.0124      0              0              0              1075.1743      22086.857     -29033.044    
     35000   290.01097      214.9984       15544.258      1.0026762     -4964.5899      899.91079     -5864.5007      0              0              0              1137.8253      22030.176     -29032.502    
     35500   298.2351      -25.4347        15790.759      0.98702396    -4859.7888      925.43046     -5785.2192      0              0              0              1105.3764      22143.057     -29033.652    
     36000   308.59776      342.18597      15531.428      1.0035044     -4898.0782      957.58604     -5855.6643      0              0              0              1124.4923      22052.8       -29032.956    
     36500   302.72427     -398.54637      15853.853      0.98309586    -4847.3959      939.36046     -5786.7564      0              0              0              1080.0931      22168.03      -29034.88     
     37000   296.83163      17.277651      15648.499      0.99599693    -4912.0989      921.07546     -5833.1743      0              0              0              1112.8998      22086.545     -29032.62     
     37500   287.96237     -936.66675      15795.162      0.98674881    -4940.1216      893.55393     -5833.6755      0              0              0              1054.3232      22147.774     -29035.773    
     38000   285.51585      377.87414      15580.175      1.0003647     -4956.2791      885.96233     -5842.2414      0              0              0              1130.0138      22058.386     -29030.641    
     38500   306.66389      356.71037      15576.91       1.0005744     -4864.7336      951.58519     -5816.3188      0              0              0              1123.3682      22092.887     -29032.574    
     39000   290.35312     -119.26124      15652.878      0.99571833    -4888.9168      900.9725      -5789.8893      0              0              0              1087.3172      22157.869     -29035.076    
     39500   287.31431      651.38062      15525.642      1.0038784     -4884.8142      891.543       -5776.3572      0              0              0              1127.4286      22130.077     -29033.863    
     40000   299.83501     -818.61159      15769.92       0.98832826    -4876.9816      930.39502     -5807.3766      0              0              0              1056.1744      22169.724     -29033.275    
     40500   299.95176      220.14725      15472.356      1.0073357     -4940.2566      930.7573      -5871.0139      0              0              0              1129.4691      22033.943     -29034.426    
     41000   288.29558      263.3755       15720.865      0.99141217    -4900.8348      894.58788     -5795.4227      0              0              0              1113.8225      22125.23      -29034.476    
     41500   297.43259     -182.36571      15700.277      0.99271222    -4896.8274      922.94025     -5819.7676      0              0              0              1093.7133      22118.763     -29032.244    
     42000   303.52969      255.17061      15761.743      0.98884096    -4832.9698      941.85969     -5774.8295      0              0              0              1111.9751      22143.55      -29030.354    
     42500   298.87284      1054.4305      15348.954      1.0154345     -4893.6705      927.40938     -5821.0799      0              0              0              1151.8362      22060.298     -29033.214    
     43000   301.69161     -617.95771      15847.389      0.98349687    -4860.2725      936.1561      -5796.4286      0              0              0              1064.6359      22173.237     -29034.301    
     43500   292.8846      -922.44847      15538.849      1.0030252     -4922.8028      908.82773     -5831.6305      0              0              0              1037.2402      22164.23      -29033.101    
     44000   294.57539     -509.89558      15572.876      1.0008336     -4928.4571      914.0743      -5842.5314      0              0              0              1072.1747      22116.48      -29031.186    
     44500   277.17641      146.20016      15608.687      0.99853739    -4936.934       860.08484     -5797.0188      0              0              0              1114.1287      22122.964     -29034.112    
     45000   311.70724      76.818408      15444.308      1.0091651     -4862.879       967.2348      -5830.1138      0              0              0              1098.2184      22108.537     -29036.869    
     45500   317.17209      1068.3505      15489.923      1.0061933     -4828.3801      984.19237     -5812.5725      0              0              0              1154.7081      22065.389     -29032.67     
     46000   295.68608      74.833433      15548.185      1.0024229     -4909.7745      917.5208      -5827.2953      0              0              0              1104.6973      22101.179     -29033.172    
     46500   295.70429     -912.48145      15818.081      0.98531911    -4898.3926      917.57728     -5815.9699      0              0              0              1041.798       22176.088     -29033.856    
     47000   313.57683      164.17745      15625.888      0.99743816    -4872.3542      973.0362      -5845.3904      0              0              0              1136.4975      22052.01      -29033.898    
     47500   302.23386     -1031.702       15723.674      0.99123508    -4900.038       937.83869     -5837.8767      0              0              0              1037.3893      22160.113     -29035.379    
     48000   286.60034      696.21349      15477.928      1.0069731     -4960.7449      889.32752     -5850.0725      0              0              0              1160.0535      22020.039     -29030.165    
     48500   303.4744      -779.601        15942.698      0.97761729    -4867.3532      941.68813     -5809.0413      0              0              0              1052.1554      22171.402     -29032.599    
     49000   302.1953       430.14358      15644.818      0.99623127    -4945.4659      937.71903     -5883.1849      0              0              0              1161.9596      21990.28      -29035.424    
     49500   307.5487       919.67284      15752.645      0.98941205    -4862.0121      954.33077     -5816.3428      0              0              0              1175.538       22042.362     -29034.243    
     50000   299.51833     -436.50243      15777.266      0.98786807    -4880.0211      929.41235     -5809.4334      0              0              0              1073.68        22147.891     -29031.004    
     50500   293.86896      277.51771      15725.442      0.99112365    -4913.6427      911.88221     -5825.5249      0              0              0              1136.7216      22068.782     -29031.028    
Loop time of 298.956 on 1 procs for 50000 steps with 1563 atoms

Performance: 14.450 ns/day, 1.661 hours/ns, 167.249 timesteps/s, 261.410 katom-step/s
89.0% CPU use with 1 MPI tasks x 1 OpenMP threads

MPI task timing breakdown:
Section |  min time  |  avg time  |  max time  |%varavg| %total
---------------------------------------------------------------
Pair    | 30.866     | 30.866     | 30.866     |   0.0 | 10.32
Bond    | 0.069429   | 0.069429   | 0.069429   |   0.0 |  0.02
Kspace  | 82.562     | 82.562     | 82.562     |   0.0 | 27.62
Neigh   | 119.95     | 119.95     | 119.95     |   0.0 | 40.12
Comm    | 4.663      | 4.663      | 4.663      |   0.0 |  1.56
Output  | 0.076216   | 0.076216   | 0.076216   |   0.0 |  0.03
Modify  | 59.4       | 59.4       | 59.4       |   0.0 | 19.87
Other   |            | 1.371      |            |       |  0.46

Nlocal:           1563 ave        1563 max        1563 min
Histogram: 1 0 0 0 0 0 0 0 0 0
Nghost:          10255 ave       10255 max       10255 min
Histogram: 1 0 0 0 0 0 0 0 0 0
Neighs:              0 ave           0 max           0 min
Histogram: 1 0 0 0 0 0 0 0 0 0
FullNghs:  1.12263e+06 ave 1.12263e+06 max 1.12263e+06 min
Histogram: 1 0 0 0 0 0 0 0 0 0

Total # of neighbors = 1122630
Ave neighs/atom = 718.25336
Ave special neighs/atom = 2
Neighbor list builds = 2158
Dangerous builds = 0

# ---------------------------------------------------------------- stage 3 ----
# Widom insertion of a whole rigid water, in the same NPT ensemble the membrane
# run uses. `full_energy` makes LAMMPS evaluate the complete system energy for
# each trial rather than a pairwise shortcut, which is required when kspace is
# active.
molecule        h2o h2o.mol
Read molecule template h2o:
# Rigid water for Widom test insertions.
  1 molecules
  0 fragments
  0 bodies
  3 atoms with max type 2
  2 bonds with max type 1
  1 angles with max type 1
  0 dihedrals with max type 0
  0 impropers with max type 0
fix             w all widom 100 400 0 31337 300.0 mol h2o full_energy
WARNING: Molecule attributes do not match system attributes
For more information see https://docs.lammps.org/err0026 (src/molecule.cpp:3634)
variable        muex equal f_w[1]
variable        boltz equal f_w[2]
variable        wvol equal f_w[3]
# Write every insertion-burst observation.  Blocking and uncertainty estimation
# are performed from this time series in aemwater.widom.
fix             muavg all ave/time 100 1 100 v_muex v_boltz v_wvol file bulk_mu.dat
run             500000
PPPM initialization ...
  using 12-bit tables for long-range coulomb
  G vector (1/distance) = 0.2760441
  grid = 15 15 15
  stencil order = 5
  estimated absolute RMS force accuracy = 0.01649676
  estimated relative force accuracy = 4.9679502e-05
  using double precision KISS FFT
  3d grid and FFT values/proc = 10648 3375
Generated 1 of 1 mixed pair_coeff terms from arithmetic mixing rule
0 atoms in group FixWidom:widom_exclusion_group:w
0 atoms in group FixWidom:rotation_gas_atoms:w
WARNING: Neighbor exclusions used with KSpace solver may give inconsistent Coulombic energies (src/neighbor.cpp:671)
Per MPI rank memory allocation (min/avg/max) = 14.93 | 14.93 | 14.93 Mbytes
   Step          Temp          Press          Volume        Density         TotEng         KinEng         PotEng         E_bond        E_angle        E_dihed         E_vdwl         E_coul         E_long    
     50500   293.86896      449.84434      15725.442      0.99112365    -4913.6366      911.88221     -5825.5188      0              0              0              1136.7216      22051.888     -29014.129    
     51000   299.62512      89.315373      15899.139      0.98029566    -4883.3141      929.7437      -5813.0578      0              0              0              1132.2442      22074.299     -29019.601    
     51500   304.33918      273.05017      15688.106      0.99348238    -4871.7807      944.37155     -5816.1522      0              0              0              1132.0828      22068.22      -29016.455    
     52000   306.62778     -87.761651      15891.654      0.98075742    -4923.0975      951.47315     -5874.5706      0              0              0              1138.5952      22004.004     -29017.17     
     52500   296.40252      465.9592       15846.446      0.98355539    -4877.7293      919.7439      -5797.4732      0              0              0              1153.3948      22065.001     -29015.869    
     53000   297.5795       975.29635      15843.056      0.9837658     -4858.488       923.39612     -5781.8841      0              0              0              1178.2023      22059.309     -29019.395    
     53500   305.25761      96.660873      16128.949      0.96632816    -4881.2348      947.22148     -5828.4562      0              0              0              1154.2068      22032.272     -29014.935    
     54000   310.91776      99.453277      15963.674      0.97633273    -4855.0758      964.78503     -5819.8608      0              0              0              1136.2576      22060.15      -29016.268    
     54500   317.30115     -480.96836      15828.423      0.98467528    -4853.6845      984.59285     -5838.2774      0              0              0              1084.5576      22096.901     -29019.736    
     55000   287.73784     -30.527549      15734.977      0.99052301    -4962.9217      892.85721     -5855.7789      0              0              0              1126.0222      22038.472     -29020.273    
     55500   295.89714      518.27573      15626.741      0.99738372    -4946.9809      918.17571     -5865.1566      0              0              0              1169.4129      21982.462     -29017.031    
     56000   302.80647     -187.34625      15780.241      0.98768182    -4889.0697      939.61551     -5828.6853      0              0              0              1115.8007      22072.493     -29016.979    
     56500   306.31472      275.97492      15634.652      0.99687904    -4863.0044      950.50172     -5813.5061      0              0              0              1132.2244      22071.73      -29017.461    
     57000   305.82849     -591.01517      15546.155      1.0025538     -4921.6274      948.99293     -5870.6203      0              0              0              1080.8351      22062.856     -29014.311    
     57500   307.73469      66.672981      15392.335      1.0125726     -4872.0517      954.90791     -5826.9596      0              0              0              1092.7394      22097.781     -29017.48     
     58000   319.96359     -513.98576      15748.842      0.98965101    -4776.3962      992.85445     -5769.2507      0              0              0              1052.2859      22193.535     -29015.071    
     58500   312.01134      490.88842      15499.846      1.0055492     -4853.6386      968.17843     -5821.817       0              0              0              1135.9905      22060.587     -29018.395    
     59000   297.19556      130.54715      15681.809      0.9938813     -4921.7302      922.20474     -5843.935       0              0              0              1136.2174      22035.699     -29015.852    
     59500   310.5467       23.976522      15616.157      0.99805974    -4886.0263      963.63364     -5849.66        0              0              0              1115.8394      22053.689     -29019.189    
     60000   305.11658     -646.53283      15618.962      0.9978805     -4896.1765      946.78385     -5842.9603      0              0              0              1069.8102      22102.412     -29015.182    
     60500   295.18598      47.134101      15621.875      0.99769438    -4843.8831      915.96897     -5759.8521      0              0              0              1093.5791      22161.837     -29015.268    
     61000   298.12548      227.19901      15419.038      1.010819      -4894.3049      925.09029     -5819.3951      0              0              0              1099.275       22101.059     -29019.729    
     61500   300.53542      677.68654      15383.793      1.0131349     -4919.2436      932.56839     -5851.812       0              0              0              1142.3344      22022.048     -29016.195    
     62000   303.52989      54.125183      15545.62       1.0025883     -4882.9308      941.86029     -5824.7911      0              0              0              1113.414       22079.397     -29017.602    
     62500   293.07008     -205.01301      15528.82       1.003673      -4908.4106      909.40327     -5817.8139      0              0              0              1090.6624      22108.015     -29016.492    
     63000   312.96112      436.71944      15458.646      1.0082291     -4913.6834      971.12563     -5884.8091      0              0              0              1149.2655      21985.271     -29019.346    
     63500   300.69539      672.77175      15564.701      1.0013592     -4911.3844      933.06481     -5844.4492      0              0              0              1158.8043      22015.868     -29019.122    
     64000   290.70068     -619.62798      15744.193      0.98994325    -4952.121       902.05097     -5854.172       0              0              0              1094.7042      22069.491     -29018.367    
     64500   297.59734      403.59494      15736.436      0.99043123    -4900.7457      923.45148     -5824.1972      0              0              0              1136.1186      22055.743     -29016.059    
     65000   300.4561       368.32655      15627.596      0.99732913    -4859.4082      932.32225     -5791.7305      0              0              0              1116.2651      22112.172     -29020.168    
     65500   292.35444     -138.6494       15841.957      0.98383409    -4865.487       907.18264     -5772.6697      0              0              0              1099.5489      22141.522     -29013.74     
     66000   299.425        823.30552      15628.431      0.99727586    -4933.2508      929.12274     -5862.3735      0              0              0              1186.0868      21971.706     -29020.167    
     66500   299.66631     -147.27542      15555.62       1.0019438     -4862.98        929.87154     -5792.8515      0              0              0              1069.3264      22151.676     -29013.854    
     67000   289.024        355.82374      15449.713      1.0088121     -4914.9063      896.8482      -5811.7545      0              0              0              1108.3652      22095.579     -29015.698    
     67500   290.80055      111.48994      15230.679      1.0233199     -4875.9431      902.36088     -5778.304       0              0              0              1073.0419      22166.823     -29018.168    
     68000   303.08454      416.37831      15425.47       1.0103976     -4785.1656      940.47837     -5725.644       0              0              0              1088.4855      22203.245     -29017.374    
     68500   286.3244       940.48611      15591.001      0.9996701     -4877.7931      888.47128     -5766.2644      0              0              0              1147.3988      22102.464     -29016.127    
     69000   298.6397      -244.77742      15709.546      0.99212653    -4925.5027      926.68592     -5852.1886      0              0              0              1108.9617      22056.904     -29018.055    
     69500   312.87758      35.652448      15814.741      0.9855272     -4902.4081      970.86639     -5873.2745      0              0              0              1128.5354      22018.961     -29020.771    
     70000   295.83143      10.765337      15983.066      0.97514816    -4786.2467      917.97181     -5704.2185      0              0              0              1092.592       22215.143     -29011.954    
     70500   313.12088      1672.6663      15404.331      1.0117841     -4815.5894      971.62136     -5787.2108      0              0              0              1175.6812      22050.957     -29013.849    
     71000   296.66321      668.8212       15699.907      0.99273566    -4825.0986      920.55283     -5745.6514      0              0              0              1117.1257      22154.239     -29017.016    
     71500   305.51526      531.65466      15587.502      0.99989449    -4844.1337      948.02096     -5792.1547      0              0              0              1124.2897      22099.235     -29015.679    
     72000   292.41585     -5.2856301      15673.107      0.99443317    -4952.9179      907.37318     -5860.2911      0              0              0              1124.2888      22030.835     -29015.415    
     72500   315.10675     -292.398        15893.908      0.98061831    -4823.0736      977.78356     -5800.8572      0              0              0              1094.9719      22122.008     -29017.837    
     73000   297.70265      714.58843      15754.46       0.98929808    -4893.977       923.77826     -5817.7553      0              0              0              1166.1771      22034.984     -29018.916    
     73500   307.75376      597.19199      15706.061      0.99234667    -4886.7722      954.96708     -5841.7393      0              0              0              1159.9449      22014.49      -29016.174    
     74000   289.26408     -453.64353      15864.534      0.982434      -4823.6388      897.59317     -5721.2319      0              0              0              1054.0823      22239.793     -29015.107    
     74500   306.63773      805.8714       15741.346      0.99012224    -4841.0553      951.504       -5792.5593      0              0              0              1148.4319      22073.542     -29014.533    
     75000   300.71566      11.886716      15676.03       0.99424773    -4839.304       933.12768     -5772.4317      0              0              0              1083.6034      22159.886     -29015.921    
     75500   299.59185     -593.222        15725.915      0.99109382    -4903.7922      929.64049     -5833.4327      0              0              0              1067.6527      22115.995     -29017.08     
     76000   302.86139     -80.365665      15852.218      0.98319727    -4882.3834      939.78595     -5822.1693      0              0              0              1107.4223      22087.538     -29017.129    
     76500   299.27255      567.50887      15580.078      1.0003709     -4839.1704      928.64967     -5767.8201      0              0              0              1128.893       22115.578     -29012.291    
     77000   312.01924      398.33462      15579.844      1.000386      -4805.8846      968.20295     -5774.0875      0              0              0              1103.6829      22139.109     -29016.88     
     77500   300.00373      206.49716      15721.683      0.99136062    -4836.8183      930.91856     -5767.7369      0              0              0              1114.513       22132.607     -29014.857    
     78000   304.47575      121.89501      15687.92       0.99349415    -4879.6155      944.79532     -5824.4108      0              0              0              1120.7826      22074.761     -29019.954    
     78500   300.04464      94.968522      15460.935      1.0080799     -4901.6877      931.0455      -5832.7332      0              0              0              1103.5847      22077.855     -29014.173    
     79000   298.7472       721.67516      15301.314      1.018596      -4870.3777      927.01951     -5797.3972      0              0              0              1122.8677      22098.765     -29019.03     
     79500   299.66794     -94.361763      15322.077      1.0172157     -4896.4561      929.87658     -5826.3327      0              0              0              1077.3926      22115.294     -29019.019    
     80000   308.86632      1492.4176      15280.984      1.0199511     -4781.4783      958.41936     -5739.8977      0              0              0              1148.639       22130.484     -29019.021    
     80500   302.1646       768.72022      15374.822      1.013726      -4852.8622      937.62377     -5790.4859      0              0              0              1122.6176      22101.692     -29014.796    
     81000   303.29915     -244.35942      15494.438      1.0059001     -4879.6028      941.14433     -5820.7471      0              0              0              1070.2493      22127.072     -29018.068    
     81500   303.80347      294.1563       15358.878      1.0147784     -4844.605       942.70924     -5787.3142      0              0              0              1088.039       22140.526     -29015.88     
     82000   309.73393      339.43893      15252.303      1.0218691     -4868.6579      961.11158     -5829.7694      0              0              0              1104.511       22084.266     -29018.547    
     82500   290.21871     -821.88435      15321.66       1.0172434     -4948.1325      900.55541     -5848.6879      0              0              0              1046.1753      22123.11      -29017.973    
     83000   302.71156      443.14444      15179.211      1.0267897     -4880.136       939.32102     -5819.457       0              0              0              1096.9705      22101.542     -29017.969    
     83500   296.35557     -595.61361      15483.359      1.0066199     -4895.8548      919.59822     -5815.4531      0              0              0              1057.129       22145.815     -29018.397    
     84000   299.7658      -75.473555      15745.491      0.9898616     -4909.2854      930.18024     -5839.4657      0              0              0              1121.0118      22056.797     -29017.274    
     84500   304.85747     -633.86586      15806.195      0.98606002    -4812.3222      945.97983     -5758.302       0              0              0              1053.6052      22203.547     -29015.454    
     85000   300.81852      837.33433      15642.859      0.99635605    -4877.0836      933.44685     -5810.5305      0              0              0              1164.9041      22044.289     -29019.724    
     85500   291.58681      868.22166      15783.493      0.98747835    -4996.5817      904.80064     -5901.3823      0              0              0              1215.0438      21897.444     -29013.87     
     86000   309.27979     -721.9403       15874.604      0.98181079    -4862.7899      959.70239     -5822.4923      0              0              0              1065.3525      22129.858     -29017.702    
     86500   303.71778     -439.76818      15852.388      0.9831867     -4870.3386      942.44334     -5812.7819      0              0              0              1076.3708      22129.238     -29018.39     
     87000   297.69476      76.306821      15856.383      0.982939      -4942.0018      923.75377     -5865.7556      0              0              0              1143.2529      22010.013     -29019.022    
     87500   292.52037     -51.249006      15983.405      0.97512747    -4918.3705      907.6975      -5826.068       0              0              0              1130.49        22061.333     -29017.891    
     88000   298.19515      876.24457      15779.737      0.98771335    -4922.9925      925.3065      -5848.299       0              0              0              1190.2153      21976.547     -29015.061    
     88500   298.3322      -913.16719      15842.85       0.98377861    -4870.1331      925.73175     -5795.8649      0              0              0              1045.8975      22173.554     -29015.316    
     89000   301.69605      772.84255      15465.701      1.0077692     -4961.0626      936.16986     -5897.2324      0              0              0              1187.8469      21933.411     -29018.49     
     89500   302.95357     -189.25125      15996.871      0.97430661    -4843.7428      940.07199     -5783.8147      0              0              0              1106.3161      22126.842     -29016.973    
     90000   296.09358     -101.86379      15802.713      0.98627729    -4864.2454      918.78525     -5783.0306      0              0              0              1087.0023      22147.794     -29017.827    
     90500   294.84669     -368.77612      15837.897      0.9840863     -4904.7055      914.91614     -5819.6216      0              0              0              1097.8406      22099.629     -29017.091    
     91000   311.39846     -312.32132      15645.575      0.99618309    -4822.7695      966.27667     -5789.0461      0              0              0              1076.8131      22151.066     -29016.925    
     91500   297.92749     -156.59907      15542.225      1.0028073     -4885.1997      924.47592     -5809.6757      0              0              0              1085.1443      22118.043     -29012.863    
     92000   291.84315     -201.48463      15684.664      0.99370043    -4873.1869      905.59609     -5778.783       0              0              0              1088.4769      22148.334     -29015.594    
     92500   283.33966     -1018.9598      15749.541      0.98960709    -4887.8997      879.20955     -5767.1092      0              0              0              1031.3695      22218.482     -29016.96     
     93000   296.7476      -1015.1411      15851.709      0.98322879    -4884.5162      920.81472     -5805.3309      0              0              0              1043.5165      22168.538     -29017.385    
     93500   291.43083      34.364753      15431.982      1.0099712     -4872.2277      904.31666     -5776.5443      0              0              0              1075.7449      22163.361     -29015.65     
     94000   311.46765      1180.9572      15520.734      1.0041959     -4806.768       966.49136     -5773.2594      0              0              0              1154.729       22088.052     -29016.04     
     94500   288.1371       461.83102      15684.935      0.99368324    -4919.1862      894.09613     -5813.2824      0              0              0              1138.1066      22062.579     -29013.968    
     95000   306.09678     -42.455453      15751.909      0.98945828    -4832.0374      949.82544     -5781.8628      0              0              0              1090.2553      22139.327     -29011.445    
     95500   293.69447     -89.031038      15592.919      0.99954711    -4944.3804      911.34077     -5855.7212      0              0              0              1124.7047      22035.179     -29015.605    
     96000   296.20942     -615.24052      15428.765      1.0101818     -4894.8495      919.14473     -5813.9942      0              0              0              1052.187       22149.084     -29015.266    
     96500   300.54907     -753.94906      15642.018      0.99640965    -4914.5412      932.61076     -5847.152       0              0              0              1070.5757      22096.873     -29014.6      
     97000   285.98414      853.25581      15433.343      1.0098821     -4987.1528      887.41545     -5874.5683      0              0              0              1181.4926      21960.246     -29016.307    
     97500   294.415       -246.26686      15429.904      1.0101072     -4861.7168      913.57661     -5775.2935      0              0              0              1056.4652      22184.56      -29016.319    
     98000   300.43495     -1136.0339      15602.199      0.9989526     -4873.3316      932.25664     -5805.5882      0              0              0              1015.314       22193.854     -29014.756    
     98500   293.64721     -232.34151      15471.825      1.0073703     -4874.5066      911.19412     -5785.7007      0              0              0              1070.6136      22158.109     -29014.424    
     99000   288.22346     -47.502217      15491.218      1.0061092     -4889.1111      894.36411     -5783.4753      0              0              0              1071.7315      22160.981     -29016.187    
     99500   316.36755      119.21748      15530.459      1.0035671     -4795.4041      981.69588     -5777.1         0              0              0              1080.3022      22159.618     -29017.02     
    100000   318.66655      359.99805      15723.707      0.99123301    -4776.9969      988.82972     -5765.8266      0              0              0              1111.566       22137.619     -29015.012    
    100500   291.73711     -523.53361      15874.016      0.98184712    -4891.4852      905.26702     -5796.7522      0              0              0              1074.3937      22146.139     -29017.285    
    101000   299.28402      303.61237      15570.384      1.0009938     -4936.9579      928.68529     -5865.6432      0              0              0              1147.1349      22004.047     -29016.825    
    101500   299.01225     -412.37519      15675.034      0.99431087    -4909.2145      927.84197     -5837.0565      0              0              0              1080.8         22101.017     -29018.873    
    102000   315.17306      117.27545      15577.066      1.0005644     -4868.3565      977.98933     -5846.3459      0              0              0              1115.714       22052.807     -29014.866    
    102500   288.25954     -440.37489      15662.449      0.99510983    -4833.8044      894.47604     -5728.2804      0              0              0              1030.5079      22256.991     -29015.78     
    103000   299.93754      1080.7686      15876.139      0.98171586    -4911.1407      930.71318     -5841.8539      0              0              0              1211.1544      21965.635     -29018.644    
    103500   290.63007      174.36119      15869.479      0.98212783    -4846.1005      901.83187     -5747.9323      0              0              0              1104.833       22163.083     -29015.848    
    104000   300.26224      356.83518      15786.75       0.9872746     -4838.7756      931.72072     -5770.4964      0              0              0              1122.9751      22123.728     -29017.199    
    104500   296.25047     -524.83012      15785.039      0.98738163    -4898.3447      919.27211     -5817.6168      0              0              0              1082.3991      22117.124     -29017.14     
    105000   297.86882      398.43237      15547.006      1.002499      -4944.2423      924.29387     -5868.5362      0              0              0              1148.3039      21999.599     -29016.439    
    105500   295.32281     -877.56838      16007.607      0.97365318    -4826.7599      916.39355     -5743.1535      0              0              0              1036.7537      22236.311     -29016.218    
    106000   301.94324      222.60497      15536.642      1.0031677     -4861.9092      936.93689     -5798.846       0              0              0              1107.4523      22110.444     -29016.742    
    106500   296.6158      -366.76385      15674.513      0.99434397    -4912.5656      920.40573     -5832.9713      0              0              0              1085.6729      22098.828     -29017.473    
    107000   297.44248     -560.0884       15802.548      0.98628763    -4968.0318      922.97095     -5891.0028      0              0              0              1116.6002      22010.719     -29018.322    
    107500   298.27224      120.36853      15692.434      0.99320838    -4951.8641      925.54569     -5877.4097      0              0              0              1139.0739      22001.596     -29018.079    
    108000   299.59922      886.01012      15553.379      1.0020882     -4924.2292      929.66334     -5853.8926      0              0              0              1181.7701      21981.097     -29016.759    
    108500   308.97538      86.322778      15585.636      1.0000142     -4946.3313      958.75779     -5905.0891      0              0              0              1136.5759      21973.722     -29015.387    
    109000   308.42851      943.02959      15462.738      1.0079623     -4856.314       957.06085     -5813.3748      0              0              0              1144.3891      22057.21      -29014.974    
    109500   313.27296      341.63351      15851.268      0.98325616    -4850.4852      972.09329     -5822.5785      0              0              0              1155.6898      22038.979     -29017.247    
    110000   311.79548      321.93637      15709.068      0.99215671    -4836.2192      967.50862     -5803.7279      0              0              0              1129.9296      22083.963     -29017.621    
    110500   316.10673     -46.872004      15476.775      1.0070481     -4818.7277      980.88653     -5799.6142      0              0              0              1082.3527      22131.873     -29013.839    
    111000   289.24195     -582.09664      15803.5        0.9862282     -4873.8962      897.52449     -5771.4207      0              0              0              1057.5101      22189.599     -29018.529    
    111500   296.24935      313.6685       15786.67       0.98727962    -4856.5401      919.26861     -5775.8087      0              0              0              1126.9444      22115.973     -29018.726    
    112000   303.33429      591.88953      15512.617      1.0047213     -4825.9508      941.25336     -5767.2042      0              0              0              1115.9618      22132.269     -29015.435    
    112500   305.36847      263.89324      15638.209      0.99665234    -4849.1483      947.56547     -5796.7138      0              0              0              1108.7758      22109.741     -29015.231    
    113000   301.89775     -115.29211      15507.879      1.0050283     -4847.9613      936.79573     -5784.757       0              0              0              1078.7708      22153.006     -29016.533    
    113500   293.58102     -65.461427      15401.116      1.0119953     -4935.0189      910.98874     -5846.0076      0              0              0              1095.5058      22077.941     -29019.454    
    114000   305.8706      -199.43075      15647.807      0.99604096    -4893.5078      949.12359     -5842.6314      0              0              0              1111.2691      22063.454     -29017.354    
    114500   300.8741      -827.6065       15643.601      0.99630879    -4882.1333      933.61933     -5815.7526      0              0              0              1045.2033      22158.507     -29019.463    
    115000   290.17907     -300.89457      15745.482      0.98986215    -4869.5558      900.43242     -5769.9882      0              0              0              1082.9377      22160.834     -29013.76     
    115500   303.15862      243.73869      15458.557      1.0082349     -4878.8569      940.70825     -5819.5652      0              0              0              1116.5109      22081.876     -29017.952    
    116000   314.38753      153.44833      15568.399      1.0011214     -4843.2926      975.55183     -5818.8444      0              0              0              1102.8199      22096.254     -29017.918    
    116500   296.90278      254.39075      15610.902      0.99839565    -4913.2671      921.29623     -5834.5633      0              0              0              1127.9801      22053.722     -29016.265    
    117000   303.34932      129.3756       15411.446      1.011317      -4961.4315      941.30001     -5902.7315      0              0              0              1127.1839      21989.27      -29019.186    
    117500   298.1089       401.41103      15765.124      0.98862892    -4867           925.03884     -5792.0389      0              0              0              1131.2246      22094.153     -29017.417    
    118000   302.55689     -123.26227      15837.778      0.98409366    -4954.9689      938.84108     -5893.81        0              0              0              1143.2824      21975.658     -29012.75     
    118500   303.56426     -285.60181      15646.175      0.99614486    -4937.4154      941.96695     -5879.3823      0              0              0              1117.373       22021.603     -29018.359    
    119000   303.56482      346.83329      15557.494      1.0018231     -4942.8447      941.96869     -5884.8133      0              0              0              1145.796       21988.632     -29019.241    
    119500   299.50262     -208.87057      15619.196      0.99786552    -4945.8454      929.36359     -5875.209       0              0              0              1126.8794      22014.99      -29017.078    
    120000   294.61984     -1182.9637      15696.718      0.9929373     -4928.3203      914.2122      -5842.5325      0              0              0              1033.1229      22143.894     -29019.549    
    120500   288.62713     -192.76734      15488.654      1.0062757     -4908.776       895.61671     -5804.3927      0              0              0              1084.1906      22129.836     -29018.419    
    121000   289.42987     -351.26981      15722.014      0.99133975    -4974.4928      898.10763     -5872.6004      0              0              0              1112.9911      22030.734     -29016.326    
    121500   305.40174     -735.7793       15741.771      0.99009553    -4838.6816      947.66872     -5786.3503      0              0              0              1048.639       22180.59      -29015.58     
    122000   291.11994      444.65713      15510.902      1.0048324     -4901.0588      903.35194     -5804.4107      0              0              0              1120.7756      22092.685     -29017.871    
    122500   304.91667      449.60421      15554.118      1.0020406     -4910.9979      946.1635      -5857.1614      0              0              0              1141.456       22019.605     -29018.222    
    123000   308.78397     -167.70955      15599.226      0.99914296    -4839.2334      958.16383     -5797.3972      0              0              0              1076.8285      22140.52      -29014.746    
    123500   313.47694      32.31178       15241.158      1.0226163     -4855.9956      972.72624     -5828.7218      0              0              0              1074.8893      22115.239     -29018.85     
    124000   304.71138      95.704801      15389.544      1.0127562     -4869.2384      945.52649     -5814.7649      0              0              0              1091.2495      22111.936     -29017.951    
    124500   295.87884      373.27966      15332.217      1.016543      -4911.6788      918.11892     -5829.7977      0              0              0              1115.9108      22071.268     -29016.976    
    125000   296.27644      95.324685      15533.291      1.0033841     -4907.7416      919.35268     -5827.0943      0              0              0              1110.7225      22077.256     -29015.073    
    125500   302.66515      424.92404      15512.221      1.004747      -4846.0418      939.177       -5785.2188      0              0              0              1115.7634      22115.842     -29016.825    
    126000   304.15656      374.197        15323.736      1.0171056     -4904.0981      943.80487     -5847.9029      0              0              0              1122.5959      22043.315     -29013.814    
    126500   299.64153      342.25684      15209.234      1.0247628     -4865.4761      929.79464     -5795.2708      0              0              0              1090.734       22130.347     -29016.351    
    127000   290.87517     -114.36773      15486.813      1.0063954     -4886.8055      902.59241     -5789.3979      0              0              0              1070.0139      22157.369     -29016.78     
    127500   309.95706      1241.7734      15062.906      1.0347178     -4832.8338      961.80396     -5794.6377      0              0              0              1130.9457      22093.791     -29019.374    
    128000   302.11169     -586.47657      15438.191      1.009565      -4915.135       937.45961     -5852.5946      0              0              0              1060.7873      22103.289     -29016.671    
    128500   321.97881      528.18295      15394.636      1.0124213     -4750.2443      999.10774     -5749.352       0              0              0              1085.7127      22178.073     -29013.137    
    129000   295.19405     -2079.5351      15826.429      0.98479938    -4891.9442      915.99401     -5807.9382      0              0              0              965.69432      22242.745     -29016.378    
    129500   295.7889       514.36634      15189.961      1.026063      -4919.5871      917.83985     -5837.4269      0              0              0              1112.4756      22069.483     -29019.386    
    130000   294.02601      636.49068      15464.672      1.0078363     -4857.5688      912.36955     -5769.9384      0              0              0              1127.2354      22120.759     -29017.933    
    130500   304.68424      546.03647      15532.046      1.0034645     -4880.8648      945.44228     -5826.3071      0              0              0              1136.4874      22053.246     -29016.041    
    131000   291.6195      -323.83633      15693.877      0.99311706    -4869.123       904.90211     -5774.0251      0              0              0              1070.0515      22170.626     -29014.703    
    131500   294.16261     -1110.8848      15839.725      0.98397269    -4861.0527      912.79343     -5773.8462      0              0              0              1021.5981      22221.606     -29017.05     
    132000   295.97637      577.80263      15617.271      0.99798852    -4880.6211      918.42155     -5799.0427      0              0              0              1135.4788      22082.697     -29017.218    
    132500   294.99361     -155.15373      15525.439      1.0038916     -4950.2323      915.37203     -5865.6043      0              0              0              1106.3859      22045.421     -29017.411    
    133000   307.27253      390.55215      15587.402      0.9999009     -4905.7114      953.47382     -5859.1852      0              0              0              1148.0209      22011.684     -29018.89     
    133500   301.06367      525.22905      15756.65       0.98916059    -4801.9582      934.20758     -5736.1658      0              0              0              1098.2719      22182.091     -29016.529    
    134000   312.61457      82.048989      15633.196      0.99697187    -4822.3066      970.05029     -5792.3569      0              0              0              1102.7891      22119.956     -29015.102    
    134500   291.82223      592.62165      15663.01       0.99507423    -4864.838       905.53118     -5770.3692      0              0              0              1129.0603      22116.465     -29015.895    
    135000   298.37476      113.46842      15750.356      0.98955588    -4858.198       925.86382     -5784.0618      0              0              0              1098.7385      22135.046     -29017.847    
    135500   300.42547     -909.63264      15551.911      1.0021827     -4854.3957      932.22723     -5786.6229      0              0              0              1027.6321      22201.425     -29015.68     
    136000   281.59575     -64.107769      15561.138      1.0015885     -4943.0962      873.79817     -5816.8944      0              0              0              1101.1748      22097.944     -29016.013    
    136500   311.82981      263.34287      16001.066      0.97405115    -4807.5862      967.61517     -5775.2014      0              0              0              1124.4328      22120.38      -29020.014    
    137000   317.77356      84.218524      15566.381      1.0012511     -4866.9313      986.05873     -5852.9901      0              0              0              1109.3568      22058.333     -29020.68     
    137500   306.18934      188.19959      15717.72       0.99161059    -4827.0603      950.11265     -5777.1729      0              0              0              1096.0133      22143.164     -29016.35     
    138000   300.49579     -586.65071      15844.464      0.98367839    -4837.1681      932.44543     -5769.6136      0              0              0              1051.8034      22196.251     -29017.668    
    138500   304.37536      58.527294      15775.497      0.98797884    -4927.166       944.48381     -5871.6498      0              0              0              1136.5669      22010.801     -29019.018    
    139000   295.85636     -318.87996      15898.681      0.98032388    -4864.0342      918.04915     -5782.0834      0              0              0              1085.239       22150.744     -29018.067    
    139500   283.92156      302.27753      15554.015      1.0020472     -4991.9106      881.01522     -5872.9258      0              0              0              1148.155       21991.506     -29012.586    
    140000   303.12043     -401.91672      15771.954      0.98820075    -4814.5662      940.58974     -5755.1559      0              0              0              1058.9801      22203.824     -29017.96     
    140500   306.59092     -258.56019      15714.5        0.99181377    -4859.8562      951.35874     -5811.2149      0              0              0              1080.4471      22125.369     -29017.032    
    141000   294.32591      93.420123      15813.798      0.98558598    -4910.569       913.30014     -5823.8691      0              0              0              1136.4398      22055.716     -29016.025    
    141500   297.36985      874.51032      15534.071      1.0033337     -4941.7559      922.74557     -5864.5014      0              0              0              1179.3301      21971.668     -29015.499    
    142000   306.83143     -7.6904168      15849.255      0.98338105    -4773.164       952.10507     -5725.2691      0              0              0              1080.181       22210.352     -29015.802    
    142500   293.52283     -565.87034      15864.388      0.98244299    -4865.9011      910.80818     -5776.7093      0              0              0              1064.7564      22173.333     -29014.798    
    143000   289.70622      516.57774      15375.631      1.0136727     -4935.6428      898.96515     -5834.608       0              0              0              1123.7794      22054.61      -29012.997    
    143500   296.86794      357.20148      15458.841      1.0082164     -4887.9005      921.18813     -5809.0886      0              0              0              1112.985       22094.816     -29016.89     
    144000   299.20773      172.94877      15499.814      1.0055512     -4888.3902      928.44855     -5816.8387      0              0              0              1102.5903      22096.852     -29016.281    
    144500   296.41331      1371.2144      15491.574      1.0060861     -4858.7011      919.77739     -5778.4785      0              0              0              1169.7379      22066.737     -29014.954    
    145000   293.08408     -72.567864      15810.955      0.98576319    -4887.4503      909.44672     -5796.897       0              0              0              1100.1015      22121.451     -29018.449    
    145500   296.05869      463.0589       15379.628      1.0134092     -4933.6292      918.677       -5852.3062      0              0              0              1132.7148      22035.7       -29020.721    
    146000   311.28029      274.74297      15597.742      0.99923807    -4792.2593      965.90999     -5758.1693      0              0              0              1073.1954      22186.364     -29017.728    
    146500   282.73504      125.98385      15523.19       1.004037      -4888.606       877.3334      -5765.9394      0              0              0              1089.1901      22161.201     -29016.33     
    147000   294.21052     -551.64793      15537.737      1.003097      -4870.8278      912.9421      -5783.7699      0              0              0              1044.6196      22190.522     -29018.912    
    147500   291.11298      1447.2477      15359.842      1.0147147     -4912.33        903.33034     -5815.6604      0              0              0              1181.0658      22018.411     -29015.138    
    148000   300.94103      148.66108      15665.376      0.99492394    -4766.2712      933.82702     -5700.0982      0              0              0              1075.7133      22238.466     -29014.277    
    148500   293.84924     -327.7475       15466.765      1.0076999     -4834.1187      911.82102     -5745.9398      0              0              0              1029.8904      22240.583     -29016.413    
    149000   294.01187     -190.3213       15701.18       0.99265514    -4881.4154      912.32567     -5793.7411      0              0              0              1089.0363      22134.232     -29017.009    
    149500   296.83357      559.02788      15431.173      1.0100241     -4843.3048      921.08148     -5764.3863      0              0              0              1108.4403      22143.099     -29015.925    
    150000   304.0184      -1038.5149      15654.141      0.995638      -4874.7311      943.37618     -5818.1073      0              0              0              1021.4167      22172.784     -29012.308    
    150500   305.45455     -523.26052      15759.283      0.9889953     -4881.3153      947.83258     -5829.1479      0              0              0              1083.45        22105.056     -29017.654    
    151000   311.76727      109.07794      15386.505      1.0129563     -4911.2125      967.42109     -5878.6336      0              0              0              1116.4868      22024.873     -29019.994    
    151500   290.96935     -157.20851      15681.528      0.99389915    -4856.6433      902.88466     -5759.528       0              0              0              1075.9236      22179.114     -29014.565    
    152000   300.39787      506.07994      15328.907      1.0167625     -4831.3609      932.14157     -5763.5025      0              0              0              1095.4169      22158.527     -29017.447    
    152500   296.62036      733.20178      15309.326      1.0180629     -4847.6402      920.41988     -5768.0601      0              0              0              1112.6892      22137.486     -29018.235    
    153000   297.36981      122.64235      15434.591      1.0098005     -4861.8717      922.74545     -5784.6172      0              0              0              1096.4905      22137.809     -29018.916    
    153500   305.38908      755.41161      15403.659      1.0118283     -4836.9309      947.62942     -5784.5603      0              0              0              1131.5615      22101.854     -29017.976    
    154000   302.50352      137.04562      15629.147      0.99723019    -4860.1674      938.67544     -5798.8429      0              0              0              1107.2638      22108.695     -29014.801    
    154500   305.92042      241.84964      15817.556      0.98535177    -4800.5597      949.27818     -5749.8379      0              0              0              1110.8811      22150.61      -29011.329    
    155000   310.67412      1123.6186      15301.704      1.0185701     -4917.2864      964.02901     -5881.3154      0              0              0              1184.5816      21950.58      -29016.477    
    155500   303.30927     -424.36233      15749.882      0.98958562    -4852.8063      941.17572     -5793.9821      0              0              0              1071.3865      22151.984     -29017.352    
    156000   300.296        180.46438      15654.772      0.99559785    -4935.9429      931.82547     -5867.7684      0              0              0              1140.5084      22004.28      -29012.557    
    156500   296.25219      202.62384      15588.502      0.99983034    -4914.1657      919.27743     -5833.4431      0              0              0              1121.4556      22059.394     -29014.293    
    157000   302.8266       563.83434      15770.509      0.98829135    -4885.0855      939.67797     -5824.7635      0              0              0              1159.0082      22032.49      -29016.261    
    157500   297.13002      1033.7035      15785.433      0.98735699    -4900.8108      922.00137     -5822.8121      0              0              0              1198.4676      21997.989     -29019.269    
    158000   301.4857       120.43716      15844.29       0.9836892     -4872.0342      935.51715     -5807.5514      0              0              0              1127.6951      22081.679     -29016.926    
    158500   279.01452      71.564314      15521.674      1.0041351     -4953.3298      865.78854     -5819.1184      0              0              0              1111.4473      22086.295     -29016.861    
    159000   293.42298      18.356067      15720.754      0.9914192     -4916.7303      910.49833     -5827.2286      0              0              0              1123.0246      22068.161     -29018.415    
    159500   307.64831     -52.2295        15675.306      0.99429366    -4839.2375      954.63987     -5793.8774      0              0              0              1088.2257      22134.095     -29016.198    
    160000   296.74789     -586.88576      15619.405      0.99785218    -4892.2452      920.81562     -5813.0608      0              0              0              1060.167       22143.744     -29016.972    
    160500   297.36629     -206.96485      15802.818      0.98627077    -4881.1197      922.73453     -5803.8542      0              0              0              1082.947       22128.505     -29015.306    
    161000   304.36011      258.89312      15774.468      0.9880433     -4910.2028      944.43651     -5854.6393      0              0              0              1136.7097      22021.295     -29012.644    
    161500   300.63125      223.52131      15598.718      0.99917553    -4863.7743      932.86576     -5796.6401      0              0              0              1110.3361      22104.594     -29011.571    
    162000   300.56405      101.15245      15566.199      1.0012629     -4864.0805      932.65724     -5796.7377      0              0              0              1104.741       22113.786     -29015.265    
    162500   312.2476      -35.302533      15741.812      0.99009295    -4836.9985      968.91158     -5805.9101      0              0              0              1101.5526      22107.125     -29014.588    
    163000   304.4421      -367.29688      15725.431      0.99112431    -4843.6601      944.69092     -5788.351       0              0              0              1072.5984      22153.944     -29014.893    
    163500   289.48267      549.47592      15800.565      0.98641141    -4907.8761      898.27146     -5806.1476      0              0              0              1153.0457      22059.922     -29019.115    
    164000   296.84389     -65.021152      15542.963      1.0027597     -4890.095       921.1135      -5811.2085      0              0              0              1090.2202      22111.245     -29012.674    
    164500   293.76497      107.61856      15544.6        1.0026541     -4890.1456      911.55955     -5801.7051      0              0              0              1105.4431      22108.314     -29015.462    
    165000   301.05843     -1299.6182      15972.69       0.97578159    -4856.46        934.1913      -5790.6513      0              0              0              1029.5353      22195.476     -29015.662    
    165500   294.59144      785.40543      15482.288      1.0066895     -4908.039       914.1241      -5822.1631      0              0              0              1155.5749      22038.882     -29016.62     
    166000   302.12227     -327.37129      15680.092      0.99399017    -4843.0353      937.49245     -5780.5277      0              0              0              1075.8922      22162.961     -29019.381    
    166500   285.80303     -585.24307      15399.657      1.0120912     -4991.132       886.85344     -5877.9854      0              0              0              1080.7518      22055.913     -29014.65     
    167000   286.19204     -625.77312      15504.691      1.0052349     -4935.5844      888.06055     -5823.645       0              0              0              1061.165       22132.05      -29016.86     
    167500   303.80217     -64.550799      15675.535      0.99427911    -4852.5638      942.70519     -5795.269       0              0              0              1096.2851      22123.488     -29015.042    
    168000   307.09233      615.43538      15656.213      0.99550623    -4822.1914      952.91464     -5775.106       0              0              0              1126.1148      22113.483     -29014.704    
    168500   292.94307     -778.50924      15811.927      0.9857026     -4905.6298      909.00917     -5814.639       0              0              0              1073.5922      22129.627     -29017.858    
    169000   301.36242      271.41805      15581.754      1.0002633     -4807.6758      935.1346      -5742.8104      0              0              0              1086.4092      22187.446     -29016.665    
    169500   305.29757      429.94267      15498.183      1.0056571     -4885.0032      947.34546     -5832.3486      0              0              0              1113.9558      22069.096     -29015.4      
    170000   299.73416     -527.44373      15675.94       0.99425341    -4835.9712      930.08206     -5766.0532      0              0              0              1039.6755      22210.316     -29016.044    
    170500   302.95408      207.19385      15617.584      0.9979685     -4899.0013      940.07356     -5839.0749      0              0              0              1121.2021      22057.705     -29017.982    
    171000   304.23332     -236.25893      15780.871      0.98764237    -4858.468       944.04307     -5802.511       0              0              0              1094.038       22115.562     -29012.111    
    171500   298.05257      665.44754      15723.032      0.99127556    -4879.851       924.86406     -5804.7151      0              0              0              1158.2415      22054.674     -29017.631    
    172000   285.46518     -60.491253      15532.186      1.0034555     -4924.1322      885.80511     -5809.9373      0              0              0              1095.8457      22107.41      -29013.193    
    172500   306.1251       178.50696      15603.056      0.9988977     -4831.5189      949.91332     -5781.4323      0              0              0              1090.0888      22144.605     -29016.126    
    173000   295.1639       92.711896      15804.486      0.98616667    -4890.543       915.90046     -5806.4435      0              0              0              1129.6889      22081.63      -29017.763    
    173500   311.8634      -271.96881      15853.288      0.98313091    -4893.3864      967.71937     -5861.1058      0              0              0              1109.3479      22048.787     -29019.24     
    174000   291.77518     -625.86218      15854.458      0.98305833    -4884.8782      905.38519     -5790.2634      0              0              0              1057.4925      22167.605     -29015.361    
    174500   300.74668     -278.3847       15388.155      1.0128477     -4858.4144      933.22394     -5791.6383      0              0              0              1060.8917      22165.985     -29018.515    
    175000   297.38797      1035.3825      15271.03       1.020616      -4900.4273      922.8018      -5823.2291      0              0              0              1145.1276      22045.254     -29013.611    
    175500   310.14851      690.94956      15476.469      1.007068      -4887.8575      962.39805     -5850.2555      0              0              0              1153.1047      22013.149     -29016.509    
    176000   297.30772     -118.89333      15640.766      0.99648936    -4876.1004      922.55278     -5798.6532      0              0              0              1094.3906      22122.258     -29015.302    
    176500   297.38854     -56.659696      15795.149      0.98674963    -4835.2369      922.80356     -5758.0405      0              0              0              1090.0248      22169.522     -29017.587    
    177000   316.407        313.76097      15461.325      1.0080545     -4799.1486      981.81827     -5780.9669      0              0              0              1088.8519      22144.532     -29014.351    
    177500   312.44634      210.56093      15675.423      0.99428623    -4846.5483      969.52826     -5816.0766      0              0              0              1120.7724      22077.754     -29014.603    
    178000   294.99852     -504.99141      15974.349      0.97568025    -4851.0351      915.38727     -5766.4223      0              0              0              1071.1012      22179.445     -29016.968    
    178500   301.81971     -32.783432      15784.434      0.98741943    -4852.5186      936.55358     -5789.0722      0              0              0              1096.0702      22132.362     -29017.504    
    179000   291.90182      855.24387      15378.17       1.0135053     -4882.9166      905.77814     -5788.6947      0              0              0              1125.7809      22099.974     -29014.449    
    179500   302.21901     -429.65152      15583.502      1.0001511     -4860.2022      937.79262     -5797.9949      0              0              0              1051.6551      22164.87      -29014.52     
    180000   301.03225     -1052.0715      15719.968      0.99146878    -4832.2776      934.11007     -5766.3877      0              0              0              1009.6303      22241.915     -29017.933    
    180500   309.0891      -798.5309       15704.732      0.99243063    -4862.2115      959.11066     -5821.3222      0              0              0              1046.8669      22150.34      -29018.529    
    181000   292.96556     -81.921923      15685.643      0.99363837    -4855.9159      909.07894     -5764.9948      0              0              0              1081.0616      22164.009     -29010.066    
    181500   305.04757     -157.87549      15915.945      0.97926054    -4888.2733      946.5697      -5834.843       0              0              0              1104.195       22078.903     -29017.941    
    182000   299.35377     -510.65057      15770.69       0.98827995    -4912.646       928.9017      -5841.5477      0              0              0              1083.0762      22090.036     -29014.66     
    182500   296.47213     -837.67337      15931.207      0.97832242    -4932.0919      919.95993     -5852.0518      0              0              0              1091.1239      22073.762     -29016.937    
    183000   296.7708      -135.70802      15676.78       0.99420015    -4880.0672      920.88668     -5800.9539      0              0              0              1101.792       22115.948     -29018.693    
    183500   303.1649      -1137.6755      15743.47       0.9899887     -4907.5998      940.72774     -5848.3275      0              0              0              1046.974       22122.589     -29017.891    
    184000   299.69832     -416.97684      15686.945      0.99355594    -4870.8155      929.97085     -5800.7863      0              0              0              1079.568       22135.02      -29015.375    
    184500   297.00183     -636.39259      15592.025      0.99960443    -4897.8673      921.60358     -5819.4709      0              0              0              1053.7663      22138.86      -29012.098    
    185000   314.41573      502.07271      15492.175      1.006047      -4793.2509      975.63931     -5768.8902      0              0              0              1101.9361      22144.737     -29015.563    
    185500   298.68216     -374.96309      15561.533      1.0015631     -4857.9144      926.8177      -5784.7321      0              0              0              1051.4922      22180.624     -29016.848    
    186000   292.51732     -467.11615      15700.11       0.99272283    -4897.3635      907.68803     -5805.0515      0              0              0              1078.0485      22133.31      -29016.41     
    186500   298.76778     -67.771685      16035.78       0.97194255    -4891.321       927.08339     -5818.4044      0              0              0              1122.4631      22076.099     -29016.966    
    187000   292.01642     -337.62791      15982.399      0.97518884    -4956.1375      906.13374     -5862.2713      0              0              0              1122.9429      22032.192     -29017.406    
    187500   288.25572      1019.0931      15757.377      0.98911496    -4931.3688      894.4642      -5825.833       0              0              0              1197.3844      21991.73      -29014.947    
    188000   300.54069     -1042.0322      16009.569      0.97353385    -4867.7365      932.58474     -5800.3213      0              0              0              1042.9328      22174.571     -29017.825    
    188500   301.91734      199.33456      15851.65       0.9832325     -4874.6032      936.85654     -5811.4597      0              0              0              1129.1088      22076.188     -29016.756    
    189000   289.30351     -103.63494      15627.327      0.99734633    -4892.4827      897.71553     -5790.1982      0              0              0              1080.9844      22147.804     -29018.986    
    189500   296.61928      291.24786      15551.923      1.002182      -4881.1697      920.41653     -5801.5862      0              0              0              1116.9852      22098.237     -29016.808    
    190000   303.14453     -1094.3201      15926.313      0.97862307    -4824.2881      940.66454     -5764.9527      0              0              0              1039.9875      22211.141     -29016.081    
    190500   292.35231     -583.85974      15758.486      0.98904533    -4921.2889      907.17601     -5828.4649      0              0              0              1081.2124      22105.65      -29015.328    
    191000   303.19619      635.50402      15613.523      0.99822808    -4900.4464      940.82483     -5841.2713      0              0              0              1160.8156      22016.322     -29018.409    
    191500   299.86936     -752.8281       15795.644      0.9867187     -4924.698       930.5016      -5855.1996      0              0              0              1085.9455      22075.476     -29016.621    
    192000   302.27901      333.32413      15624.27       0.99754149    -4940.0831      937.97879     -5878.0619      0              0              0              1159.3352      21979.507     -29016.904    
    192500   318.12462     -22.698154      15795.878      0.98670408    -4872.4393      987.14811     -5859.5874      0              0              0              1125.6569      22032.828     -29018.072    
    193000   309.97215     -1162.8358      15857.272      0.98288388    -4863.7718      961.85079     -5825.6226      0              0              0              1034.8124      22154.497     -29014.932    
    193500   298.00898      32.421036      15652.165      0.99576364    -4937.7796      924.72879     -5862.5084      0              0              0              1117.0042      22038.328     -29017.84     
    194000   292.03332     -272.7734       15601.239      0.99901404    -4884.1266      906.18619     -5790.3128      0              0              0              1073.7833      22151.49      -29015.586    
    194500   303.42861     -288.02191      15687.373      0.99352883    -4878.924       941.54604     -5820.4701      0              0              0              1092.8958      22098.944     -29012.31     
    195000   312.03224     -389.82517      15881.442      0.98138801    -4834.203       968.24331     -5802.4463      0              0              0              1082.438       22133.636     -29018.52     
    195500   306.62518     -317.49122      15592.413      0.99957955    -4894.2935      951.46507     -5845.7586      0              0              0              1091.4885      22078.464     -29015.711    
    196000   289.09408     -12.761608      15759.637      0.98897311    -4900.9278      897.06567     -5797.9935      0              0              0              1120.0353      22098.152     -29016.18     
    196500   282.9002      -715.99701      15815.682      0.98546855    -4934.3383      877.84591     -5812.1842      0              0              0              1056.9292      22146.068     -29015.182    
    197000   287.69558      918.21341      15455.741      1.0084186     -4913.3944      892.72607     -5806.1204      0              0              0              1151.4112      22060.802     -29018.334    
    197500   294.19518     -647.69326      15731.955      0.99071331    -4876.167       912.89449     -5789.0615      0              0              0              1050.7521      22174.48      -29014.294    
    198000   301.03867     -142.78602      15367.247      1.0142257     -4856.9307      934.13001     -5791.0607      0              0              0              1062.3043      22163.359     -29016.724    
    198500   297.7312      -189.63431      15347.678      1.0155189     -4889.3459      923.86684     -5813.2128      0              0              0              1063.9475      22138.811     -29015.971    
    199000   297.91471     -197.93069      15509.147      1.0049461     -4893.4594      924.43627     -5817.8957      0              0              0              1087.1376      22111.162     -29016.195    
    199500   318.61113      148.48943      15411.575      1.0113085     -4862.1076      988.65776     -5850.7654      0              0              0              1110.1098      22054.865     -29015.741    
    200000   309.61865      75.775759      15568.233      1.0011321     -4868.9649      960.75387     -5829.7187      0              0              0              1103.8025      22084.477     -29017.998    
    200500   308.42792     -382.1001       15679.278      0.99404174    -4855.6317      957.05902     -5812.6907      0              0              0              1087.8125      22114.308     -29014.811    
    201000   307.03974     -734.83965      15928.889      0.97846477    -4837.1318      952.75146     -5789.8833      0              0              0              1058.5417      22166.396     -29014.821    
    201500   298.74691      92.374595      15877.763      0.98161545    -4873.8894      927.01861     -5800.908       0              0              0              1113.4812      22099.36      -29013.749    
    202000   296.12757      186.16082      15964.017      0.97631175    -4898.4311      918.89073     -5817.3218      0              0              0              1146.8294      22053.381     -29017.532    
    202500   294.00258     -279.59973      15985.415      0.97500485    -4914.2537      912.29683     -5826.5506      0              0              0              1106.8834      22082.797     -29016.231    
    203000   312.08542      366.35652      15826.558      0.98479133    -4868.4398      968.40832     -5836.8481      0              0              0              1147.7991      22031.573     -29016.22     
    203500   308.44258      601.89096      15734.635      0.99054459    -4871.1247      957.1045      -5828.2292      0              0              0              1146.2012      22045.07      -29019.501    
    204000   308.18507      1055.6233      15734.444      0.99055662    -4882.2749      956.30544     -5838.5803      0              0              0              1185.4994      21991.725     -29015.805    
    204500   293.75385     -733.97137      15741.019      0.99014281    -4889.5485      911.52502     -5801.0735      0              0              0              1046.6265      22166.548     -29014.248    
    205000   291.21658      33.634166      15560.507      1.0016291     -4964.3092      903.65181     -5867.961       0              0              0              1128.9809      22019.96      -29016.901    
    205500   301.57458      93.803954      15586.747      0.9999429     -4864.4565      935.79292     -5800.2494      0              0              0              1097.0415      22118.743     -29016.034    
    206000   301.628       -603.39131      15678.141      0.99411386    -4828.9767      935.95871     -5764.9354      0              0              0              1039.0376      22212.134     -29016.107    
    206500   300.4844       1209.6842      15199.24       1.0254366     -4892.2411      932.41007     -5824.6512      0              0              0              1160.1035      22034.208     -29018.963    
    207000   293.7293      -1013.243       15801.335      0.98636334    -4839.5476      911.44885     -5750.9964      0              0              0              1022.8066      22243.293     -29017.096    
    207500   297.26405      394.73389      15483.984      1.0065793     -4897.8796      922.41725     -5820.2969      0              0              0              1119.8157      22076.329     -29016.441    
    208000   302.77704     -534.68134      15644.184      0.99627164    -4825.6145      939.52419     -5765.1387      0              0              0              1045.7016      22205.662     -29016.503    
    208500   296.57266     -428.10036      15581.916      1.0002529     -4852.6482      920.27185     -5772.92        0              0              0              1050.8058      22193.937     -29017.663    
    209000   299.34356      1236.8417      15402.013      1.0119364     -4891.6989      928.87004     -5820.569       0              0              0              1170.9207      22024.523     -29016.013    
    209500   277.67083      761.93373      15526.76       1.0038061     -4959.9235      861.61905     -5821.5425      0              0              0              1167.112       22028.516     -29017.171    
    210000   298.41527     -302.2853       15663.24       0.99505958    -4853.9798      925.98953     -5779.9693      0              0              0              1063.6937      22171.435     -29015.098    
    210500   312.05581     -493.56825      15777.352      0.98786266    -4867.1915      968.31645     -5835.5079      0              0              0              1079.8002      22099.436     -29014.744    
    211000   294.98123      1130.8983      15125.949      1.0304052     -4974.8177      915.33363     -5890.1513      0              0              0              1183.8139      21945.047     -29019.012    
    211500   308.09842     -1472.0422      15780.245      0.9876816     -4882.3607      956.03657     -5838.3973      0              0              0              1014.5322      22162.93      -29015.86     
    212000   293.06136      363.59707      15473.829      1.0072399     -4896.2255      909.37621     -5805.6017      0              0              0              1111.7072      22098.733     -29016.042    
    212500   291.85146      608.33359      15420.97       1.0106924     -4927.5733      905.62187     -5833.1951      0              0              0              1138.1222      22049.032     -29020.35     
    213000   314.10716      171.98717      15671.622      0.99452736    -4825.7651      974.68182     -5800.4469      0              0              0              1107.1602      22110.39      -29017.997    
    213500   300.07264     -611.76087      15428.408      1.0102051     -4868.3655      931.13238     -5799.4978      0              0              0              1033.0671      22182.071     -29014.636    
    214000   299.38113     -546.87495      15525.945      1.0038588     -4859.9046      928.9866      -5788.8912      0              0              0              1049.0554      22175.146     -29013.093    
    214500   304.63292     -592.05294      15283.334      1.0197943     -4874.6374      945.28304     -5819.9204      0              0              0              1022.9659      22177.611     -29020.497    
    215000   306.61457     -1290.4267      15514.889      1.0045742     -4843.056       951.43213     -5794.4882      0              0              0              1000.2209      22224.262     -29018.971    
    215500   307.81969      916.03725      15352.683      1.0151879     -4811.8741      955.17167     -5767.0458      0              0              0              1132.2199      22117.082     -29016.347    
    216000   298.81009      62.089597      15390.867      1.0126692     -4876.7802      927.21466     -5803.9948      0              0              0              1079.4317      22134.446     -29017.873    
    216500   290.56252     -33.186498      15285.233      1.0196676     -4883.6171      901.62227     -5785.2394      0              0              0              1066.479       22166.53      -29018.248    
    217000   290.30192     -306.47239      15709.391      0.9921363     -4830.7127      900.81362     -5731.5263      0              0              0              1052.4884      22232.309     -29016.323    
    217500   306.13323      784.91258      15493.423      1.005966      -4872.3806      949.93853     -5822.3191      0              0              0              1141.4672      22053.531     -29017.318    
    218000   299.83594      380.72147      15470.585      1.0074511     -4889.0443      930.39789     -5819.4422      0              0              0              1124.3712      22074.545     -29018.359    
    218500   296.58779     -1167.4487      15752.171      0.98944183    -4878.6337      920.31883     -5798.9525      0              0              0              1019.1462      22199.685     -29017.783    
    219000   303.06917      143.99356      15416.57       1.0109809     -4940.597       940.43069     -5881.0277      0              0              0              1123.2757      22014.124     -29018.427    
    219500   296.21392     -1003.6037      15743.762      0.98997034    -4850.9764      919.15869     -5770.1351      0              0              0              1014.3899      22234.239     -29018.764    
    220000   290.39985     -446.2667       15765.416      0.98861057    -4895.2735      901.11748     -5796.391       0              0              0              1077.6387      22142.94      -29016.969    
    220500   296.5385      -509.55426      15916.21       0.97924426    -4907.9906      920.16586     -5828.1564      0              0              0              1098.4664      22091.42      -29018.042    
    221000   313.16882     -1133.3871      15860.133      0.98270658    -4841.0163      971.77014     -5812.7864      0              0              0              1029.8996      22173.444     -29016.13     
    221500   294.35571     -86.95442       15625.31       0.9974751     -4935.8601      913.39262     -5849.2527      0              0              0              1104.4914      22062.35      -29016.094    
    222000   314.09238      919.48404      15559.237      1.0017109     -4839.5054      974.63597     -5814.1414      0              0              0              1156.4551      22048.41      -29019.007    
    222500   289.96372      269.44629      15815.336      0.98549013    -4902.5766      899.76416     -5802.3407      0              0              0              1132.5642      22080.621     -29015.526    
    223000   299.10868      320.00783      15563.67       1.0014256     -4875.741       928.1412      -5803.8822      0              0              0              1116.4688      22094.854     -29015.205    
    223500   306.73116     -1299.8868      15684.873      0.99368715    -4877.5401      951.79393     -5829.334       0              0              0              1013.8689      22175.406     -29018.609    
    224000   291.73098     -99.059066      15579.33       1.000419      -4915.1798      905.24802     -5820.4279      0              0              0              1104.4526      22093.999     -29018.879    
    224500   298.24132     -256.12369      15543.001      1.0027572     -4897.9917      925.44976     -5823.4415      0              0              0              1082.8535      22110.894     -29017.189    
    225000   301.43934     -299.55378      15566.31       1.0012557     -4844.1673      935.37329     -5779.5406      0              0              0              1062.385       22176.731     -29018.657    
    225500   300.32245      918.01681      15529.021      1.00366       -4842.4141      931.90754     -5774.3216      0              0              0              1149.0418      22091.607     -29014.971    
    226000   304.12836     -485.88272      15749.239      0.98962606    -4835.5514      943.71738     -5779.2688      0              0              0              1058.6292      22174.365     -29012.263    
    226500   297.8487       111.20962      15584.097      1.000113      -4875.6464      924.23145     -5799.8778      0              0              0              1099.8209      22115.874     -29015.573    
    227000   308.28278      452.8782       15555.684      1.0019397     -4882.9468      956.60865     -5839.5554      0              0              0              1123.5593      22056.169     -29019.284    
    227500   292.98371      120.35907      15619.039      0.99787557    -4952.5965      909.13526     -5861.7317      0              0              0              1133.4334      22020.292     -29015.457    
    228000   307.78888      530.08713      15661.011      0.99520122    -4842.2503      955.07605     -5797.3263      0              0              0              1130.1475      22087.71      -29015.184    
    228500   293.08496      7.497582       15649.454      0.99593615    -4928.4354      909.44944     -5837.8849      0              0              0              1111.8474      22068.324     -29018.057    
    229000   306.16037     -475.46437      15837.583      0.98410579    -4821.1202      950.02276     -5771.143       0              0              0              1066.2645      22177.807     -29015.215    
    229500   299.67709      617.12689      15453.793      1.0085458     -4849.5605      929.90497     -5779.4655      0              0              0              1116.2154      22122         -29017.681    
    230000   307.16993     -336.57076      15696.901      0.99292573    -4820.3442      953.15545     -5773.4997      0              0              0              1071.776       22170.413     -29015.689    
    230500   295.09388      273.59577      15760.713      0.98890562    -4872.4345      915.68317     -5788.1177      0              0              0              1121.9534      22104.288     -29014.36     
    231000   297.41402     -6.102748       15864.299      0.9824485     -4883.6746      922.88263     -5806.5572      0              0              0              1112.074       22097.619     -29016.251    
    231500   304.22724      435.67447      15581.438      1.0002836     -4847.9271      944.02421     -5791.9513      0              0              0              1117.9579      22105.719     -29015.628    
    232000   297.44436     -490.34187      15812.23       0.98568366    -4844.5271      922.97677     -5767.5039      0              0              0              1049.9051      22200.465     -29017.874    
    232500   296.80105     -341.22177      15904.591      0.97995961    -4788.1183      920.98058     -5709.0989      0              0              0              1055.3629      22254.184     -29018.645    
    233000   304.03927      926.1341       15544.168      1.002682      -4865.3628      943.44093     -5808.8037      0              0              0              1160.2018      22046.927     -29015.932    
    233500   308.73144     -439.70543      15951.527      0.97707618    -4800.2314      958.00083     -5758.2322      0              0              0              1076.9151      22181.589     -29016.736    
    234000   295.56648     -330.28283      15913.72       0.97939747    -4857.4259      917.14967     -5774.5756      0              0              0              1083.5307      22157.245     -29015.351    
    234500   303.7227       535.96649      15581.108      1.0003048     -4920.3527      942.45861     -5862.8113      0              0              0              1155.511       22001.255     -29019.578    
    235000   296.2898       178.14231      15446.587      1.0090163     -4942.2317      919.39414     -5861.6259      0              0              0              1115.755       22041.668     -29019.049    
    235500   296.96062      285.20362      15611.416      0.99836284    -4861.9718      921.4757      -5783.4475      0              0              0              1109.5343      22123.892     -29016.874    
    236000   303.4246       858.21883      15360.794      1.0146518     -4916.4384      941.53359     -5857.972       0              0              0              1154.2052      22004.994     -29017.171    
    236500   316.00494      284.5777       15632.281      0.99703028    -4844.153       980.57067     -5824.7237      0              0              0              1130.1903      22061.585     -29016.499    
    237000   308.28241      551.36483      15577.559      1.0005327     -4838.9027      956.60749     -5795.5102      0              0              0              1126.2434      22095.75      -29017.504    
    237500   301.04636     -956.97773      15545.428      1.0026007     -4906.8178      934.15386     -5840.9716      0              0              0              1040.4085      22134.684     -29016.064    
    238000   301.21616      349.80239      15749.935      0.98958231    -4877.7854      934.68074     -5812.4662      0              0              0              1143.4966      22057.569     -29013.532    
    238500   307.28         1342.3482      15669.824      0.99464149    -4842.1937      953.49698     -5795.6906      0              0              0              1188.9619      22033.361     -29018.014    
    239000   283.94235      342.39752      15687.479      0.99352208    -4856.4242      881.07971     -5737.5039      0              0              0              1102.1271      22172.493     -29012.124    
    239500   314.13204      167.74331      15684.957      0.99368182    -4840.4449      974.75904     -5815.2039      0              0              0              1117.9061      22081.581     -29014.691    
    240000   308.02313      2008.807       15359.701      1.014724      -4853.7388      955.80293     -5809.5417      0              0              0              1207.6126      22000.653     -29017.808    
    240500   293.29374     -24.16163       15630.287      0.99715748    -4852.8899      910.0973      -5762.9872      0              0              0              1067.9065      22184.266     -29015.16     
    241000   305.1625       157.75091      15705.79       0.9923638     -4852.7354      946.92632     -5799.6617      0              0              0              1115.8382      22100.571     -29016.071    
    241500   296.48427     -600.50071      15770.036      0.98832098    -4900.9895      919.99758     -5820.9871      0              0              0              1077.8109      22116.955     -29015.753    
    242000   301.19725      231.86042      15498.712      1.0056227     -4832.7078      934.62207     -5767.3299      0              0              0              1092.6231      22156.57      -29016.523    
    242500   302.50638     -162.50739      15721.529      0.99137031    -4959.4103      938.68433     -5898.0946      0              0              0              1129.8936      21990.975     -29018.963    
    243000   300.73834     -585.68612      15632.802      0.99699703    -4874.8628      933.19808     -5808.0609      0              0              0              1060.0113      22148.374     -29016.446    
    243500   301.12746      720.07194      15374.06       1.0137763     -4867.3545      934.40551     -5801.76        0              0              0              1120.8756      22094.847     -29017.483    
    244000   301.16649      683.2302       15475.555      1.0071275     -4859.9009      934.52662     -5794.4275      0              0              0              1130.6678      22091.173     -29016.268    
    244500   311.83737     -321.55058      15609.987      0.9984542     -4839.7973      967.6386      -5807.4359      0              0              0              1066.3088      22144.062     -29017.806    
    245000   295.57621      224.44783      15572.067      1.0008855     -4903.6924      917.17984     -5820.8722      0              0              0              1127.7165      22067.953     -29016.542    
    245500   283.21182      450.8237       15454.916      1.0084725     -4942.2019      878.81286     -5821.0148      0              0              0              1129.2405      22069.053     -29019.309    
    246000   292.66224     -862.58078      15748.2        0.98969134    -4874.2348      908.13774     -5782.3725      0              0              0              1031.8007      22203.93      -29018.103    
    246500   297.72554     -695.42244      15510.575      1.0048536     -4888.3791      923.84928     -5812.2284      0              0              0              1037.7536      22166.219     -29016.201    
    247000   304.89462      352.62439      15533.473      1.0033723     -4920.7057      946.0951      -5866.8008      0              0              0              1132.5022      22014.466     -29013.769    
    247500   308.71982      202.53231      15589.85       0.99974388    -4837.5448      957.96479     -5795.5096      0              0              0              1102.0303      22121.246     -29018.786    
    248000   297.21504     -432.98145      15743.209      0.9900051     -4857.5845      922.26519     -5779.8497      0              0              0              1066.6319      22168.501     -29014.982    
    248500   293.71658      893.66806      15449.69       1.0088136     -4929.1208      911.40937     -5840.5302      0              0              0              1170.8888      22005.784     -29017.203    
    249000   300.97907      1585.3227      15474.963      1.007166      -4874.733       933.94506     -5808.6781      0              0              0              1202.7418      22005.114     -29016.534    
    249500   300.10365     -122.73136      15700.129      0.99272159    -4822.7501      931.2286      -5753.9787      0              0              0              1072.3504      22190.673     -29017.002    
    250000   289.97442      337.71457      15474.113      1.0072213     -4924.2718      899.79737     -5824.0691      0              0              0              1122.2671      22071.69      -29018.026    
    250500   287.65364      189.40286      15654.138      0.99563817    -4871.9281      892.59593     -5764.524       0              0              0              1100.6382      22152.625     -29017.788    
    251000   300.98494      582.60168      15577.456      1.0005393     -4902.0719      933.96328     -5836.0351      0              0              0              1153.7432      22027.548     -29017.327    
    251500   301.20019     -503.31247      15737.981      0.990334      -4836.0165      934.63119     -5770.6477      0              0              0              1065.1405      22179.084     -29014.872    
    252000   310.55901      76.200973      15625.615      0.99745562    -4814.1022      963.67182     -5777.774       0              0              0              1093.8366      22146.303     -29017.914    
    252500   298.15675     -153.74741      15685.306      0.99365975    -4919.9817      925.18733     -5845.169       0              0              0              1099.5598      22072.341     -29017.07     
    253000   297.61552     -852.47717      15766.66       0.98853257    -4910.6662      923.50787     -5834.1741      0              0              0              1056.4616      22123.655     -29014.291    
    253500   307.64187      25.111017      15554.76       1.0019992     -4969.1987      954.61989     -5923.8186      0              0              0              1147.3406      21949.097     -29020.256    
    254000   300.79747     -622.50276      15510.221      1.0048766     -4873.4464      933.38155     -5806.828       0              0              0              1038.8146      22171.957     -29017.6      
    254500   293.97096     -561.66413      15446.3        1.009035      -4895.1354      912.19872     -5807.3341      0              0              0              1050.9603      22160.323     -29018.617    
    255000   298.41175     -852.54761      15413.301      1.0111953     -4878.8398      925.97859     -5804.8184      0              0              0              1016.2399      22196.313     -29017.371    
    255500   302.0392       866.31561      15188.086      1.0261897     -4892.0732      937.23466     -5829.3078      0              0              0              1129.7639      22057.504     -29016.576    
    256000   300.53199     -486.0184       15489.287      1.0062346     -4893.7222      932.55776     -5826.28        0              0              0              1072.1244      22120.622     -29019.026    
    256500   289.71511     -142.93127      15351.438      1.0152702     -4888.1087      898.99273     -5787.1015      0              0              0              1072.3111      22154.51      -29013.923    
    257000   294.26663     -1046.0706      15512.009      1.0047607     -4905.7621      913.11619     -5818.8783      0              0              0              1023.1559      22174.486     -29016.52     
    257500   312.50165      1061.9326      15395.686      1.0123522     -4771.2337      969.69989     -5740.9336      0              0              0              1114.3975      22159.794     -29015.125    
    258000   300.7417      -85.469977      15668.496      0.99472577    -4824.555       933.20849     -5757.7635      0              0              0              1074.2042      22185.914     -29017.881    
    258500   295.05896      855.05969      15453.456      1.0085677     -4886.5607      915.57481     -5802.1355      0              0              0              1151.8953      22065.782     -29019.813    
    259000   305.4523       144.61473      15562.091      1.0015272     -4904.6822      947.82559     -5852.5078      0              0              0              1111.7997      22053.061     -29017.368    
    259500   304.76305      127.18997      15641.989      0.99641148    -4798.1857      945.68685     -5743.8726      0              0              0              1079.6029      22194.491     -29017.967    
    260000   302.34553     -293.15545      16075.682      0.96953009    -4799.209       938.18521     -5737.3942      0              0              0              1073.1891      22206.718     -29017.302    
    260500   296.55178     -323.99098      15694.122      0.99310154    -4835.8923      920.20708     -5756.0994      0              0              0              1056.7157      22202.57      -29015.385    
    261000   306.35444     -235.79267      15387.101      1.0129171     -4905.9446      950.62494     -5856.5696      0              0              0              1088.2983      22075.231     -29020.098    
    261500   307.32233      787.61097      15596.982      0.99928675    -4826.8908      953.62835     -5780.5192      0              0              0              1130.6063      22104.891     -29016.017    
    262000   302.63631     -10.712359      15773.346      0.98811359    -4867.2823      939.08752     -5806.3698      0              0              0              1106.3586      22105.232     -29017.961    
    262500   284.55204      381.17868      15635.183      0.99684522    -4954.1725      882.97161     -5837.1441      0              0              0              1144.9692      22035.694     -29017.807    
    263000   304.37821      88.183072      15562.53       1.0014989     -4843.1132      944.49268     -5787.6059      0              0              0              1096.5554      22133.307     -29017.468    
    263500   303.21015     -572.14844      15748.884      0.98964838    -4869.7429      940.86816     -5810.6111      0              0              0              1063.7776      22140.474     -29014.863    
    264000   299.37166      512.82174      15865.021      0.98240381    -4905.6802      928.95723     -5834.6374      0              0              0              1171.5606      22010.854     -29017.052    
    264500   305.95094     -711.40859      15882.955      0.98129455    -4823.1865      949.37289     -5772.5594      0              0              0              1056.4408      22185.764     -29014.764    
    265000   301.80444     -130.2218       15728.208      0.99094932    -4843.8601      936.50619     -5780.3663      0              0              0              1080.2094      22155.137     -29015.713    
    265500   295.9662      -340.23837      15742.472      0.99005144    -4859.1653      918.39        -5777.5553      0              0              0              1057.6955      22177.616     -29012.867    
    266000   305.75382     -10.081375      15506.385      1.0051251     -4764.195       948.76122     -5712.9562      0              0              0              1055.2999      22243.666     -29011.922    
    266500   292.05257     -1507.1585      16006.214      0.97373789    -4922.459       906.24592     -5828.7049      0              0              0              1036.3875      22152.036     -29017.129    
    267000   296.36646      16.687341      15490.493      1.0061563     -4941.9441      919.63201     -5861.5762      0              0              0              1108.3197      22047.626     -29017.522    
    267500   298.25549      1148.3465      15640.019      0.996537      -4855.057       925.49372     -5780.5507      0              0              0              1176.6282      22059.239     -29016.418    
    268000   299.25564     -13.259184      15853.098      0.98314265    -4833.6453      928.5972      -5762.2425      0              0              0              1096.3083      22157.983     -29016.534    
    268500   294.00768      25.051691      15734.546      0.99055017    -4911.9733      912.31267     -5824.286       0              0              0              1120.7958      22071.203     -29016.284    
    269000   311.93058      0.77339993     15825.402      0.98486324    -4831.2147      967.92785     -5799.1425      0              0              0              1102.1439      22115.888     -29017.175    
    269500   300.23434      1219.7702      15663.585      0.99503765    -4850.3424      931.63413     -5781.9765      0              0              0              1180.0971      22053.857     -29015.93     
    270000   305.97382      935.34319      15720.468      0.99143725    -4840.2448      949.4439      -5789.6887      0              0              0              1166.22        22057.746     -29013.654    
    270500   301.16762     -365.00662      15780.183      0.98768545    -4862.8021      934.53014     -5797.3323      0              0              0              1073.1934      22144.405     -29014.93     
    271000   293.89246      41.657444      15877.513      0.98163088    -4897.0532      911.95513     -5809.0084      0              0              0              1121.0127      22082.961     -29012.982    
    271500   287.62525      245.29815      15993.06       0.97453878    -4853.1734      892.50785     -5745.6813      0              0              0              1104.9488      22166.159     -29016.789    
    272000   307.10048      1128.0766      15410.601      1.0113725     -4843.0739      952.93993     -5796.0138      0              0              0              1148.8255      22074.329     -29019.169    
    272500   298.80876     -6.5999428      15517.379      1.004413      -4850.1329      927.21053     -5777.3434      0              0              0              1075.802       22164.914     -29018.059    
    273000   312.85159      337.40916      15488.93       1.0062578     -4795.2179      970.78576     -5766.0037      0              0              0              1091.5682      22160.339     -29017.911    
    273500   316.01977     -190.51524      15554.056      1.0020446     -4786.2295      980.61668     -5766.8462      0              0              0              1051.5192      22195.429     -29013.795    
    274000   288.30555     -927.88848      15772.589      0.98816098    -4891.4889      894.61884     -5786.1077      0              0              0              1037.1379      22192.124     -29015.37     
    274500   292.1316       792.33357      15312.796      1.0178322     -4944.1153      906.49116     -5850.6064      0              0              0              1143.4873      22023.265     -29017.358    
    275000   297.42851     -561.44897      15803.896      0.98620348    -4858.6028      922.9276      -5781.5304      0              0              0              1059.6055      22174.928     -29016.064    
    275500   293.644       -889.35514      16108.639      0.96754651    -4860.7902      911.18418     -5771.9743      0              0              0              1072.8037      22171.29      -29016.068    
    276000   298.31914     -29.046106      15550.923      1.0022464     -4932.4662      925.69122     -5858.1574      0              0              0              1101.3102      22055.71      -29015.178    
    276500   299.2586       30.344045      15652.943      0.99571418    -4894.636       928.60639     -5823.2424      0              0              0              1107.9028      22082.307     -29013.452    
    277000   302.09578      943.35151      15746.498      0.98979833    -4928.1909      937.41024     -5865.6011      0              0              0              1206.5266      21947.274     -29019.402    
    277500   291.37473      273.58097      15689.112      0.99341872    -4911.856       904.14257     -5815.9986      0              0              0              1138.2528      22064.704     -29018.955    
    278000   298.71174      861.54118      15286.605      1.0195761     -4937.601       926.90949     -5864.5105      0              0              0              1167.8392      21987.786     -29020.136    
    278500   317.22309      236.85355      15687.834      0.99349964    -4804.5958      984.35063     -5788.9464      0              0              0              1089.8748      22137.592     -29016.413    
    279000   302.10996      197.13547      15672.829      0.99445079    -4877.9956      937.45422     -5815.4499      0              0              0              1108.558       22092.7       -29016.707    
    279500   292.11938     -796.55706      15670.137      0.99462163    -4947.6855      906.45323     -5854.1387      0              0              0              1067.3151      22099.13      -29020.584    
    280000   301.26314     -251.69818      15805.519      0.9861022     -4892.5594      934.82654     -5827.3859      0              0              0              1102.1989      22084.642     -29014.227    
    280500   294.37565     -349.10232      15839.724      0.98397275    -4890.5019      913.45448     -5803.9564      0              0              0              1079.5778      22134.422     -29017.956    
    281000   301.04591      777.42192      15746.572      0.98979365    -4951.6788      934.15246     -5885.8312      0              0              0              1201.8619      21930.882     -29018.575    
    281500   293.10054      663.20692      15472.011      1.0073582     -4903.4813      909.49779     -5812.9791      0              0              0              1135.809       22065.165     -29013.953    
    282000   309.20524     -248.23038      15409.207      1.011464      -4858.6103      959.47106     -5818.0814      0              0              0              1073.1543      22124.846     -29016.082    
    282500   292.64862     -80.676417      15478.644      1.0069265     -4857.8159      908.09546     -5765.9114      0              0              0              1063.8011      22186.27      -29015.982    
    283000   301.27364     -445.70114      15577.631      1.000528      -4865.8986      934.8591      -5800.7577      0              0              0              1068.6358      22149.305     -29018.699    
    283500   302.03432     -215.48946      15499.035      1.0056018     -4951.5778      937.21951     -5888.7973      0              0              0              1109.1179      22020.698     -29018.613    
    284000   293.46677     -348.40915      15551.701      1.0021963     -4876.0786      910.63422     -5786.7128      0              0              0              1057.8629      22173.007     -29017.582    
    284500   310.56627      217.28337      15544.557      1.0026569     -4812.7771      963.69436     -5776.4715      0              0              0              1093.572       22148.647     -29018.69     
    285000   302.89223      260.15636      15641.775      0.9964251     -4799.1928      939.88162     -5739.0744      0              0              0              1087.737       22190.99      -29017.802    
    285500   296.64064     -218.91479      15643.509      0.99631467    -4884.0548      920.48282     -5804.5376      0              0              0              1091.8786      22115.869     -29012.286    
    286000   314.50605      1047.7131      15206.057      1.0249769     -4853.2132      975.9196      -5829.1328      0              0              0              1139.7224      22049.11      -29017.966    
    286500   283.88658      1538.1028      15206.558      1.0249431     -4919.2121      880.90665     -5800.1188      0              0              0              1165.4731      22053.995     -29019.587    
    287000   298.92623     -1807.2957      15670.65       0.9945891     -4857.3128      927.57505     -5784.8878      0              0              0              962.65736      22269.881     -29017.427    
    287500   298.41237     -74.70871       15708.645      0.99218344    -4920.0979      925.98053     -5846.0785      0              0              0              1128.0063      22043.18      -29017.265    
    288000   312.50927     -454.54539      15771.457      0.9882319     -4816.8634      969.72352     -5786.5869      0              0              0              1066.8413      22161.971     -29015.4      
    288500   314.00503      315.73451      15535.258      1.003257      -4867.0598      974.3649      -5841.4247      0              0              0              1125.8112      22049.071     -29016.307    
    289000   298.96499     -746.59878      15751.704      0.98947117    -4888.7535      927.69532     -5816.4488      0              0              0              1054.684       22145.564     -29016.696    
    289500   300.22402      1092.1318      15457.624      1.0082958     -4803.4702      931.60211     -5735.0724      0              0              0              1134.8445      22147.689     -29017.606    
    290000   281.86104     -72.867862      15371.651      1.0139351     -4884.8428      874.62137     -5759.4641      0              0              0              1066.5067      22191.266     -29017.236    
    290500   289.59268      1873.6234      15182.018      1.0265998     -4939.0998      898.61283     -5837.7126      0              0              0              1210.9868      21967.116     -29015.815    
    291000   311.01543     -283.69947      15540.572      1.002914      -4825.1818      965.08812     -5790.2699      0              0              0              1064.9459      22164.199     -29019.415    
    291500   307.57674      47.024584      15469.021      1.0075529     -4833.5045      954.41777     -5787.9222      0              0              0              1079.5626      22152.015     -29019.499    
    292000   308.12863      167.22447      15524.433      1.0039566     -4834.8392      956.1303      -5790.9695      0              0              0              1093.7496      22128.705     -29013.424    
    292500   299.61447      691.00181      15541.591      1.0028482     -4878.6889      929.71068     -5808.3996      0              0              0              1145.7343      22065.411     -29019.545    
    293000   303.46752     -74.550105      15673.546      0.99440532    -4824.221       941.66678     -5765.8878      0              0              0              1077.4778      22168.995     -29012.361    
    293500   296.11194      280.96103      15563.283      1.0014505     -4946.0692      918.84224     -5864.9114      0              0              0              1138.336       22014.602     -29017.85     
    294000   299.89866     -1464.419       15848.689      0.98341615    -4866.6216      930.59253     -5797.2141      0              0              0              1010.6709      22208.92      -29016.805    
    294500   295.20871      1452.5263      15485.24       1.0064976     -4941.528       916.0395      -5857.5675      0              0              0              1211.019       21950.921     -29019.508    
    295000   296.8902       579.59858      15545.306      1.0026086     -4913.1369      921.2572      -5834.3941      0              0              0              1153.6091      22030.343     -29018.346    
    295500   300.99801      96.444798      15540.927      1.0028911     -4883.9401      934.00383     -5817.9439      0              0              0              1105.346       22096.851     -29020.141    
    296000   300.52719      1178.6341      15403.929      1.0118105     -4919.7434      932.54286     -5852.2863      0              0              0              1180.0556      21983.508     -29015.85     
    296500   302.95968     -108.85053      15777.887      0.98782916    -4858.3977      940.09092     -5798.4887      0              0              0              1094.0316      22124.008     -29016.528    
    297000   299.50307      113.88648      15634.093      0.99691469    -4921.2928      929.36498     -5850.6578      0              0              0              1138.2669      22026.006     -29014.931    
    297500   306.68028     -466.74749      15357.703      1.014856      -4832.4074      951.63604     -5784.0434      0              0              0              1033.7342      22199.162     -29016.939    
    298000   296.82585      499.80461      15473.743      1.0072454     -4857.8284      921.05752     -5778.8859      0              0              0              1103.2236      22133.133     -29015.242    
    298500   283.10153     -500.10867      15665.514      0.99491516    -4936.1333      878.47062     -5814.604       0              0              0              1083.9499      22117.479     -29016.033    
    299000   304.87378      70.143638      15447.158      1.008979      -4960.4384      946.03043     -5906.4688      0              0              0              1127.6254      21982.758     -29016.853    
    299500   295.02235     -740.83003      15849.304      0.98337801    -4933.2331      915.46123     -5848.6943      0              0              0              1079.1482      22087.355     -29015.197    
    300000   294.99733     -888.62703      15808.43       0.98592062    -4945.6732      915.38356     -5861.0568      0              0              0              1066.5081      22088.769     -29016.334    
    300500   296.25775     -218.7796       15578.484      1.0004733     -4934.4247      919.29469     -5853.7194      0              0              0              1096.059       22066.73      -29016.509    
    301000   294.41675     -93.529864      15598.109      0.99921455    -4826.3661      913.58202     -5739.9481      0              0              0              1062.7568      22213.011     -29015.716    
    301500   300.9567      -394.69753      15896.436      0.98046239    -4877.4396      933.87564     -5811.3152      0              0              0              1091.1523      22111.35      -29013.818    
    302000   305.83376      1211.1135      15459.047      1.008203      -4862.1023      949.00928     -5811.1115      0              0              0              1177.4898      22029.588     -29018.189    
    302500   302.37336     -719.69405      15877.692      0.98161981    -4809.7114      938.27158     -5747.983       0              0              0              1038.3887      22229.278     -29015.649    
    303000   295.76911      202.06338      15615.132      0.99812524    -4914.9763      917.77842     -5832.7547      0              0              0              1120.1569      22061.497     -29014.409    
    303500   292.96378     -448.06259      15652.548      0.99573932    -4860.5259      909.07343     -5769.5994      0              0              0              1046.1384      22203.693     -29019.431    
    304000   299.75091      418.6253       15450.757      1.0087439     -4869.6721      930.13406     -5799.8062      0              0              0              1114.4557      22103.366     -29017.628    
    304500   295.7213      -461.23876      15872.693      0.98192896    -4936.5946      917.63008     -5854.2247      0              0              0              1100.2127      22064.479     -29018.917    
    305000   292.33514     -725.13795      15569.449      1.0010539     -4883.4467      907.12275     -5790.5695      0              0              0              1031.0409      22193.839     -29015.45     
    305500   294.27432     -811.94997      15641.971      0.99641259    -4900.4211      913.14006     -5813.5611      0              0              0              1052.8842      22149.52      -29015.965    
    306000   292.929       -389.92101      15555.405      1.0019576     -4890.8578      908.96549     -5799.8233      0              0              0              1065.2803      22151.436     -29016.54     
    306500   302.57019      182.17841      15770.775      0.98827463    -4850.2114      938.88233     -5789.0937      0              0              0              1122.8842      22100.543     -29012.521    
    307000   286.16761      493.9531       15501.936      1.0054136     -4932.3357      887.98475     -5820.3205      0              0              0              1132.3528      22068.307     -29020.98     
    307500   297.90597      32.896693      15460.457      1.0081111     -4917.6906      924.40917     -5842.0998      0              0              0              1108.6453      22066.083     -29016.828    
    308000   294.69422     -38.867062      15587.614      0.99988731    -4943.5828      914.44301     -5858.0258      0              0              0              1124.4288      22034.585     -29017.04     
    308500   298.51417     -204.74697      15610.488      0.99842217    -4892.0862      926.29642     -5818.3826      0              0              0              1094.0529      22104.595     -29017.03     
    309000   288.06082      439.58555      15486.364      1.0064245     -4919.5954      893.85941     -5813.4548      0              0              0              1120.2948      22081.883     -29015.633    
    309500   282.89203     -873.3488       15552.449      1.0021481     -4920.5455      877.82054     -5798.366       0              0              0              1036.1425      22181.128     -29015.636    
    310000   283.72874     -153.18142      15525.382      1.0038952     -4925.3477      880.41687     -5805.7646      0              0              0              1088.8431      22125.434     -29020.042    
    310500   295.02596     -1123.0529      15634.66       0.99687854    -4891.0009      915.47242     -5806.4733      0              0              0              1021.8799      22187.37      -29015.723    
    311000   289.95722     -21.986342      15557.867      1.0017991     -4874.8513      899.74399     -5774.5953      0              0              0              1069.9186      22168.392     -29012.906    
    311500   290.78643      905.57193      15370.696      1.0139981     -4966.5755      902.31707     -5868.8925      0              0              0              1170.1804      21978.85      -29017.923    
    312000   310.1671      -380.72156      15515.065      1.0045628     -4824.9624      962.45574     -5787.4181      0              0              0              1054.349       22173.206     -29014.973    
    312500   308.1394       1111.4848      15357.844      1.0148467     -4882.7051      956.16372     -5838.8688      0              0              0              1162.9282      22015.409     -29017.206    
    313000   302.91691     -23.148946      15832.707      0.98440887    -4853.9033      939.95823     -5793.8616      0              0              0              1104.9309      22114.67      -29013.463    
    313500   307.1167       600.5959       15626.033      0.9974289     -4817.417       952.99025     -5770.4072      0              0              0              1119.6538      22128.148     -29018.209    
    314000   290.11002     -97.404878      15522.209      1.0041004     -4933.9706      900.21815     -5834.1887      0              0              0              1103.6499      22082.202     -29020.041    
    314500   305.06983     -2233.8833      15698.032      0.99285424    -4943.1254      946.63878     -5889.7642      0              0              0              983.13511      22144.387     -29017.287    
    315000   312.50159      883.60669      15475.313      1.0071433     -4824.1839      969.69969     -5793.8836      0              0              0              1138.6056      22083.35      -29015.839    
    315500   308.10554      255.76424      15517.439      1.0044091     -4797.107       956.05866     -5753.1657      0              0              0              1092.1425      22169.848     -29015.156    
    316000   311.18328     -72.591556      15626.922      0.99737217    -4789.1605      965.60895     -5754.7695      0              0              0              1063.1316      22199.246     -29017.147    
    316500   299.34399     -656.82601      15636.075      0.99678832    -4858.2539      928.87137     -5787.1252      0              0              0              1041.1087      22189.93      -29018.164    
    317000   291.31007     -458.27729      15689.865      0.99337104    -4885.2228      903.94193     -5789.1647      0              0              0              1065.0903      22161.709     -29015.964    
    317500   297.11318      2117.9157      15433.153      1.0098945     -4820.457       921.94911     -5742.4062      0              0              0              1204.6006      22069.332     -29016.339    
    318000   294.84342     -472.9636       15846.333      0.98356239    -4909.3225      914.906       -5824.2285      0              0              0              1093.5023      22099.511     -29017.242    
    318500   291.4392       458.80164      15759.011      0.98901236    -4923.1137      904.34263     -5827.4563      0              0              0              1146.143       22043.388     -29016.988    
    319000   291.02699     -300.18576      15965.857      0.97619921    -4878.0957      903.06353     -5781.1593      0              0              0              1095.2577      22133.45      -29009.867    
    319500   293.11873      22.358585      15909.608      0.97965063    -4859.955       909.55424     -5769.5093      0              0              0              1103.1122      22144.167     -29016.789    
    320000   299.39011     -192.7742       15886.704      0.98106297    -4821.7051      929.01449     -5750.7196      0              0              0              1070.3877      22195.938     -29017.045    
    320500   302.9098      -482.56037      15760.239      0.9889353     -4893.0717      939.93615     -5833.0078      0              0              0              1081.174       22099.689     -29013.87     
    321000   308.83981      1064.1997      15746.23       0.98981516    -4821.0824      958.33711     -5779.4195      0              0              0              1171.0003      22066.012     -29016.432    
    321500   292.98274      421.83849      15401.951      1.0119404     -4920.9364      909.13224     -5830.0687      0              0              0              1125.6699      22060.983     -29016.721    
    322000   303.27432      220.55233      15541.384      1.0028616     -4820.273       941.06727     -5761.3403      0              0              0              1089.0727      22166.246     -29016.659    
    322500   299.09026      51.225159      15743.174      0.99000729    -4858.2201      928.08404     -5786.3041      0              0              0              1101.3608      22128.112     -29015.777    
    323000   296.84016     -75.553564      15818.101      0.98531785    -4825.5821      921.10192     -5746.684       0              0              0              1077.0894      22191.221     -29014.995    
    323500   310.11184      43.133403      15613.113      0.99825427    -4846.6312      962.28425     -5808.9155      0              0              0              1094.8426      22110.081     -29013.839    
    324000   303.29734      69.676044      15825.514      0.98485628    -4882.8295      941.13869     -5823.9682      0              0              0              1130.42        22063.059     -29017.447    
    324500   300.83223      508.77109      15839.668      0.98397627    -4855.9537      933.48941     -5789.4431      0              0              0              1150.6751      22075.984     -29016.103    
    325000   306.52737     -240.42563      15885.712      0.98112427    -4862.6177      951.16156     -5813.7792      0              0              0              1091.6692      22112.448     -29017.896    
    325500   310.18257     -570.14689      16041.854      0.97157455    -4901.4379      962.50374     -5863.9417      0              0              0              1111.7284      22039.419     -29015.089    
    326000   313.32014     -336.49942      15738.63       0.99029311    -4887.8595      972.23969     -5860.0992      0              0              0              1100.5666      22055.57      -29016.236    
    326500   295.05491     -126.68483      15654.123      0.99563914    -4863.5047      915.56225     -5779.067       0              0              0              1075.1924      22163.049     -29017.309    
    327000   306.33529     -154.08024      15710.781      0.99204852    -4807.3493      950.56554     -5757.9148      0              0              0              1078.1913      22176.149     -29012.255    
    327500   300.70437     -692.11415      15694.288      0.99309106    -4905.6793      933.09265     -5838.7719      0              0              0              1074.9306      22104.26      -29017.962    
    328000   294.03853      284.44937      15783.419      0.98748297    -4821.9952      912.4084      -5734.4036      0              0              0              1107.6562      22170.683     -29012.743    
    328500   307.61266      17.093905      15505.716      1.0051685     -4850.5863      954.52924     -5805.1156      0              0              0              1090.9885      22121.813     -29017.917    
    329000   294.59848      1240.6242      15488.322      1.0062973     -4881.0036      914.14593     -5795.1496      0              0              0              1177.083       22044.328     -29016.561    
    329500   300.91612     -142.11902      15730.298      0.99081766    -4860.3145      933.74973     -5794.0643      0              0              0              1088.528       22135.146     -29017.738    
    330000   299.69086     -82.278128      15641.471      0.99644447    -4832.3721      929.9477      -5762.3198      0              0              0              1080.6886      22176.243     -29019.252    
    330500   296.77182     -32.959449      15867.057      0.98227778    -4837.4005      920.88987     -5758.2904      0              0              0              1105.8286      22150.329     -29014.448    
    331000   307.28436      148.46624      15531.364      1.0035086     -4869.0779      953.51052     -5822.5884      0              0              0              1104.3822      22091.976     -29018.946    
    331500   296.33478      323.15257      15582.154      1.0002376     -4978.9787      919.53373     -5898.5124      0              0              0              1153.4662      21966.028     -29018.007    
    332000   299.88856     -392.05622      15787.898      0.98720282    -4886.8622      930.56116     -5817.4234      0              0              0              1093.4732      22103.152     -29014.048    
    332500   293.60017     -569.63854      15683.738      0.99375908    -4878.7791      911.04815     -5789.8272      0              0              0              1059.0423      22167.409     -29016.278    
    333000   303.38686      165.00266      15316.789      1.0175669     -4891.227       941.41648     -5832.6435      0              0              0              1104.7617      22083.404     -29020.809    
    333500   304.4141       324.9487       15345.129      1.0156876     -4913.2534      944.60403     -5857.8574      0              0              0              1115.8454      22045.729     -29019.432    
    334000   300.30986      156.59416      15688.471      0.99345927    -4829.1552      931.86848     -5761.0237      0              0              0              1096.2047      22158.419     -29015.647    
    334500   306.5052      -314.47696      15556.038      1.0019169     -4866.798       951.09276     -5817.8907      0              0              0              1080.0641      22119.209     -29017.164    
    335000   304.00975      370.72881      15521.419      1.0041516     -4890.5753      943.34932     -5833.9246      0              0              0              1124.0492      22060.872     -29018.846    
    335500   296.27034     -396.09667      15479.271      1.0068858     -4926.3153      919.33374     -5845.6491      0              0              0              1074.86        22098.634     -29019.143    
    336000   286.41224     -416.40194      15580.501      1.0003438     -4963.5296      888.74383     -5852.2734      0              0              0              1093.0244      22073.452     -29018.75     
    336500   302.84737     -1128.7458      15567.3        1.0011921     -4910.0462      939.74242     -5849.7887      0              0              0              1034.3977      22133.451     -29017.637    
    337000   299.58305     -659.88043      15480.741      1.0067902     -4862.7511      929.61318     -5792.3642      0              0              0              1031.7669      22194.097     -29018.228    
    337500   307.3536       363.5482       15659.64       0.99528833    -4902.6001      953.72537     -5856.3255      0              0              0              1141.2455      22018.696     -29016.267    
    338000   298.63399     -212.38331      15841.848      0.98384086    -4854.3768      926.66823     -5781.045       0              0              0              1076.1755      22157.657     -29014.877    
    338500   295.34205      713.25349      15683.973      0.99374422    -4865.2043      916.45325     -5781.6575      0              0              0              1138.9335      22093.738     -29014.328    
    339000   297.02994      461.48418      15601.984      0.99896634    -4864.5423      921.69081     -5786.2331      0              0              0              1123.3395      22110.178     -29019.75     
    339500   298.9791      -1096.9718      15625.975      0.99743263    -4952.7014      927.73909     -5880.4405      0              0              0              1058.7063      22078.649     -29017.795    
    340000   303.643        688.79897      15526.873      1.0037988     -4858.5564      942.21128     -5800.7677      0              0              0              1136.7265      22082.792     -29020.286    
    340500   297.71016      71.717398      15405.29       1.0117211     -4848.4259      923.80154     -5772.2274      0              0              0              1064.2486      22183.636     -29020.112    
    341000   295.03123      113.46905      15504.904      1.0052212     -4901.6435      915.48875     -5817.1322      0              0              0              1093.503       22102.963     -29013.598    
    341500   315.02971      60.337385      15962.014      0.97643425    -4733.892       977.54452     -5711.4366      0              0              0              1089.6202      22214.126     -29015.183    
    342000   301.33669      1558.655       15529.581      1.0036238     -4909.3465      935.05477     -5844.4012      0              0              0              1220.6361      21954.569     -29019.606    
    342500   296.47667     -1540.2593      16087.15       0.96883894    -4854.1446      919.974       -5774.1186      0              0              0              998.96864      22242.905     -29015.993    
    343000   288.42429      288.3595       15770.455      0.98829473    -4929.5307      894.98728     -5824.518       0              0              0              1137.5193      22056.153     -29018.19     
    343500   309.66145     -66.930152      15666.721      0.99483852    -4853.9677      960.88668     -5814.8544      0              0              0              1096.9023      22104.231     -29015.987    
    344000   304.82856      456.52645      15507.344      1.005063      -4826.1057      945.89013     -5771.9959      0              0              0              1099.021       22143.913     -29014.93     
    344500   302.89173      1353.0497      15542.995      1.0027577     -4800.0791      939.88009     -5739.9592      0              0              0              1145.8821      22129.716     -29015.557    
    345000   299.45395     -663.75423      15608.66       0.99853912    -4883.9954      929.21258     -5813.208       0              0              0              1041.7164      22163.925     -29018.85     
    345500   311.42972      485.05107      15570.583      1.000981      -4874.7555      966.37365     -5841.1292      0              0              0              1131.6802      22043.095     -29015.904    
    346000   306.19216     -160.94818      15982.332      0.97519295    -4834.2053      950.12141     -5784.3267      0              0              0              1101.5721      22132.643     -29018.541    
    346500   289.49284     -244.34819      15852.808      0.98316068    -4857.5719      898.30302     -5755.8749      0              0              0              1077.0826      22182.32      -29015.278    
    347000   297.22291      472.42595      15553.03       1.0021106     -4875.278       922.2896      -5797.5676      0              0              0              1134.6459      22082.453     -29014.667    
    347500   292.48984     -874.56741      15750.646      0.98953763    -4821.0681      907.60279     -5728.6709      0              0              0              1025.984       22263.335     -29017.99     
    348000   292.02281      237.32947      15497.299      1.0057144     -4911.5058      906.15357     -5817.6594      0              0              0              1107.9071      22093.148     -29018.714    
    348500   299.33571     -159.61456      15542.817      1.0027692     -4830.6981      928.84566     -5759.5438      0              0              0              1062.1451      22193.95      -29015.639    
    349000   302.58824      536.67983      15512.817      1.0047084     -4833.8856      938.93835     -5772.824       0              0              0              1104.6032      22140.963     -29018.391    
    349500   288.62539      178.45304      15418.871      1.01083       -4858.4         895.6113      -5754.0113      0              0              0              1077.5229      22186.808     -29018.342    
    350000   308.73345     -320.66637      15812.393      0.98567351    -4799.839       958.00708     -5757.846       0              0              0              1057.9728      22201.522     -29017.341    
    350500   301.28327     -43.891848      15513.371      1.0046725     -4882.6899      934.88899     -5817.5789      0              0              0              1093.5232      22104.623     -29015.725    
    351000   297.45443      24.435315      15551.876      1.002185      -4909.4347      923.00802     -5832.4427      0              0              0              1104.6489      22076.893     -29013.985    
    351500   302.30065     -58.859651      15842.752      0.98378472    -4840.4757      938.04595     -5778.5217      0              0              0              1104.6124      22134.52      -29017.654    
    352000   300.49718      451.95293      15552.7        1.0021319     -4923.2375      932.44974     -5855.6873      0              0              0              1151.9821      22009.749     -29017.418    
    352500   286.03163     -588.3464       15843.655      0.98372865    -4890.2052      887.5628      -5777.768       0              0              0              1068.2463      22168.833     -29014.847    
    353000   302.23484      664.82369      15626.363      0.99740788    -4933.6496      937.84174     -5871.4913      0              0              0              1170.0104      21973.96      -29015.462    
    353500   296.7719      -491.30565      15772.344      0.98817634    -4882.9886      920.8901      -5803.8787      0              0              0              1068.0636      22145.577     -29017.519    
    354000   301.94926      53.609362      15951.743      0.97706293    -4784.2751      936.95556     -5721.2307      0              0              0              1088.6984      22206.917     -29016.846    
    354500   293.33415      649.72262      15592.54       0.9995714     -4842.7876      910.22269     -5753.0103      0              0              0              1111.1911      22150.585     -29014.787    
    355000   312.538        1795.331       15457.026      1.0083348     -4834.5484      969.81268     -5804.3611      0              0              0              1195.1003      22016.542     -29016.004    
    355500   302.32581      554.82737      15771.172      0.98824976    -4831.1694      938.12401     -5769.2934      0              0              0              1140.1054      22105.625     -29015.024    
    356000   318.55725      810.31768      15351.596      1.0152597     -4866.8042      988.49054     -5855.2948      0              0              0              1152.064       22011.723     -29019.082    
    356500   316.95762     -596.13984      15621.898      0.99769291    -4807.0836      983.52687     -5790.6105      0              0              0              1042.6944      22180.538     -29013.843    
    357000   287.63839     -794.66736      15668.029      0.99475547    -4905.071       892.54862     -5797.6196      0              0              0              1040.8543      22176.349     -29014.823    
    357500   291.72014      33.308049      15642.598      0.99637269    -4920.1682      905.21437     -5825.3826      0              0              0              1121.7298      22069.423     -29016.535    
    358000   296.65998     -221.56728      15557.186      1.001843      -4866.8108      920.5428      -5787.3536      0              0              0              1079.1976      22150.969     -29017.52     
    358500   299.9338      -671.38322      15295.628      1.0189747     -4958.8308      930.70155     -5889.5323      0              0              0              1053.1138      22074.988     -29017.634    
    359000   305.36157      105.54654      15462.295      1.0079912     -4832.125       947.54406     -5779.669       0              0              0              1088.604       22151.82      -29020.093    
    359500   293.34076      764.06189      15347.117      1.015556      -4984.7074      910.2432      -5894.9506      0              0              0              1181.445       21942.037     -29018.432    
    360000   301.2508      -241.89437      15674.861      0.99432189    -4878.7978      934.78823     -5813.586       0              0              0              1084.3668      22118.54      -29016.493    
    360500   293.04919      362.75795      15329.613      1.0167156     -4922.9721      909.33846     -5832.3105      0              0              0              1105.1388      22077.753     -29015.202    
    361000   292.94019     -253.08783      15342.36       1.0158709     -4860.6291      909.00023     -5769.6294      0              0              0              1049.3613      22196.717     -29015.708    
    361500   298.12403      590.52494      15371.721      1.0139305     -4852.1416      925.08581     -5777.2274      0              0              0              1110.525       22127.063     -29014.815    
    362000   297.62375      1320.3051      15389.925      1.0127312     -4844.0856      923.5334      -5767.619       0              0              0              1157.3719      22091.258     -29016.249    
    362500   296.8659      -1437.0331      15631.394      0.99708685    -4927.6804      921.18178     -5848.8621      0              0              0              1016.6424      22153.744     -29019.248    
    363000   303.58864     -73.107595      15542.145      1.0028125     -4922.0087      942.0426      -5864.0513      0              0              0              1118.7306      22036.056     -29018.838    
    363500   307.61219     -495.238        15667.662      0.99477872    -4808.0867      954.52778     -5762.6145      0              0              0              1050.5391      22204.421     -29017.575    
    364000   302.84661      308.76626      15225.04       1.023699      -4947.8317      939.74007     -5887.5717      0              0              0              1121.288       22007.492     -29016.351    
    364500   301.29374     -52.979305      15439.297      1.0094927     -4937.056       934.92149     -5871.9775      0              0              0              1116.3615      22029.549     -29017.888    
    365000   314.31059      523.46847      15576.781      1.0005827     -4784.2851      975.31307     -5759.5981      0              0              0              1096.3699      22160.644     -29016.612    
    365500   305.34733      853.96722      15601.12       0.99902167    -4884.4387      947.49987     -5831.9386      0              0              0              1178.0509      22008.152     -29018.142    
    366000   291.77292     -9.5217758      15738.236      0.99031795    -4861.8776      905.37816     -5767.2558      0              0              0              1086.9225      22164.035     -29018.213    
    366500   300.29059      198.75362      15793.585      0.98684735    -4915.678       931.80869     -5847.4867      0              0              0              1141.4802      22027.316     -29016.282    
    367000   305.84696      48.906532      15718.408      0.99156719    -4850.053       949.05022     -5799.1033      0              0              0              1108.3752      22107.544     -29015.023    
    367500   307.62441     -1440.2827      16084.323      0.96900919    -4901.6561      954.56571     -5856.2218      0              0              0              1043.5376      22117.528     -29017.288    
    368000   293.23361     -340.76656      15675.511      0.99428063    -4870.456       909.9107      -5780.3667      0              0              0              1068.1843      22165.732     -29014.283    
    368500   297.15718     -350.94149      15905.632      0.97989552    -4859.5723      922.08563     -5781.658       0              0              0              1089.131       22146.978     -29017.767    
    369000   309.50571      436.51854      15943.788      0.97755046    -4807.2129      960.40341     -5767.6163      0              0              0              1131.3445      22113.895     -29012.856    
    369500   303.53795     -836.94332      15876.875      0.98167033    -4801.8575      941.88531     -5743.7428      0              0              0              1032.2277      22241.618     -29017.588    
    370000   297.26411     -175.43079      15636.49       0.99676189    -4856.549       922.41743     -5778.9664      0              0              0              1074.8374      22162.61      -29016.413    
    370500   303.19241     -331.48198      15836.549      0.98417002    -4834.9624      940.81311     -5775.7755      0              0              0              1085.1347      22156.196     -29017.106    
    371000   296.44113      712.11889      15348.575      1.0154595     -4921.6654      919.86373     -5841.5292      0              0              0              1146.1884      22028.491     -29016.208    
    371500   307.82986     -210.76674      15465.19       1.0078025     -4858.1017      955.20323     -5813.305       0              0              0              1089.2697      22113.567     -29016.142    
    372000   298.52843      224.72284      15526.159      1.003845      -4849.5003      926.34068     -5775.841       0              0              0              1096.7405      22142.434     -29015.015    
    372500   310.09424      382.43674      15564.251      1.0013882     -4851.1847      962.22965     -5813.4143      0              0              0              1125.0335      22078.105     -29016.553    
    373000   291.09633     -484.6107       15612.776      0.99827583    -4985.8826      903.27867     -5889.1613      0              0              0              1105.6997      22021.149     -29016.01     
    373500   303.02765     -89.900113      15609.073      0.99851267    -4855.3975      940.30184     -5795.6993      0              0              0              1089.3201      22131.981     -29017        
    374000   304.71584      824.2872       15360.058      1.0147004     -4876.3904      945.54033     -5821.9307      0              0              0              1136.3699      22060.639     -29018.94     
    374500   294.88771     -762.2845       15877.567      0.98162754    -4887.1991      915.04342     -5802.2425      0              0              0              1070.4485      22143.602     -29016.293    
    375000   291.16569     -681.27166      15874.606      0.98181064    -4927.2474      903.49391     -5830.7413      0              0              0              1077.4729      22110.666     -29018.88     
    375500   305.90436      199.93233      15497.528      1.0056996     -4868.1377      949.22833     -5817.366       0              0              0              1109.7931      22091.354     -29018.513    
    376000   298.44215     -720.4477       15671.162      0.99455659    -4828.8501      926.07293     -5754.923       0              0              0              1020.5972      22241.97      -29017.491    
    376500   302.91129      396.1718       15378.912      1.0134564     -4846.3226      939.94079     -5786.2634      0              0              0              1094.8482      22135.913     -29017.025    
    377000   291.01028      76.613995      15624.393      0.99753362    -4817.4088      903.01168     -5720.4205      0              0              0              1063.5554      22230.711     -29014.687    
    377500   297.41517      334.15051      15689.022      0.99342437    -4867.571       922.8862      -5790.4572      0              0              0              1115.9673      22110.167     -29016.591    
    378000   302.02439     -547.5641       15766.722      0.98852872    -4934.668       937.18871     -5871.8567      0              0              0              1107.9987      22037.597     -29017.452    
    378500   305.60008     -1158.2976      15880.112      0.98147024    -4853.4862      948.28416     -5801.7704      0              0              0              1025.2475      22190.045     -29017.063    
    379000   298.65804      1108.6344      15485.082      1.0065079     -4854.1691      926.74285     -5780.912       0              0              0              1163.5887      22072.021     -29016.521    
    379500   296.02969     -389.51357      15701.908      0.9926091     -4870.912       918.58701     -5789.4991      0              0              0              1066.0433      22158.304     -29013.846    
    380000   291.52006     -473.28512      15822.43       0.98504826    -4888.9672      904.59354     -5793.5608      0              0              0              1064.3281      22158.765     -29016.654    
    380500   303.15268     -660.03309      15682.352      0.9938469     -4867.9271      940.68982     -5808.6169      0              0              0              1046.785       22164.623     -29020.025    
    381000   300.33872     -922.99881      15699.016      0.992792      -4928.1286      931.95804     -5860.0867      0              0              0              1064.7548      22092.367     -29017.209    
    381500   298.74847      193.12377      15596.3        0.99933043    -4830.7492      927.02346     -5757.7726      0              0              0              1084.5898      22169.314     -29011.676    
    382000   307.68516      451.0631       15543.59       1.0027193     -4792.4413      954.75422     -5747.1955      0              0              0              1103.2816      22166.507     -29016.985    
    382500   297.04213      99.117942      15551.423      1.0022142     -4896.7174      921.72863     -5818.4461      0              0              0              1109.2983      22087.719     -29015.463    
    383000   295.44379     -406.86068      15505.537      1.0051801     -4901.5227      916.76895     -5818.2916      0              0              0              1063.1901      22136.504     -29017.985    
    383500   294.4849       81.812652      15794.63       0.98678201    -4862.354       913.79348     -5776.1475      0              0              0              1103.8182      22137.839     -29017.805    
    384000   287.26937     -499.20539      15774.924      0.98801474    -4902.4444      891.40355     -5793.848       0              0              0              1077.2258      22146.267     -29017.34     
    384500   301.40773      875.27874      15538.033      1.0030779     -4921.5962      935.2752      -5856.8714      0              0              0              1169.9705      21993.159     -29020.001    
    385000   312.13297      1540.1288      15677.883      0.99413024    -4765.678       968.55587     -5734.2339      0              0              0              1176.3669      22106.802     -29017.403    
    385500   294.93549     -351.196        15706.355      0.99232807    -4879.7019      915.1917      -5794.8936      0              0              0              1077.8001      22141.394     -29014.088    
    386000   293.09235      1036.026       15508.481      1.0049893     -4916.2222      909.47239     -5825.6945      0              0              0              1188.2628      22003.216     -29017.173    
    386500   302.86296     -472.61714      15475.796      1.0071119     -4845.3893      939.7908      -5785.1802      0              0              0              1045.9446      22184.409     -29015.534    
    387000   301.21038      6.9126759      15258.382      1.021462      -4864.8141      934.66283     -5799.4769      0              0              0              1061.7895      22156.3       -29017.566    
    387500   292.08429      115.50688      15529.671      1.003618      -4887.0717      906.34435     -5793.4161      0              0              0              1098.0999      22126.357     -29017.873    
    388000   289.40392      14.813892      15756.334      0.98918042    -4855.0288      898.02709     -5753.0559      0              0              0              1095.5182      22168.49      -29017.064    
    388500   311.66774     -526.74293      16055.667      0.97073868    -4798.6994      967.11225     -5765.8117      0              0              0              1076.3246      22171.324     -29013.46     
    389000   288.01018      643.20613      15444.21       1.0091716     -4967.8728      893.70229     -5861.5751      0              0              0              1161.1375      21993.35      -29016.062    
    389500   308.9179      -79.810837      15633.454      0.99695544    -4862.6619      958.57942     -5821.2413      0              0              0              1092.5893      22102.721     -29016.552    
    390000   290.04743      529.29247      15647.691      0.99604835    -4992.1284      900.02391     -5892.1523      0              0              0              1175.1093      21946.521     -29013.782    
    390500   311.5769      -689.33269      15857.729      0.98285555    -4871.3006      966.83037     -5838.1309      0              0              0              1076.4044      22100.927     -29015.462    
    391000   322.02436      704.48708      15412.782      1.0112293     -4834.2605      999.24907     -5833.5095      0              0              0              1132.2909      22052.312     -29018.113    
    391500   310.20537      514.67259      15719.889      0.99147376    -4869.7753      962.57449     -5832.3498      0              0              0              1148.4899      22035.52      -29016.36     
    392000   288.11118     -387.7033       15530.73       1.0035495     -4981.7227      894.01571     -5875.7384      0              0              0              1101.4029      22043.056     -29020.197    
    392500   300.0612       346.51818      15508.848      1.0049655     -4917.6007      931.09689     -5848.6975      0              0              0              1129.5185      22038.427     -29016.643    
    393000   294.76018     -106.38136      15706.952      0.99229038    -4965.0961      914.64771     -5879.7438      0              0              0              1136.7623      22001.015     -29017.521    
    393500   299.83688     -360.06239      15592.663      0.9995635     -4966.9438      930.4008      -5897.3446      0              0              0              1110.6237      22007.813     -29015.781    
    394000   307.87504      488.98813      15874.614      0.98181018    -4918.3425      955.34342     -5873.6859      0              0              0              1192.771       21948.475     -29014.932    
    394500   297.21938     -601.90558      15802.35       0.98629995    -4906.1304      922.27866     -5828.4091      0              0              0              1073.9489      22117.79      -29020.148    
    395000   306.09404      714.96831      15654.797      0.99559627    -4862.0087      949.81691     -5811.8256      0              0              0              1160.717       22043.609     -29016.151    
    395500   302.58592      508.29936      15891.054      0.98079442    -4894.6391      938.93116     -5833.5703      0              0              0              1167.0008      22016.519     -29017.09     
    396000   299.79365      1184.9947      15587.943      0.99986618    -4905.205       930.26666     -5835.4717      0              0              0              1193.6765      21989.108     -29018.256    
    396500   293.22516     -436.92926      15835.741      0.98422029    -4867.8153      909.88448     -5777.6997      0              0              0              1075.471       22164.429     -29017.6      
    397000   296.6069      -469.44533      15738.163      0.9903225     -4873.7855      920.37813     -5794.1637      0              0              0              1067.6834      22155.718     -29017.565    
    397500   296.60743     -426.09161      15961.071      0.97649194    -4834.235       920.37976     -5754.6147      0              0              0              1065.9709      22194.836     -29015.422    
    398000   301.40268      360.83476      15825.556      0.98485368    -4826.3387      935.25953     -5761.5982      0              0              0              1117.1745      22139.292     -29018.065    
    398500   286.76836      211.15911      15706.129      0.99234235    -4881.3255      889.8489      -5771.1744      0              0              0              1104.4634      22141.404     -29017.041    
    399000   288.79983     -885.84335      15889.347      0.98089981    -4991.9335      896.15259     -5888.0861      0              0              0              1087.4064      22039.234     -29014.726    
    399500   296.23278     -499.5458       15886.834      0.98105494    -4848.5708      919.21721     -5767.788       0              0              0              1063.1603      22188.816     -29019.765    
    400000   307.75464      110.59269      15866.267      0.98232668    -4854.765       954.9698      -5809.7348      0              0              0              1115.7701      22092.161     -29017.666    
    400500   299.58912     -6.7631665      15697.801      0.99286885    -4909.4669      929.632       -5839.0989      0              0              0              1115.3769      22063.003     -29017.479    
    401000   315.12411      335.80345      15693.019      0.99317135    -4845.9721      977.83744     -5823.8095      0              0              0              1132.9876      22060.126     -29016.923    
    401500   309.88846     -906.62499      15850.836      0.98328296    -4810.6535      961.59111     -5772.2446      0              0              0              1028.1211      22217.887     -29018.253    
    402000   310.34764      985.62755      15337.632      1.016184      -4876.9966      963.01594     -5840.0126      0              0              0              1158.3016      22020.229     -29018.543    
    402500   307.75677      60.729684      15548.026      1.0024332     -4870.6878      954.97642     -5825.6643      0              0              0              1101.4019      22088.825     -29015.892    
    403000   298.36671      348.07453      15796.536      0.986663      -4902.8253      925.83884     -5828.6641      0              0              0              1148.8013      22037.824     -29015.289    
    403500   315.99411     -225.75249      15671.07       0.99456239    -4861.0724      980.53708     -5841.6095      0              0              0              1093.8052      22081.783     -29017.198    
    404000   299.9464       125.48289      15506.108      1.0051431     -4837.2451      930.74066     -5767.9858      0              0              0              1087.629       22161.135     -29016.749    
    404500   299.53767     -245.12113      15624.006      0.99755833    -4938.1546      929.47235     -5867.6269      0              0              0              1111.8262      22035.251     -29014.704    
    405000   299.35842     -347.73263      15696.691      0.99293903    -4795.4112      928.91613     -5724.3273      0              0              0              1042.2775      22248.594     -29015.199    
    405500   296.71361     -294.80714      15661.331      0.99518088    -4841.3937      920.70923     -5762.1029      0              0              0              1054.3089      22199.771     -29016.183    
    406000   296.61235      285.94337      15433.385      1.0098794     -4891.8279      920.39501     -5812.2229      0              0              0              1091.405       22113.666     -29017.294    
    406500   299.6721      -531.14656      15507.198      1.0050724     -4833.4066      929.88951     -5763.2961      0              0              0              1031.5336      22223.289     -29018.119    
    407000   292.438       -839.54579      15789.308      0.98711467    -4886.4987      907.44191     -5793.9406      0              0              0              1044.6347      22176.291     -29014.867    
    407500   311.3628      -100.15411      15563.951      1.0014075     -4918.7831      966.16602     -5884.9491      0              0              0              1122.3466      22009.423     -29016.719    
    408000   305.19258      210.57779      15105.805      1.0317793     -4915.4573      947.01968     -5862.477       0              0              0              1079.1341      22074.38      -29015.991    
    408500   314.63166     -621.54106      15462.04       1.0080078     -4835.8292      976.30935     -5812.1385      0              0              0              1043.5573      22163.462     -29019.158    
    409000   299.05178      144.15322      15276.27       1.0202659     -4898.3717      927.96462     -5826.3363      0              0              0              1093.7707      22096.913     -29017.02     
    409500   299.71495      205.18752      15360.15       1.0146944     -4949.6619      930.02247     -5879.6844      0              0              0              1131.4502      22003.951     -29015.086    
    410000   296.95019     -26.67093       15595.428      0.9993863     -4949.6012      921.44333     -5871.0445      0              0              0              1117.0684      22029.63      -29017.743    
    410500   307.13924      945.01332      15481.932      1.0067127     -4820.3523      953.06021     -5773.4125      0              0              0              1139.8576      22102.752     -29016.022    
    411000   294.79626     -548.98674      15492.022      1.006057      -4908.6294      914.75965     -5823.3891      0              0              0              1053.4978      22141.026     -29017.913    
    411500   293.47794     -607.26543      15603.86       0.99884623    -4853.6219      910.66886     -5764.2907      0              0              0              1036.7206      22216.973     -29017.984    
    412000   304.43378     -769.16306      15596.444      0.99932122    -4901.423       944.66509     -5846.0881      0              0              0              1062.4653      22108.572     -29017.125    
    412500   292.9845      -754.27562      15572.66       1.0008474     -4945.2745      909.13771     -5854.4122      0              0              0              1056.6176      22102.376     -29013.406    
    413000   303.45535      147.88122      15548.656      1.0023926     -4842.5383      941.62901     -5784.1673      0              0              0              1082.3971      22148.816     -29015.38     
    413500   310.46636      139.6192       15481.919      1.0067135     -4850.6815      963.38433     -5814.0658      0              0              0              1103.4575      22095.657     -29013.18     
    414000   303.92277     -318.13979      15625.823      0.99744231    -4866.0038      943.07943     -5809.0832      0              0              0              1071.8001      22137.846     -29018.729    
    414500   287.51497     -321.72781      15570.271      1.001001      -4889.7722      892.16563     -5781.9379      0              0              0              1070.201       22162.695     -29014.834    
    415000   296.55394     -140.25087      15502.132      1.0054009     -4882.6031      920.21379     -5802.8169      0              0              0              1081.3448      22133.499     -29017.661    
    415500   284.33379     -1065.0838      15539.706      1.0029699     -4938.0485      882.29437     -5820.3428      0              0              0              1042.3955      22153.43      -29016.168    
    416000   286.79668     -175.02928      15481.13       1.0067648     -5009.1434      889.93678     -5899.0802      0              0              0              1121.7654      21999.426     -29020.272    
    416500   294.78898     -195.20081      15722.315      0.99132074    -4853.3736      914.73705     -5768.1106      0              0              0              1085.8802      22162.004     -29015.995    
    417000   296.41693      5.9911438      15709.416      0.99213476    -4900.8689      919.78862     -5820.6575      0              0              0              1108.5361      22085.447     -29014.64     
    417500   289.82695      675.65187      15826.348      0.9848044     -4946.6738      899.33976     -5846.0136      0              0              0              1179.5051      21992.269     -29017.787    
    418000   298.19028     -20.240278      15735.421      0.99049507    -4913.103       925.29137     -5838.3943      0              0              0              1119.8663      22060.367     -29018.628    
    418500   298.50854      246.15182      15577.856      1.0005136     -4906.6249      926.27893     -5832.9038      0              0              0              1129.6298      22057.644     -29020.178    
    419000   295.04824     -380.77368      15752.029      0.98945075    -4840.6724      915.54154     -5756.214       0              0              0              1059.4605      22200.396     -29016.07     
    419500   310.25637     -115.88543      15870.229      0.98208146    -4783.1342      962.73273     -5745.8669      0              0              0              1084.8755      22185.085     -29015.828    
    420000   299.41783     -310.84645      15756.614      0.98916282    -4905.4528      929.1005      -5834.5533      0              0              0              1089.8209      22094.565     -29018.939    
    420500   289.14313     -99.900116      15841.254      0.98387775    -4938.1056      897.21786     -5835.3235      0              0              0              1130.6782      22050.283     -29016.285    
    421000   295.83919      658.56033      15527.99       1.0037266     -4887.0504      917.99588     -5805.0463      0              0              0              1141.3674      22067.657     -29014.071    
    421500   306.53033      376.93427      15681.411      0.99390654    -4824.4185      951.17075     -5775.5892      0              0              0              1119.0483      22116.886     -29011.524    
    422000   289.8464      -383.67967      15902.921      0.98006257    -4908.6606      899.40012     -5808.0607      0              0              0              1095.0111      22112.086     -29015.158    
    422500   288.97577      204.33965      15389.006      1.0127917     -4964.3814      896.69853     -5861.08        0              0              0              1116.1807      22038.789     -29016.05     
    423000   304.3253      -75.051588      15375.535      1.013679      -4885.4134      944.32847     -5829.7419      0              0              0              1076.0872      22111.537     -29017.366    
    423500   303.26869     -88.211442      15849.989      0.98333555    -4863.4633      941.04979     -5804.5131      0              0              0              1102.5814      22107.083     -29014.178    
    424000   302.9469       770.43198      15571.499      1.0009221     -4911.7979      940.05127     -5851.8491      0              0              0              1169.1212      21993.312     -29014.282    
    424500   296.75296     -1268.9474      15826.876      0.98477156    -4846.1961      920.83134     -5767.0274      0              0              0              1006.0968      22246.424     -29019.548    
    425000   301.87948     -630.33205      15865.233      0.98239071    -4811.7965      936.73906     -5748.5356      0              0              0              1042.0732      22226.952     -29017.561    
    425500   306.49232      877.79695      15337.724      1.016178      -4831.8007      951.05279     -5782.8534      0              0              0              1118.9796      22113.327     -29015.16     
    426000   300.24289      255.02417      15608.166      0.99857071    -4843.1192      931.66068     -5774.7799      0              0              0              1104.5715      22138.474     -29017.825    
    426500   295.38198      452.18903      15478.559      1.006932      -4897.5564      916.57715     -5814.1336      0              0              0              1131.3267      22071.671     -29017.131    
    427000   296.78303     -250.33372      15624.544      0.99752398    -4877.1658      920.92465     -5798.0905      0              0              0              1075.668       22140.448     -29014.207    
    427500   298.74206     -700.89902      15780.495      0.98766592    -4899.3096      927.00356     -5826.3131      0              0              0              1065.773       22127.698     -29019.784    
    428000   301.04348     -520.47616      15715.809      0.99173114    -4875.8995      934.14491     -5810.0444      0              0              0              1075.9467      22132.98      -29018.971    
    428500   290.9779      -211.90227      15543.358      1.0027343     -4895.3079      902.91119     -5798.2191      0              0              0              1069.214       22148.27      -29015.703    
    429000   304.54172      496.17793      15697.752      0.99287194    -4783.9218      945.00004     -5728.9218      0              0              0              1107.9318      22181.152     -29018.006    
    429500   289.26593      521.80911      15098.54       1.0322758     -4945.4266      897.59891     -5843.0255      0              0              0              1120.0543      22053.725     -29016.805    
    430000   305.23582     -7.8231347      15497.836      1.0056796     -4829.822       947.15384     -5776.9759      0              0              0              1069.9457      22167.776     -29014.698    
    430500   304.18606      197.64166      15592.898      0.99954846    -4849.0111      943.89641     -5792.9075      0              0              0              1108.59        22115.071     -29016.568    
    431000   303.94338      1212.2541      15385.283      1.0130367     -4830.9891      943.14338     -5774.1325      0              0              0              1149.9774      22092.964     -29017.074    
    431500   306.62617     -177.07125      15644.453      0.99625453    -4874.7525      951.46813     -5826.2206      0              0              0              1096.9606      22094.636     -29017.817    
    432000   296.99199      308.79072      15656.299      0.99550075    -4899.3918      921.57305     -5820.9649      0              0              0              1120.5731      22077.218     -29018.756    
    432500   309.86312      128.876        15599.478      0.99912681    -4862.3448      961.51248     -5823.8573      0              0              0              1100.5915      22092.879     -29017.328    
    433000   302.28242      32.827371      15710.295      0.99207925    -4892.4167      937.98938     -5830.4061      0              0              0              1114.3869      22073.307     -29018.1      
    433500   295.86482     -645.50543      15797.845      0.9865812     -4950.7217      918.07542     -5868.7971      0              0              0              1091.1424      22060.254     -29020.193    
    434000   298.28911      274.76113      15488.467      1.0062879     -4896.7986      925.59805     -5822.3967      0              0              0              1107.4999      22092.936     -29022.833    
    434500   316.6969      -210.90194      15811.091      0.98575467    -4836.568       982.71785     -5819.2858      0              0              0              1096.6937      22101.421     -29017.401    
    435000   301.84577      1416.8129      15688.874      0.99343374    -4851.5752      936.63445     -5788.2097      0              0              0              1186.6388      22041.835     -29016.683    
    435500   303.11524     -715.38026      16091.039      0.96860477    -4796.9887      940.57363     -5737.5623      0              0              0              1050.7141      22229.331     -29017.607    
    436000   294.05622      139.56632      15654.327      0.99562617    -4876.9399      912.4633      -5789.4032      0              0              0              1097.9935      22130.912     -29018.309    
    436500   288.34591      301.82564      15846.728      0.98353788    -4915.0885      894.74407     -5809.8326      0              0              0              1138.4553      22067.04      -29015.328    
    437000   302.51427     -659.05207      15593.843      0.99948791    -4869.4817      938.70882     -5808.1905      0              0              0              1049.7755      22155.651     -29013.617    
    437500   294.67        -65.435981      15539.644      1.0029739     -4878.8782      914.36787     -5793.2461      0              0              0              1083.1848      22142.035     -29018.466    
    438000   298.04917      642.24388      15600.411      0.99906707    -4837.5564      924.85352     -5762.4099      0              0              0              1121.9396      22131.955     -29016.305    
    438500   296.23051     -455.72757      15533.893      1.0033452     -4856.1345      919.21018     -5775.3446      0              0              0              1037.0907      22205.196     -29017.631    
    439000   306.55689      172.13406      15321.485      1.017255      -4829.1772      951.25315     -5780.4303      0              0              0              1067.6903      22172.008     -29020.128    
    439500   315.01094     -511.44055      15707.772      0.99223858    -4829.6159      977.48628     -5807.1022      0              0              0              1063.2382      22145.057     -29015.398    
    440000   298.5603       1462.9415      15623.513      0.99758977    -4876.179       926.43956     -5802.6186      0              0              0              1206.5316      22008.846     -29017.996    
    440500   301.79659     -566.94873      15733.292      0.9906291     -4914.8442      936.48185     -5851.326       0              0              0              1083.8636      22083.775     -29018.964    
    441000   299.49049     -593.41878      15668.51       0.99472492    -4880.2912      929.32596     -5809.6172      0              0              0              1065.4917      22142.168     -29017.277    
    441500   290.85913     -2.6376966      15555.254      1.0019674     -4930.0408      902.54265     -5832.5834      0              0              0              1103.4473      22083.426     -29019.457    
    442000   302.86667      134.91427      15703.876      0.99248476    -4861.1949      939.80232     -5800.9972      0              0              0              1116.1039      22099.115     -29016.216    
    442500   289.97367     -915.67234      15765.73       0.98859093    -4954.8899      899.79505     -5854.685       0              0              0              1063.0872      22100.251     -29018.023    
    443000   294.55265     -592.33269      15837.98       0.98408115    -4902.5055      914.00373     -5816.5093      0              0              0              1082.7424      22113.363     -29012.615    
    443500   300.63864      582.7065       15683.375      0.99378206    -4859.2321      932.88871     -5792.1208      0              0              0              1139.6966      22084.225     -29016.042    
    444000   307.69089      23.16203       15652.816      0.99572223    -4866.9492      954.77199     -5821.7212      0              0              0              1104.0313      22090.198     -29015.951    
    444500   295.13385     -593.71568      15853.154      0.9831392     -4840.4729      915.8072      -5756.2801      0              0              0              1057.1225      22202.521     -29015.924    
    445000   310.21218     -626.36989      15685.687      0.99363564    -4880.379       962.5956      -5842.9746      0              0              0              1070.0338      22103.768     -29016.776    
    445500   300.49984      478.86827      15297.369      1.0188587     -4897.143       932.45798     -5829.601       0              0              0              1116.0588      22069.783     -29015.443    
    446000   314.81821     -103.7479       15939.3        0.97782571    -4727.4862      976.88823     -5704.3745      0              0              0              1077.7276      22232.654     -29014.756    
    446500   303.79411     -788.93552      15668.082      0.99475206    -4892.1355      942.68018     -5834.8157      0              0              0              1057.9794      22124.969     -29017.764    
    447000   304.41986      100.34646      15568.151      1.0011373     -4925.3274      944.62191     -5869.9493      0              0              0              1118.8468      22027.138     -29015.934    
    447500   299.79391     -549.39508      15713.324      0.99188798    -4862.946       930.26747     -5793.2135      0              0              0              1071.1084      22150.909     -29015.231    
    448000   302.27346      110.21736      15674.28       0.99435873    -4888.7078      937.96158     -5826.6693      0              0              0              1113.9949      22078.205     -29018.869    
    448500   299.55837     -427.36959      15755.969      0.98920331    -4872.9371      929.53659     -5802.4737      0              0              0              1078.5074      22136.126     -29017.107    
    449000   298.72208      387.87876      15717.825      0.99160396    -4891.6224      926.94158     -5818.564       0              0              0              1133.7755      22063.815     -29016.155    
    449500   312.23404     -498.99308      15855.393      0.98300036    -4821.8865      968.86949     -5790.7559      0              0              0              1065.1801      22160.377     -29016.313    
    450000   289.99041      102.99736      15451.319      1.0087072     -4939.5886      899.84698     -5839.4356      0              0              0              1106.6168      22072.948     -29019.001    
    450500   292.09499     -254.87227      15687.632      0.99351241    -4842.4319      906.37756     -5748.8095      0              0              0              1059.9625      22207.14      -29015.912    
    451000   297.07007      1075.0109      15640.774      0.99648884    -4864.9966      921.81532     -5786.812       0              0              0              1166.6314      22063.404     -29016.847    
    451500   310.02307      29.42362       15656.161      0.99550952    -4813.4775      962.00879     -5775.4863      0              0              0              1078.614       22162.301     -29016.402    
    452000   304.81747      92.540407      15497.057      1.0057301     -4808.1705      945.85571     -5754.0262      0              0              0              1065.4727      22194.396     -29013.895    
    452500   298.77223     -265.61933      15619.458      0.99784877    -4903.6258      927.09717     -5830.723       0              0              0              1086.3483      22098.271     -29015.342    
    453000   298.51454     -412.63447      15894.412      0.98058723    -4834.1722      926.29758     -5760.4698      0              0              0              1073.9324      22179.015     -29013.417    
    453500   301.98731      512.23086      15701.039      0.99266407    -4849.3717      937.07365     -5786.4453      0              0              0              1130.4507      22096.08      -29012.976    
    454000   299.47711      382.6503       15457.512      1.0083031     -4905.5209      929.28445     -5834.8053      0              0              0              1129.1782      22050.857     -29014.84     
    454500   304.34206     -351.54227      15850.694      0.98329181    -4916.881       944.3805      -5861.2615      0              0              0              1116.1292      22040.922     -29018.313    
    455000   290.80721     -405.40324      15793.2        0.98687138    -4937.6762      902.38154     -5840.0578      0              0              0              1100.3667      22076.728     -29017.152    
    455500   312.30497      124.05814      15646.159      0.99614589    -4824.6079      969.0896      -5793.6975      0              0              0              1107.0631      22112.867     -29013.627    
    456000   284.4323      -169.86766      15785.054      0.98738066    -4858.4399      882.60003     -5741.0399      0              0              0              1068.2928      22207.599     -29016.932    
    456500   316.63589     -636.07751      16031.779      0.97218511    -4787.5107      982.52854     -5770.0392      0              0              0              1058.4055      22187.869     -29016.313    
    457000   296.10323      262.61715      15675.758      0.99426498    -4867.7205      918.8152      -5786.5357      0              0              0              1116.2325      22111.723     -29014.491    
    457500   305.52151     -201.14175      15846.801      0.98353335    -4865.721       948.04036     -5813.7614      0              0              0              1086.0954      22118.69      -29018.546    
    458000   282.69844     -1274.7525      15575.656      1.000655      -4900.6225      877.21982     -5777.8423      0              0              0              987.1034       22251.451     -29016.397    
    458500   290.96424     -356.40704      15559.891      1.0016688     -4941.7337      902.86881     -5844.6025      0              0              0              1082.4698      22088.047     -29015.119    
    459000   290.60312     -397.42998      15525.314      1.0038997     -4860.4208      901.74823     -5762.169       0              0              0              1041.1185      22209.338     -29012.625    
    459500   298.77063     -281.38439      15686.246      0.99360018    -4869.9421      927.09223     -5797.0343      0              0              0              1074.7792      22144.261     -29016.075    
    460000   295.77992     -578.29381      15583.176      1.0001721     -4838.729       917.81198     -5756.541       0              0              0              1026.7883      22236.173     -29019.502    
    460500   298.88731      1043.6993      15521.05       1.0041755     -4826.9125      927.45426     -5754.3668      0              0              0              1145.9413      22117.488     -29017.796    
    461000   302.27547      394.06823      15405.493      1.0117078     -4880.3856      937.9678      -5818.3534      0              0              0              1104.9969      22095.402     -29018.752    
    461500   298.90316     -851.1222       15657.474      0.99542604    -4840.6653      927.50345     -5768.1687      0              0              0              1012.7254      22234.002     -29014.896    
    462000   298.55339      211.111        15895.617      0.9805129     -4838.1989      926.41811     -5764.617       0              0              0              1112.378       22140.077     -29017.072    
    462500   284.74041      1032.8549      15483.093      1.0066372     -4866.7372      883.55612     -5750.2933      0              0              0              1141.1129      22119.932     -29011.338    
    463000   297.36934     -1020.7153      15859.86       0.98272348    -4870.5362      922.74398     -5793.2802      0              0              0              1037.7559      22181.097     -29012.133    
    463500   303.56515     -313.01341      15753.608      0.98935157    -4875.2183      941.96974     -5817.1881      0              0              0              1076.7134      22120.745     -29014.647    
    464000   291.60035      15.171841      15746.239      0.98981457    -4889.0454      904.84268     -5793.8881      0              0              0              1096.8537      22123.34      -29014.082    
    464500   294.7322      -246.31833      15916.536      0.9792242     -4842.5429      914.56087     -5757.1038      0              0              0              1091.6256      22166.387     -29015.117    
    465000   299.74073     -607.79556      15860.257      0.98269888    -4946.3585      930.10246     -5876.461       0              0              0              1097.3056      22043.101     -29016.868    
    465500   310.31276      360.8322       16047.781      0.97121569    -4817.1281      962.90772     -5780.0358      0              0              0              1147.1724      22088.894     -29016.103    
    466000   304.4014       725.07998      15821.966      0.98507717    -4843.604       944.56463     -5788.1686      0              0              0              1159.3679      22066.505     -29014.041    
    466500   298.1825       157.86697      15885.845      0.98111603    -4890.1639      925.26723     -5815.4312      0              0              0              1138.2942      22063.156     -29016.882    
    467000   300.84458     -704.28336      15777.237      0.98786989    -4848.7874      933.52774     -5782.3152      0              0              0              1047.7037      22185.271     -29015.29     
    467500   291.43455      913.80599      15351.243      1.0152831     -4847.9019      904.3282      -5752.2301      0              0              0              1118.0863      22146.456     -29016.772    
    468000   283.32847     -1216.7375      15796.648      0.98665601    -4915.2517      879.17482     -5794.4265      0              0              0              1030.0132      22192.116     -29016.556    
    468500   311.33119     -236.86139      15713.555      0.9918734     -4765.8061      966.06793     -5731.874       0              0              0              1044.3263      22242.269     -29018.469    
    469000   308.53668      44.35838       15487.008      1.0063827     -4877.7585      957.3965      -5835.155       0              0              0              1099.8627      22084.931     -29019.948    
    469500   300.80059     -498.99968      15639.019      0.99660072    -4850.6013      933.39121     -5783.9926      0              0              0              1044.75        22190.392     -29019.134    
    470000   305.86472     -251.08578      15886.496      0.98107585    -4885.1926      949.10535     -5834.298       0              0              0              1108.4903      22074.241     -29017.029    
    470500   305.76075     -768.5288       15672.645      0.99446244    -4793.5936      948.78272     -5742.3763      0              0              0              1005.1588      22271.52      -29019.055    
    471000   299.14252     -208.55178      15357.571      1.0148647     -4946.6335      928.24621     -5874.8798      0              0              0              1090.7861      22051.899     -29017.565    
    471500   299.07038     -558.56715      15629.933      0.99718005    -4819.2049      928.02236     -5747.2273      0              0              0              1038.0781      22229.905     -29015.211    
    472000   301.04812     -681.61212      15764.641      0.98865922    -4837.1735      934.15933     -5771.3329      0              0              0              1037.5178      22204.893     -29013.744    
    472500   299.71843      1088.8091      15457.425      1.0083088     -4899.9507      930.03325     -5829.984       0              0              0              1177.7272      22007.188     -29014.899    
    473000   290.82826     -108.41443      15843.586      0.9837329     -4876.033       902.44686     -5778.4798      0              0              0              1098.1447      22139.21      -29015.834    
    473500   309.65014     -496.34322      15619.53       0.99784418    -4802.7306      960.8516      -5763.5822      0              0              0              1054.1736      22197.981     -29015.737    
    474000   293.06351      245.98591      15576.58       1.0005956     -4895.3766      909.38288     -5804.7594      0              0              0              1121.6113      22085.913     -29012.284    
    474500   291.40157      1464.0213      15520.399      1.0042175     -4892.3486      904.22584     -5796.5744      0              0              0              1194.5604      22027.292     -29018.427    
    475000   298.03626      775.84664      15444.828      1.0091312     -4862.5047      924.81346     -5787.3181      0              0              0              1129.9353      22102.205     -29019.459    
    475500   304.29298      55.529093      15694.808      0.99305817    -4890.1861      944.2282      -5834.4142      0              0              0              1124.0336      22058.801     -29017.249    
    476000   290.91706     -94.711082      15706.942      0.992291      -4849.3346      902.72241     -5752.057       0              0              0              1070.2449      22192.768     -29015.07     
    476500   301.56869      319.01034      15468.885      1.0075618     -4873.2739      935.77465     -5809.0485      0              0              0              1107.1846      22102.054     -29018.287    
    477000   298.56608     -9.1696233      15622.89       0.9976296     -4846.1485      926.45748     -5772.606       0              0              0              1094.4218      22145.729     -29012.757    
    477500   289.56212      832.99437      15437.715      1.0095961     -4908.2489      898.51798     -5806.7669      0              0              0              1146.6745      22063.307     -29016.748    
    478000   308.32085     -448.26997      15651.74       0.99579067    -4840.6536      956.72677     -5797.3803      0              0              0              1064.7924      22153.634     -29015.807    
    478500   285.17942      907.21434      15480.321      1.0068174     -4907.9841      884.91836     -5792.9025      0              0              0              1155.2705      22069.89      -29018.063    
    479000   299.54529     -777.12038      15694.439      0.99308154    -4886.2163      929.49601     -5815.7123      0              0              0              1047.607       22152.575     -29015.895    
    479500   293.19624      850.96768      15464.021      1.0078787     -4904.6383      909.79477     -5814.433       0              0              0              1136.969       22063.857     -29015.259    
    480000   293.78721     -1415.9632      15644.376      0.99625944    -4880.96        911.62856     -5792.5886      0              0              0              996.19123      22228.859     -29017.639    
    480500   305.77317     -574.81912      15373.465      1.0138155     -4916.9359      948.82125     -5865.7572      0              0              0              1054.7384      22095.876     -29016.372    
    481000   297.45595      618.90274      15670.652      0.99458891    -4889.0255      923.01273     -5812.0382      0              0              0              1160.9947      22040.761     -29013.793    
    481500   301.5797      -172.67764      15440.056      1.0094431     -4895.615       935.80884     -5831.4238      0              0              0              1084.7511      22101.049     -29017.224    
    482000   291.85186     -164.84013      15443.739      1.0092023     -4885.4728      905.6231      -5791.0959      0              0              0              1069.577       22157.341     -29018.014    
    482500   297.27518     -713.99319      15678.866      0.99406785    -4899.4526      922.45179     -5821.9044      0              0              0              1057.8287      22135.931     -29015.664    
    483000   287.60107      1012.9126      15684.837      0.99368947    -4908.6078      892.43281     -5801.0406      0              0              0              1174.602       22040.752     -29016.395    
    483500   301.33913     -774.54431      15701.208      0.9926534     -4892.9844      935.06233     -5828.0467      0              0              0              1057.9913      22129.192     -29015.23     
    484000   306.33644      836.64387      15409.2        1.0114644     -4847.8428      950.56911     -5798.4119      0              0              0              1132.6532      22084.043     -29015.108    
    484500   307.0303       1296.1822      15343.942      1.0157661     -4916.0411      952.72217     -5868.7632      0              0              0              1193.1706      21956.013     -29017.947    
    485000   296.45997     -529.58665      15826.644      0.98478598    -4899.8628      919.92217     -5819.785       0              0              0              1091.1908      22108.875     -29019.851    
    485500   310.48286      574.02607      15374.922      1.0137194     -4894.195       963.43555     -5857.6306      0              0              0              1139.646       22021.088     -29018.364    
    486000   304.40312     -1042.8219      15812.938      0.98563953    -4848.8955      944.56997     -5793.4655      0              0              0              1029.6769      22192.743     -29015.886    
    486500   301.02405      1133.7543      15473.333      1.0072722     -4872.9413      934.08462     -5807.0259      0              0              0              1169.6852      22038.446     -29015.157    
    487000   298.07493      45.119158      15740.193      0.99019478    -4929.68        924.93345     -5854.6134      0              0              0              1123.8734      22039.136     -29017.622    
    487500   307.31431      972.14176      15663.082      0.99506964    -4823.9996      953.60347     -5777.6031      0              0              0              1166.6374      22072.818     -29017.059    
    488000   310.09712     -109.95809      15592.027      0.99960432    -4836.2289      962.23859     -5798.4675      0              0              0              1086.7044      22133.308     -29018.48     
    488500   309.27311      492.13651      15375.761      1.0136641     -4831.5935      959.68164     -5791.2752      0              0              0              1097.8326      22123.579     -29012.687    
    489000   297.35832      710.56125      15391.798      1.0126079     -4930.6471      922.70977     -5853.3568      0              0              0              1161.0064      22002.37      -29016.733    
    489500   295.17633     -456.80017      15769.728      0.98834027    -4843.8876      915.93901     -5759.8266      0              0              0              1067.9387      22187.41      -29015.175    
    490000   296.69127      30.136195      15381.298      1.0132992     -4855.0585      920.63993     -5775.6984      0              0              0              1072.1812      22166.719     -29014.598    
    490500   303.96822     -1141.0561      15492.16       1.006048      -4811.9338      943.22046     -5755.1542      0              0              0              986.17696      22277.69      -29019.021    
    491000   293.85284      1059.8027      15450.565      1.0087564     -4888.7627      911.83221     -5800.5949      0              0              0              1149.1138      22066.6       -29016.309    
    491500   300.12987     -515.7093       15899.52       0.9802722     -4879.5899      931.30996     -5810.8999      0              0              0              1077.4518      22128.493     -29016.845    
    492000   302.80315      19.200832      15706.038      0.99234814    -4873.9515      939.60521     -5813.5567      0              0              0              1107.5338      22098.514     -29019.605    
    492500   306.26978      692.79909      15695.833      0.99299328    -4780.4177      950.36225     -5730.78        0              0              0              1111.481       22176.285     -29018.546    
    493000   289.98428      394.88057      15518.415      1.004346      -4862.5604      899.82798     -5762.3884      0              0              0              1106.108       22149.963     -29018.459    
    493500   296.53053      453.47554      15339.386      1.0160678     -4910.6267      920.14114     -5830.7679      0              0              0              1120.3306      22070.232     -29021.331    
    494000   294.33403      228.08907      15669.63       0.9946538     -4833.7614      913.32533     -5747.0867      0              0              0              1091.1885      22177.496     -29015.771    
    494500   301.14565      717.91489      15446.716      1.0090078     -4907.5688      934.46195     -5842.0307      0              0              0              1140.1224      22035.819     -29017.972    
    495000   300.46149     -251.60058      15771.486      0.98823012    -4848.9425      932.33898     -5781.2814      0              0              0              1085.8795      22148.75      -29015.911    
    495500   313.00439      430.76568      15955.886      0.97680925    -4846.9571      971.25989     -5818.217       0              0              0              1158.5429      22040.007     -29016.767    
    496000   287.44839     -552.52721      15874.271      0.98183137    -4882.9557      891.95904     -5774.9147      0              0              0              1061.7999      22178.234     -29014.948    
    496500   309.34682      934.13379      15936.746      0.97798243    -4879.0128      959.91037     -5838.9232      0              0              0              1197.5825      21981.6       -29018.105    
    497000   293.29176      759.56035      16004.501      0.97384209    -4795.6414      910.09114     -5705.7325      0              0              0              1139.7446      22172.153     -29017.63     
    497500   307.77919     -412.6509       15848          0.9834589     -4840.3004      955.04597     -5795.3463      0              0              0              1073.2538      22147.549     -29016.149    
    498000   297.06695     -401.10716      15755.326      0.98924369    -4877.619       921.80565     -5799.4247      0              0              0              1069.7438      22146.951     -29016.12     
    498500   310.96257      249.72636      15880.269      0.9814605     -4792.7648      964.92408     -5757.6889      0              0              0              1107.7258      22147.299     -29012.713    
    499000   300.73514      490.9111       15614.823      0.998145      -4910.3954      933.18812     -5843.5835      0              0              0              1158.436       22016.812     -29018.831    
    499500   292.80703     -123.37341      15722.312      0.99132096    -4900.4188      908.58701     -5809.0058      0              0              0              1108.1677      22097.856     -29015.03     
    500000   305.89886     -685.67877      15658.598      0.99535458    -4852.9145      949.21129     -5802.1258      0              0              0              1044.1559      22170.685     -29016.966    
    500500   320.44104     -60.418141      15737.821      0.99034402    -4786.5474      994.336       -5780.8834      0              0              0              1083.2842      22152.871     -29017.038    
    501000   305.55703      719.76545      15510.128      1.0048826     -4909.4396      948.15056     -5857.5902      0              0              0              1164.2847      21998.267     -29020.142    
    501500   302.70042      563.3699       15727.96       0.99096497    -4866.875       939.28645     -5806.1614      0              0              0              1150.7501      22062.123     -29019.034    
    502000   292.41283     -411.73455      15741.07       0.99013964    -4854.0103      907.36381     -5761.3741      0              0              0              1067.3112      22188.817     -29017.502    
    502500   301.2969      -1434.0951      15789.914      0.98707676    -4888.3079      934.93128     -5823.2392      0              0              0              1017.0117      22174.849     -29015.1      
    503000   292.87336      808.37636      15429.534      1.0101314     -4890.9819      908.79284     -5799.7748      0              0              0              1132.2717      22086.617     -29018.664    
    503500   301.75378     -29.610598      16001.447      0.974028      -4879.8093      936.349       -5816.1583      0              0              0              1132.0807      22069.912     -29018.151    
    504000   303.42234      37.663407      15746.842      0.98977667    -4867.9039      941.52659     -5809.4305      0              0              0              1108.8514      22100.347     -29018.629    
    504500   308.48892      1535.4264      15285.218      1.0196686     -4855.9711      957.24831     -5813.2194      0              0              0              1188.9682      22014.85      -29017.038    
    505000   305.55024     -449.22403      15715.281      0.99176448    -4856.7883      948.12951     -5804.9178      0              0              0              1068.7149      22147.891     -29021.523    
    505500   290.88746      124.50017      15551.612      1.002202      -4968.668       902.63055     -5871.2985      0              0              0              1141.3794      22003.325     -29016.003    
    506000   316.51523     -701.84602      15767.15       0.98850186    -4865.6504      982.15412     -5847.8045      0              0              0              1068.3421      22101.824     -29017.971    
    506500   301.57515      593.77192      15646.346      0.99613403    -4835.37        935.79472     -5771.1647      0              0              0              1127.9234      22120.302     -29019.39     
    507000   298.98919     -80.761054      15762.511      0.98879278    -4866.0503      927.77041     -5793.8207      0              0              0              1089.2055      22133.037     -29016.063    
    507500   299.88523      0.19721384     15646.312      0.99613613    -4915.8907      930.55083     -5846.4415      0              0              0              1125.9789      22046.426     -29018.846    
    508000   289.83962      566.24915      15596.776      0.99929991    -4941.3906      899.37909     -5840.7697      0              0              0              1151.4124      22023.774     -29015.956    
    508500   290.62126      498.66297      15496.431      1.0057708     -4950.7969      901.80453     -5852.6014      0              0              0              1144.8127      22021.903     -29019.317    
    509000   293.32538     -1175.0878      15915.656      0.97927837    -4937.7222      910.19548     -5847.9177      0              0              0              1050.1919      22119.979     -29018.089    
    509500   309.9607       85.226431      15661.119      0.99519432    -4831.7477      961.81525     -5793.5629      0              0              0              1095.18        22127.924     -29016.667    
    510000   299.91148     -230.30447      15554.125      1.0020401     -4898.0382      930.63229     -5828.6705      0              0              0              1086.4136      22103.312     -29018.396    
    510500   304.77418     -938.78146      15503.796      1.005293      -4880.2543      945.72137     -5825.9756      0              0              0              1031.0158      22163.333     -29020.324    
    511000   309.52801      868.48844      15449.881      1.0088011     -4816.8575      960.47262     -5777.3302      0              0              0              1130.5817      22109.093     -29017.005    
    511500   308.76585     -425.27418      15679.412      0.99403324    -4825.3574      958.10763     -5783.465       0              0              0              1066.5489      22168.823     -29018.837    
    512000   292.25522      196.26987      15470.869      1.0074326     -4881.3333      906.87473     -5788.2081      0              0              0              1089.6821      22140.509     -29018.399    
    512500   300.86322      108.92626      15369.492      1.0140776     -4879.0821      933.58557     -5812.6677      0              0              0              1087.203       22118.237     -29018.108    
    513000   307.17278     -35.118574      15546.177      1.0025524     -4836.4901      953.16429     -5789.6544      0              0              0              1084.238       22142.39      -29016.282    
    513500   298.8669       1679.5397      15398.319      1.0121792     -4873.27        927.39095     -5800.6609      0              0              0              1204.9737      22011.534     -29017.168    
    514000   301.78371      549.41512      15685.059      0.99367539    -4825.3115      936.44188     -5761.7533      0              0              0              1133.4957      22121.925     -29017.174    
    514500   305.3916       937.90008      15376.692      1.0136027     -4868.257       947.63725     -5815.8943      0              0              0              1148.669       22052.098     -29016.661    
    515000   309.30119     -1337.7884      15681.126      0.99392461    -4914.177       959.76879     -5873.9458      0              0              0              1037.3298      22108.095     -29019.37     
    515500   293.77028      649.14431      15644.463      0.9962539     -4896.6821      911.57601     -5808.2581      0              0              0              1148.181       22060.955     -29017.394    
    516000   295.73096      383.24006      15788.721      0.98715136    -4767.3036      917.66006     -5684.9636      0              0              0              1089.2575      22239.644     -29013.866    
    516500   290.47592      757.20361      15551.994      1.0021774     -4921.7959      901.35352     -5823.1494      0              0              0              1168.4165      22027.662     -29019.227    
    517000   308.78107     -30.989154      15574.646      1.0007198     -4858.2424      958.15486     -5816.3972      0              0              0              1096.3421      22104.133     -29016.873    
    517500   307.28977      112.99567      15521.053      1.0041752     -4867.1078      953.5273      -5820.6351      0              0              0              1094.8355      22103.594     -29019.065    
    518000   290.87197     -130.69636      15588.253      0.99984631    -4921.1221      902.58249     -5823.7046      0              0              0              1081.6765      22109.907     -29015.288    
    518500   292.82793     -490.13012      15618.41       0.99791572    -4908.1593      908.65189     -5816.8112      0              0              0              1073.1284      22127.616     -29017.556    
    519000   297.08133      37.88361       15575.62       1.0006573     -4877.8492      921.85028     -5799.6994      0              0              0              1091.5411      22125.207     -29016.448    
    519500   303.47345      161.95215      15544.542      1.0026579     -4853.1774      941.68518     -5794.8626      0              0              0              1104.2813      22118.902     -29018.046    
    520000   307.51833      411.77966      15688.419      0.9934626     -4775.8238      954.23654     -5730.0603      0              0              0              1093.7118      22195.86      -29019.633    
    520500   297.48178     -717.78759      15707.878      0.99223187    -4867.7347      923.09288     -5790.8276      0              0              0              1038.8457      22184.255     -29013.929    
    521000   299.82226     -233.11801      15644.878      0.99622744    -4859.5041      930.35546     -5789.8596      0              0              0              1073.5135      22152.967     -29016.34     
    521500   293.34339     -286.93582      15853.735      0.98310315    -4844.6675      910.25136     -5754.9188      0              0              0              1084.7537      22175.189     -29014.862    
    522000   302.01075      490.58825      15435.117      1.0097661     -4878.5896      937.14637     -5815.7359      0              0              0              1119.1768      22081.545     -29016.457    
    522500   301.49151      942.19508      15624.856      0.99750402    -4788.2305      935.53517     -5723.7656      0              0              0              1140.0555      22154.144     -29017.965    
    523000   297.84481     -431.72244      15747.008      0.98976624    -4827.5876      924.21939     -5751.8069      0              0              0              1055.6442      22212.737     -29020.188    
    523500   308.88709      426.99487      15505.545      1.0051796     -4809.4438      958.48383     -5767.9276      0              0              0              1098.042       22151.371     -29017.341    
    524000   320.5736       55.421209      15492.415      1.0060314     -4791.1962      994.74734     -5785.9435      0              0              0              1072.5783      22161.432     -29019.954    
    524500   299.17602      355.32614      15621.946      0.99768984    -4790.1086      928.35015     -5718.4588      0              0              0              1098.5379      22197.292     -29014.288    
    525000   298.84322      261.06841      15671.923      0.99450831    -4895.8844      927.31747     -5823.2019      0              0              0              1140.3185      22053.854     -29017.375    
    525500   304.96716      460.44081      15383.951      1.0131245     -4851.3121      946.32019     -5797.6323      0              0              0              1123.1775      22096.241     -29017.051    
    526000   297.38184      115.20871      15507.726      1.0050382     -4901.3521      922.78278     -5824.1349      0              0              0              1109.4282      22084.204     -29017.767    
    526500   300.02203      86.174141      15437.331      1.0096212     -4958.727       930.97534     -5889.7023      0              0              0              1127.9202      22002.058     -29019.681    
    527000   303.31765     -20.304323      15809.306      0.98586597    -4921.434       941.20171     -5862.6357      0              0              0              1144.3143      22009.793     -29016.743    
    527500   291.22429      659.41114      15560.298      1.0016426     -4881.1619      903.67573     -5784.8376      0              0              0              1137.2608      22092.173     -29014.272    
    528000   291.2256       39.309751      15618.204      0.99792892    -4969.5535      903.67982     -5873.2333      0              0              0              1145.3528      21998.235     -29016.821    
    528500   307.67053     -186.30347      15806.181      0.98606088    -4879.2653      954.70883     -5833.9741      0              0              0              1102.1531      22080.921     -29017.048    
    529000   305.58972      484.69294      15626.945      0.99737071    -4918.0901      948.25201     -5866.3421      0              0              0              1150.4793      21999.994     -29016.816    
    529500   289.59448     -50.688969      15687.75       0.99350495    -4985.6668      898.61842     -5884.2852      0              0              0              1135.0082      21996.423     -29015.717    
    530000   298.51925      295.09845      15473.395      1.0072681     -4899.4308      926.31218     -5825.743       0              0              0              1120.4453      22073.193     -29019.382    
    530500   292.45864      32.599017      15521.957      1.0041167     -4856.9933      907.50595     -5764.4993      0              0              0              1085.9704      22166.528     -29016.998    
    531000   286.7521      -343.77896      15747.289      0.98974857    -4930.4886      889.79845     -5820.2871      0              0              0              1098.5943      22099.596     -29018.478    
    531500   300.95754      552.04158      15493.884      1.0059361     -4884.2864      933.87824     -5818.1646      0              0              0              1133.0143      22066.444     -29017.623    
    532000   299.00427     -240.84725      15599.086      0.99915197    -4854.5064      927.81722     -5782.3236      0              0              0              1070.6394      22161.753     -29014.716    
    532500   307.14205     -6.2359195      15767.443      0.98848349    -4859.3816      953.06892     -5812.4505      0              0              0              1111.9909      22093.057     -29017.498    
    533000   293.33837     -621.57663      15743.093      0.9900124     -4894.8355      910.23577     -5805.0713      0              0              0              1070.1445      22140.326     -29015.541    
    533500   298.78167      450.65416      15628.784      0.99725335    -4885.9293      927.12647     -5813.0558      0              0              0              1144.7743      22061.119     -29018.949    
    534000   301.20646      347.10996      15784.078      0.98744171    -4913.0966      934.65066     -5847.7472      0              0              0              1150.3678      22020.859     -29018.974    
    534500   284.33199     -932.03396      15847.962      0.9834613     -4897.0662      882.28876     -5779.355       0              0              0              1041.7112      22197.707     -29018.773    
    535000   301.09332     -262.16086      15617.431      0.9979783     -4895.805       934.29956     -5830.1046      0              0              0              1088.0114      22099.408     -29017.524    
    535500   294.64638     -169.5132       15608.881      0.99852498    -4922.3632      914.29458     -5836.6578      0              0              0              1114.3125      22065.441     -29016.411    
    536000   288.04988     -276.01774      15694.308      0.99308979    -4923.267       893.82548     -5817.0925      0              0              0              1096.4347      22104.545     -29018.072    
    536500   299.89919      1236.1459      15565.143      1.0013308     -4845.6016      930.59418     -5776.1958      0              0              0              1164.0149      22075.981     -29016.191    
    537000   304.71546     -52.750399      15680.659      0.99395425    -4830.5656      945.53916     -5776.1048      0              0              0              1087.6429      22154.954     -29018.702    
    537500   308.32045     -227.11864      15626.416      0.99740448    -4863.8978      956.72552     -5820.6233      0              0              0              1093.3282      22102.241     -29016.193    
    538000   297.32347     -298.70795      15639.566      0.99656587    -4830.0749      922.60166     -5752.6765      0              0              0              1046.8267      22217.729     -29017.232    
    538500   305.45343     -412.94183      15306.316      1.0182631     -4806.4927      947.8291      -5754.3218      0              0              0              1011.8834      22250.983     -29017.188    
    539000   304.40625     -733.54029      15474.343      1.0072064     -4847.1762      944.57966     -5791.7558      0              0              0              1026.1067      22199.5       -29017.363    
    539500   303.9766       285.20308      15471.949      1.0073623     -4897.3286      943.24645     -5840.5751      0              0              0              1122.7242      22055.791     -29019.09     
    540000   295.64705     -170.33702      15601.845      0.99897526    -4882.0048      917.39968     -5799.4045      0              0              0              1081.5957      22136.028     -29017.029    
    540500   291.27875     -310.92462      15768.865      0.98839433    -4927.3794      903.84475     -5831.2241      0              0              0              1094.937       22090.172     -29016.333    
    541000   305.62405      514.9066       15680.317      0.99397593    -4900.2911      948.35852     -5848.6496      0              0              0              1159.1799      22012.222     -29020.052    
    541500   299.2821       530.3581       15462.714      1.0079639     -4923.4179      928.67932     -5852.0972      0              0              0              1138.4928      22028.4       -29018.99     
    542000   311.04073     -482.90844      15838.984      0.98401872    -4798.9297      965.16663     -5764.0963      0              0              0              1055.7493      22195.032     -29014.877    
    542500   308.01172     -152.50231      15463.168      1.0079343     -4896.0019      955.76752     -5851.7694      0              0              0              1092.7957      22075.139     -29019.704    
    543000   301.85399     -389.55913      15602.522      0.99893191    -4933.7864      936.65995     -5870.4463      0              0              0              1089.7518      22060.661     -29020.859    
    543500   299.26785     -541.17172      15905.04       0.97993195    -4835.775       928.6351      -5764.4101      0              0              0              1064.2511      22186.423     -29015.084    
    544000   299.43524      1046.5099      15724.58       0.99117794    -4875.6977      929.15452     -5804.8522      0              0              0              1187.9424      22024.86      -29017.654    
    544500   301.68317      48.504506      15672.243      0.99448797    -4873.6496      936.12989     -5809.7795      0              0              0              1108.4231      22099.951     -29018.153    
    545000   304.96822     -1294.7205      15858.207      0.98282591    -4916.0685      946.32349     -5862.392       0              0              0              1041.8745      22113.425     -29017.691    
    545500   289.16528      73.697662      15719.402      0.99150445    -4890.4899      897.28659     -5787.7765      0              0              0              1118.3027      22109.655     -29015.734    
    546000   307.58133     -226.52791      15633.774      0.99693503    -4826.8654      954.43203     -5781.2974      0              0              0              1083.026       22153.163     -29017.487    
    546500   299.07215      326.73861      15452.702      1.0086169     -4913.253       928.02784     -5841.2808      0              0              0              1131.7202      22041.652     -29014.653    
    547000   308.03788     -833.124        15704.374      0.99245325    -4882.1758      955.84869     -5838.0245      0              0              0              1050.9987      22128.114     -29017.137    
    547500   298.63208     -585.05886      15744.579      0.98991892    -4926.4339      926.66229     -5853.0962      0              0              0              1087.872       22076.528     -29017.496    
    548000   296.39406      178.26972      15701.938      0.99260722    -4928.7524      919.71766     -5848.4701      0              0              0              1140.3414      22027.522     -29016.334    
    548500   291.09879      286.01069      15312.865      1.0178277     -4926.6496      903.2863      -5829.9359      0              0              0              1106.9507      22080.073     -29016.96     
    549000   298.5886      -147.53018      15651.581      0.99580079    -4867.7172      926.52736     -5794.2446      0              0              0              1096.2126      22125.523     -29015.981    
    549500   300.61291     -761.07539      15832.358      0.98443058    -4866.4072      932.80886     -5799.2161      0              0              0              1053.9878      22165.166     -29018.37     
    550000   306.64453      543.81491      15481.242      1.0067576     -4849.494       951.5251      -5801.0191      0              0              0              1123.9238      22090.261     -29015.204    
    550500   297.84296      199.80331      15629.694      0.9971953     -4898.6769      924.21363     -5822.8905      0              0              0              1113.2668      22082.099     -29018.256    
Loop time of 182665 on 1 procs for 500000 steps with 1563 atoms

Performance: 0.236 ns/day, 101.481 hours/ns, 2.737 timesteps/s, 4.278 katom-step/s
98.2% CPU use with 1 MPI tasks x 1 OpenMP threads

MPI task timing breakdown:
Section |  min time  |  avg time  |  max time  |%varavg| %total
---------------------------------------------------------------
Pair    | 663        | 663        | 663        |   0.0 |  0.36
Bond    | 0.72438    | 0.72438    | 0.72438    |   0.0 |  0.00
Kspace  | 606.91     | 606.91     | 606.91     |   0.0 |  0.33
Neigh   | 2026.7     | 2026.7     | 2026.7     |   0.0 |  1.11
Comm    | 37.667     | 37.667     | 37.667     |   0.0 |  0.02
Output  | 0.22213    | 0.22213    | 0.22213    |   0.0 |  0.00
Modify  | 539.69     | 539.69     | 539.69     |   0.0 |  0.30
Other   |            | 1.788e+05  |            |       | 97.88

Nlocal:           1563 ave        1563 max        1563 min
Histogram: 1 0 0 0 0 0 0 0 0 0
Nghost:          10274 ave       10274 max       10274 min
Histogram: 1 0 0 0 0 0 0 0 0 0
Neighs:              0 ave           0 max           0 min
Histogram: 1 0 0 0 0 0 0 0 0 0
FullNghs:  1.13095e+06 ave 1.13095e+06 max 1.13095e+06 min
Histogram: 1 0 0 0 0 0 0 0 0 0

Total # of neighbors = 1130948
Ave neighs/atom = 723.57518
Ave special neighs/atom = 2
Neighbor list builds = 2029549
Dangerous builds = 0

write_data      bulk_final.data
System init for write_data ...
PPPM initialization ...
  using 12-bit tables for long-range coulomb
  G vector (1/distance) = 0.27621029
  grid = 15 15 15
  stencil order = 5
  estimated absolute RMS force accuracy = 0.016395916
  estimated relative force accuracy = 4.9375813e-05
  using double precision KISS FFT
  3d grid and FFT values/proc = 10648 3375
Generated 1 of 1 mixed pair_coeff terms from arithmetic mixing rule
0 atoms in group FixWidom:rotation_gas_atoms:w
WARNING: Neighbor exclusions used with KSpace solver may give inconsistent Coulombic energies (src/neighbor.cpp:671)
Total wall time: 50:49:29
