LAMMPS data file written by aemwater

1563 atoms
1042 bonds
521 angles
0 dihedrals
0 impropers

2 atom types
1 bond types
1 angle types

0.0 25.004081 xlo xhi
0.0 25.004081 ylo yhi
0.0 25.004081 zlo zhi

Masses

1 15.999400  # OW_spce
2 1.008000  # HW_spce

Pair Coeffs # lj/cut/coul/long

1 0.15530000 3.16600000  # OW_spce
2 0.00000000 0.00000000  # HW_spce

Bond Coeffs # harmonic

1 553.000000 1.000000

Angle Coeffs # harmonic

1 100.000000 109.470000

Atoms # full

1 1 1 -0.847600 1.469564 1.303361 1.443418 0 0 0
2 1 2 0.423800 1.046609 0.677487 0.788138 0 0 0
3 1 2 0.423800 2.204588 1.810454 0.993311 0 0 0
4 2 1 -0.847600 1.446532 1.418964 4.212922 0 0 0
5 2 2 0.423800 2.265901 1.901440 4.522519 0 0 0
6 2 2 0.423800 0.638430 1.974098 4.409892 0 0 0
7 3 1 -0.847600 1.374642 1.439951 6.943461 0 0 0
8 3 2 0.423800 0.988835 0.592392 7.307872 0 0 0
9 3 2 0.423800 1.906021 1.897784 7.656220 0 0 0
10 4 1 -0.847600 1.310382 1.419223 9.762488 0 0 0
11 4 2 0.423800 2.239441 1.232179 9.443325 0 0 0
12 4 2 0.423800 0.736841 0.614584 9.608845 0 0 0
13 5 1 -0.847600 1.440260 1.346715 12.552244 0 0 0
14 5 2 0.423800 1.950025 1.140905 13.387577 0 0 0
15 5 2 0.423800 0.480107 1.096941 12.677623 0 0 0
16 6 1 -0.847600 1.420750 1.372982 15.349142 0 0 0
17 6 2 0.423800 1.425571 1.275365 14.353930 0 0 0
18 6 2 0.423800 1.892379 2.217288 15.603529 0 0 0
19 7 1 -0.847600 1.468019 1.426833 18.113778 0 0 0
20 7 2 0.423800 2.197307 1.964310 17.690389 0 0 0
21 7 2 0.423800 1.648659 0.452992 17.975926 0 0 0
22 8 1 -0.847600 1.381257 1.329889 20.791754 0 0 0
23 8 2 0.423800 1.120577 1.633450 21.708213 0 0 0
24 8 2 0.423800 0.593542 0.906541 20.344224 0 0 0
25 9 1 -0.847600 1.390125 1.385349 23.557068 0 0 0
26 9 2 0.423800 2.097057 1.625529 24.222320 0 0 0
27 9 2 0.423800 1.284909 2.130697 22.898747 0 0 0
28 10 1 -0.847600 1.279930 4.128313 1.438001 0 0 0
29 10 2 0.423800 1.815035 4.933950 1.692189 0 0 0
30 10 2 0.423800 0.462678 4.076324 2.011932 0 0 0
31 11 1 -0.847600 1.429776 4.092771 4.228704 0 0 0
32 11 2 0.423800 1.358708 4.396836 3.278707 0 0 0
33 11 2 0.423800 0.722008 3.411153 4.414343 0 0 0
34 12 1 -0.847600 1.498302 4.080913 6.952943 0 0 0
35 12 2 0.423800 2.191319 3.539761 7.429263 0 0 0
36 12 2 0.423800 0.831437 3.468786 6.527982 0 0 0
37 13 1 -0.847600 1.370231 4.130178 9.750127 0 0 0
38 13 2 0.423800 0.745035 3.696994 9.100910 0 0 0
39 13 2 0.423800 1.420512 5.110804 9.560801 0 0 0
40 14 1 -0.847600 1.370764 4.190006 12.470315 0 0 0
41 14 2 0.423800 0.836839 3.698081 13.158017 0 0 0
42 14 2 0.423800 1.155546 5.165488 12.516324 0 0 0
43 15 1 -0.847600 1.305834 4.099122 15.171086 0 0 0
44 15 2 0.423800 1.198133 3.295134 15.755896 0 0 0
45 15 2 0.423800 2.150451 4.015868 14.642227 0 0 0
46 16 1 -0.847600 1.332183 4.091399 17.964003 0 0 0
47 16 2 0.423800 1.460237 3.103479 18.051271 0 0 0
48 16 2 0.423800 1.334608 4.343624 16.996337 0 0 0
49 17 1 -0.847600 1.402643 4.112010 20.884269 0 0 0
50 17 2 0.423800 0.990151 4.029012 21.791441 0 0 0
51 17 2 0.423800 1.637933 5.068427 20.711339 0 0 0
52 18 1 -0.847600 1.472623 4.194471 23.692127 0 0 0
53 18 2 0.423800 2.008354 3.360615 23.559177 0 0 0
54 18 2 0.423800 2.081089 4.987864 23.674912 0 0 0
55 19 1 -0.847600 1.464205 6.954405 1.482046 0 0 0
56 19 2 0.423800 1.366556 6.797557 0.499262 0 0 0
57 19 2 0.423800 0.803118 6.390411 1.976894 0 0 0
58 20 1 -0.847600 1.384109 6.957722 4.167133 0 0 0
59 20 2 0.423800 0.587565 6.442136 3.851396 0 0 0
60 20 2 0.423800 1.135417 7.494807 4.973167 0 0 0
61 21 1 -0.847600 1.385300 6.890481 6.988834 0 0 0
62 21 2 0.423800 2.384292 6.883871 6.944443 0 0 0
63 21 2 0.423800 1.068311 7.808504 7.227062 0 0 0
64 22 1 -0.847600 1.484646 6.926310 9.690251 0 0 0
65 22 2 0.423800 1.979010 6.143769 10.068714 0 0 0
66 22 2 0.423800 0.995356 7.397935 10.423848 0 0 0
67 23 1 -0.847600 1.342889 6.983336 12.494801 0 0 0
68 23 2 0.423800 1.725315 7.807008 12.076093 0 0 0
69 23 2 0.423800 1.063211 7.185623 13.433342 0 0 0
70 24 1 -0.847600 1.336379 6.977007 15.381317 0 0 0
71 24 2 0.423800 1.482920 7.932047 15.639045 0 0 0
72 24 2 0.423800 0.860947 6.501252 16.121332 0 0 0
73 25 1 -0.847600 1.400685 6.866320 18.039396 0 0 0
74 25 2 0.423800 0.691459 6.314317 18.477905 0 0 0
75 25 2 0.423800 1.351177 7.804942 18.380771 0 0 0
76 26 1 -0.847600 1.410620 6.962317 20.880314 0 0 0
77 26 2 0.423800 0.833885 7.778936 20.857767 0 0 0
78 26 2 0.423800 0.952894 6.245405 21.406169 0 0 0
79 27 1 -0.847600 1.395629 6.914914 23.658483 0 0 0
80 27 2 0.423800 0.967875 6.012452 23.709360 0 0 0
81 27 2 0.423800 0.713344 7.592116 23.383012 0 0 0
82 28 1 -0.847600 1.355898 9.709458 1.498302 0 0 0
83 28 2 0.423800 2.277037 9.961102 1.795249 0 0 0
84 28 2 0.423800 1.396719 9.322559 0.577084 0 0 0
85 29 1 -0.847600 1.417969 9.665506 4.058161 0 0 0
86 29 2 0.423800 1.806015 9.262468 4.887004 0 0 0
87 29 2 0.423800 1.619097 10.644866 4.038084 0 0 0
88 30 1 -0.847600 1.463797 9.688577 6.901268 0 0 0
89 30 2 0.423800 1.196268 10.112771 6.036116 0 0 0
90 30 2 0.423800 0.881024 8.895351 7.077814 0 0 0
91 31 1 -0.847600 1.421429 9.718635 9.789820 0 0 0
92 31 2 0.423800 0.692988 9.712958 9.104736 0 0 0
93 31 2 0.423800 2.305311 9.599579 9.337516 0 0 0
94 32 1 -0.847600 1.398016 9.748804 12.475964 0 0 0
95 32 2 0.423800 1.204456 9.074096 13.188216 0 0 0
96 32 2 0.423800 2.260835 10.211125 12.680421 0 0 0
97 33 1 -0.847600 1.448437 9.696210 15.234595 0 0 0
98 33 2 0.423800 1.896010 9.928013 14.370914 0 0 0
99 33 2 0.423800 0.794275 8.955273 15.082660 0 0 0
100 34 1 -0.847600 1.329762 9.705740 18.014057 0 0 0
101 34 2 0.423800 2.155202 9.493153 17.491127 0 0 0
102 34 2 0.423800 1.546226 10.381965 18.718233 0 0 0
103 35 1 -0.847600 1.468082 9.699622 20.896778 0 0 0
104 35 2 0.423800 0.869078 9.992539 21.642025 0 0 0
105 35 2 0.423800 0.921003 9.268505 20.179252 0 0 0
106 36 1 -0.847600 1.409143 9.784218 23.642350 0 0 0
107 36 2 0.423800 1.485545 8.797459 23.499282 0 0 0
108 36 2 0.423800 2.312545 10.162743 23.843807 0 0 0
109 37 1 -0.847600 1.394311 12.503737 1.332383 0 0 0
110 37 2 0.423800 2.358662 12.241134 1.365042 0 0 0
111 37 2 0.423800 1.171935 13.056276 2.135657 0 0 0
112 38 1 -0.847600 1.323423 12.452840 4.254051 0 0 0
113 38 2 0.423800 0.844386 12.297041 5.117909 0 0 0
114 38 2 0.423800 1.181970 13.398186 3.960263 0 0 0
115 39 1 -0.847600 1.352072 12.529318 6.840465 0 0 0
116 39 2 0.423800 2.292940 12.363723 7.136005 0 0 0
117 39 2 0.423800 0.719747 12.205406 7.544202 0 0 0
118 40 1 -0.847600 1.315007 12.541121 9.713187 0 0 0
119 40 2 0.423800 0.466802 12.077077 9.968551 0 0 0
120 40 2 0.423800 2.026968 12.325869 10.381601 0 0 0
121 41 1 -0.847600 1.361761 12.611226 12.444843 0 0 0
122 41 2 0.423800 1.728063 13.539409 12.510417 0 0 0
123 41 2 0.423800 2.035594 11.961359 12.796441 0 0 0
124 42 1 -0.847600 1.354696 12.505992 15.311225 0 0 0
125 42 2 0.423800 1.786320 12.319157 14.428733 0 0 0
126 42 2 0.423800 1.317746 11.663808 15.849149 0 0 0
127 43 1 -0.847600 1.429388 12.527298 18.086288 0 0 0
128 43 2 0.423800 1.296923 11.639771 17.644986 0 0 0
129 43 2 0.423800 2.075356 12.429972 18.843423 0 0 0
130 44 1 -0.847600 1.363535 12.466051 20.853895 0 0 0
131 44 2 0.423800 0.753405 12.798792 21.572940 0 0 0
132 44 2 0.423800 0.849183 12.360237 20.002869 0 0 0
133 45 1 -0.847600 1.301501 12.563479 23.655546 0 0 0
134 45 2 0.423800 0.541878 11.942739 23.461498 0 0 0
135 45 2 0.423800 2.059785 12.366801 23.033997 0 0 0
136 46 1 -0.847600 1.408248 15.171086 1.423553 0 0 0
137 46 2 0.423800 1.137824 14.306359 1.000328 0 0 0
138 46 2 0.423800 1.381846 15.899748 0.739189 0 0 0
139 47 1 -0.847600 1.379795 15.316507 4.227765 0 0 0
140 47 2 0.423800 1.833098 14.494019 4.571321 0 0 0
141 47 2 0.423800 0.550166 15.486637 4.759526 0 0 0
142 48 1 -0.847600 1.292600 15.175170 6.980344 0 0 0
143 48 2 0.423800 0.515070 14.815229 6.464699 0 0 0
144 48 2 0.423800 1.897080 14.422324 7.240779 0 0 0
145 49 1 -0.847600 1.370299 15.292816 9.746555 0 0 0
146 49 2 0.423800 0.850529 15.748422 9.023878 0 0 0
147 49 2 0.423800 0.745763 14.991916 10.467259 0 0 0
148 50 1 -0.847600 1.365974 15.194783 12.446212 0 0 0
149 50 2 0.423800 2.284987 14.927973 12.736431 0 0 0
150 50 2 0.423800 0.974956 15.825897 13.116137 0 0 0
151 51 1 -0.847600 1.336654 15.298390 15.389458 0 0 0
152 51 2 0.423800 1.464597 16.274340 15.565961 0 0 0
153 51 2 0.423800 2.166671 14.922584 14.977339 0 0 0
154 52 1 -0.847600 1.332604 15.330110 17.970956 0 0 0
155 52 2 0.423800 1.725383 16.103888 17.473974 0 0 0
156 52 2 0.423800 1.971439 15.030080 18.679385 0 0 0
157 53 1 -0.847600 1.463168 15.243487 20.770411 0 0 0
158 53 2 0.423800 0.960871 15.493514 21.598170 0 0 0
159 53 2 0.423800 2.079060 15.989189 20.516233 0 0 0
160 54 1 -0.847600 1.346979 15.299279 23.603056 0 0 0
161 54 2 0.423800 2.311637 15.397830 23.847440 0 0 0
162 54 2 0.423800 0.826836 15.013064 24.407749 0 0 0
163 55 1 -0.847600 1.376201 18.077767 1.346390 0 0 0
164 55 2 0.423800 0.688858 17.477707 0.937139 0 0 0
165 55 2 0.423800 1.434067 17.897295 2.328267 0 0 0
166 56 1 -0.847600 1.288286 18.065830 4.210205 0 0 0
167 56 2 0.423800 0.665321 17.465431 3.708772 0 0 0
168 56 2 0.423800 0.845274 18.948210 4.368780 0 0 0
169 57 1 -0.847600 1.374734 18.000404 7.054764 0 0 0
170 57 2 0.423800 2.187620 17.641258 7.513273 0 0 0
171 57 2 0.423800 0.980974 18.737837 7.603531 0 0 0
172 58 1 -0.847600 1.498302 18.011339 9.776179 0 0 0
173 58 2 0.423800 2.085893 18.350205 9.041396 0 0 0
174 58 2 0.423800 2.003200 18.023725 10.639269 0 0 0
175 59 1 -0.847600 1.372787 18.009920 12.434287 0 0 0
176 59 2 0.423800 2.254356 17.708292 12.797407 0 0 0
177 59 2 0.423800 1.141036 17.466393 11.627522 0 0 0
178 60 1 -0.847600 1.359303 18.054976 15.308629 0 0 0
179 60 2 0.423800 1.996534 18.175768 14.547481 0 0 0
180 60 2 0.423800 0.446080 17.859715 14.951002 0 0 0
181 61 1 -0.847600 1.416484 17.991319 18.167689 0 0 0
182 61 2 0.423800 2.293593 17.843636 17.710667 0 0 0
183 61 2 0.423800 1.102854 17.132447 18.572629 0 0 0
184 62 1 -0.847600 1.383394 17.992329 20.734282 0 0 0
185 62 2 0.423800 2.059429 18.418447 21.335449 0 0 0
186 62 2 0.423800 1.739784 17.962187 19.800431 0 0 0
187 63 1 -0.847600 1.297074 18.013815 23.526663 0 0 0
188 63 2 0.423800 1.262574 17.206353 22.937754 0 0 0
189 63 2 0.423800 1.816212 17.800750 24.354371 0 0 0
190 64 1 -0.847600 1.279930 20.886450 1.368162 0 0 0
191 64 2 0.423800 0.490934 20.644590 0.803370 0 0 0
192 64 2 0.423800 0.981512 21.464444 2.127682 0 0 0
193 65 1 -0.847600 1.422655 20.738489 4.201851 0 0 0
194 65 2 0.423800 0.648987 21.144386 3.715349 0 0 0
195 65 2 0.423800 1.361817 20.966176 5.173684 0 0 0
196 66 1 -0.847600 1.421046 20.811475 6.877780 0 0 0
197 66 2 0.423800 1.908908 21.509360 7.402135 0 0 0
198 66 2 0.423800 0.728405 21.248944 6.304308 0 0 0
199 67 1 -0.847600 1.466230 20.727548 9.832995 0 0 0
200 67 2 0.423800 1.485171 21.520047 10.442574 0 0 0
201 67 2 0.423800 1.495083 19.888445 10.376203 0 0 0
202 68 1 -0.847600 1.345160 20.871591 12.470274 0 0 0
203 68 2 0.423800 1.034552 19.964217 12.187088 0 0 0
204 68 2 0.423800 2.310594 20.828233 12.727291 0 0 0
205 69 1 -0.847600 1.424553 20.848000 15.188546 0 0 0
206 69 2 0.423800 1.590042 21.562780 14.509058 0 0 0
207 69 2 0.423800 0.978748 20.067787 14.749769 0 0 0
208 70 1 -0.847600 1.498302 20.799073 18.122505 0 0 0
209 70 2 0.423800 1.961499 21.043686 17.270676 0 0 0
210 70 2 0.423800 1.085909 21.616670 18.524334 0 0 0
211 71 1 -0.847600 1.424183 20.822222 20.816114 0 0 0
212 71 2 0.423800 2.166115 20.158588 20.720581 0 0 0
213 71 2 0.423800 1.739670 21.721004 20.511718 0 0 0
214 72 1 -0.847600 1.423388 20.828195 23.675538 0 0 0
215 72 2 0.423800 1.938625 21.184798 22.896202 0 0 0
216 72 2 0.423800 2.059549 20.491164 24.369591 0 0 0
217 73 1 -0.847600 1.310337 23.505779 1.361182 0 0 0
218 73 2 0.423800 0.595911 23.469934 2.059974 0 0 0
219 73 2 0.423800 2.184594 23.235018 1.764125 0 0 0
220 74 1 -0.847600 1.479711 23.541312 4.180317 0 0 0
221 74 2 0.423800 2.230843 23.489673 3.522187 0 0 0
222 74 2 0.423800 1.271671 24.500043 4.374108 0 0 0
223 75 1 -0.847600 1.330045 23.549344 6.937973 0 0 0
224 75 2 0.423800 0.678120 24.306928 6.970560 0 0 0
225 75 2 0.423800 0.902434 22.725408 7.309831 0 0 0
226 76 1 -0.847600 1.311073 23.651091 9.765520 0 0 0
227 76 2 0.423800 0.799298 23.836748 10.604340 0 0 0
228 76 2 0.423800 1.885049 22.842881 9.897233 0 0 0
229 77 1 -0.847600 1.418153 23.627481 12.537733 0 0 0
230 77 2 0.423800 1.354747 22.921338 11.832508 0 0 0
231 77 2 0.423800 1.596636 24.512630 12.108019 0 0 0
232 78 1 -0.847600 1.371321 23.631421 15.234897 0 0 0
233 78 2 0.423800 1.086454 22.675763 15.160267 0 0 0
234 78 2 0.423800 1.771430 23.928635 14.367962 0 0 0
235 79 1 -0.847600 1.367422 23.580035 18.140829 0 0 0
236 79 2 0.423800 2.222038 23.069419 18.235178 0 0 0
237 79 2 0.423800 1.557167 24.560376 18.194946 0 0 0
238 80 1 -0.847600 1.398760 23.591695 20.793743 0 0 0
239 80 2 0.423800 1.212314 24.554614 20.988739 0 0 0
240 80 2 0.423800 1.430135 23.077994 21.651139 0 0 0
241 81 1 -0.847600 1.344784 23.543238 23.606844 0 0 0
242 81 2 0.423800 1.641331 22.676713 24.008336 0 0 0
243 81 2 0.423800 0.387448 23.709712 23.843052 0 0 0
244 82 1 -0.847600 4.072920 1.292597 1.422020 0 0 0
245 82 2 0.423800 3.558797 1.176643 0.572178 0 0 0
246 82 2 0.423800 4.444446 0.409933 1.709898 0 0 0
247 83 1 -0.847600 4.193227 1.424505 4.103605 0 0 0
248 83 2 0.423800 4.969939 1.141845 3.540735 0 0 0
249 83 2 0.423800 3.997000 2.391238 3.939523 0 0 0
250 84 1 -0.847600 4.221947 1.366307 7.054764 0 0 0
251 84 2 0.423800 4.853242 1.080065 6.333978 0 0 0
252 84 2 0.423800 4.732699 1.533786 7.898021 0 0 0
253 85 1 -0.847600 4.117533 1.461191 9.771122 0 0 0
254 85 2 0.423800 3.350492 2.031193 10.065647 0 0 0
255 85 2 0.423800 3.869728 0.976368 8.932350 0 0 0
256 86 1 -0.847600 4.179606 1.498302 12.392854 0 0 0
257 86 2 0.423800 3.739845 1.559752 11.496845 0 0 0
258 86 2 0.423800 3.521799 1.744689 13.104601 0 0 0
259 87 1 -0.847600 4.266934 1.319130 15.356448 0 0 0
260 87 2 0.423800 4.645361 2.194175 15.054639 0 0 0
261 87 2 0.423800 4.968913 0.610406 15.286189 0 0 0
262 88 1 -0.847600 4.276533 1.408413 18.094063 0 0 0
263 88 2 0.423800 5.157057 1.237496 17.651950 0 0 0
264 88 2 0.423800 4.309227 1.082752 19.038984 0 0 0
265 89 1 -0.847600 4.128123 1.279930 20.941621 0 0 0
266 89 2 0.423800 5.010448 1.450398 20.502937 0 0 0
267 89 2 0.423800 4.255557 0.662371 21.717753 0 0 0
268 90 1 -0.847600 4.236424 1.301210 23.588179 0 0 0
269 90 2 0.423800 3.589851 0.599170 23.886647 0 0 0
270 90 2 0.423800 3.769180 1.951782 22.989481 0 0 0
271 91 1 -0.847600 4.071969 4.157524 1.470252 0 0 0
272 91 2 0.423800 4.104957 4.676939 2.324137 0 0 0
273 91 2 0.423800 5.000914 3.911275 1.193807 0 0 0
274 92 1 -0.847600 4.218836 4.133816 4.153631 0 0 0
275 92 2 0.423800 3.227308 4.174924 4.276846 0 0 0
276 92 2 0.423800 4.544197 5.001293 3.777301 0 0 0
277 93 1 -0.847600 4.175941 4.248924 6.935893 0 0 0
278 93 2 0.423800 3.871430 4.531256 7.845597 0 0 0
279 93 2 0.423800 3.701465 4.791094 6.242406 0 0 0
280 94 1 -0.847600 4.140475 4.162210 9.695037 0 0 0
281 94 2 0.423800 4.350066 3.187649 9.615645 0 0 0
282 94 2 0.423800 4.516201 4.515225 10.551898 0 0 0
283 95 1 -0.847600 4.200947 4.222530 12.413091 0 0 0
284 95 2 0.423800 4.841524 4.288179 11.648008 0 0 0
285 95 2 0.423800 3.691946 5.079284 12.496094 0 0 0
286 96 1 -0.847600 4.071984 4.091013 15.236850 0 0 0
287 96 2 0.423800 3.368397 4.231051 15.933525 0 0 0
288 96 2 0.423800 3.797729 3.343662 14.631664 0 0 0
289 97 1 -0.847600 4.197195 4.150255 18.041193 0 0 0
290 97 2 0.423800 3.382821 4.698308 18.232067 0 0 0
291 97 2 0.423800 3.922010 3.256813 17.686177 0 0 0
292 98 1 -0.847600 4.200835 4.276533 20.799576 0 0 0
293 98 2 0.423800 4.220132 3.410947 20.299188 0 0 0
294 98 2 0.423800 5.036021 4.791630 20.606863 0 0 0
295 99 1 -0.847600 4.095540 4.180197 23.623710 0 0 0
296 99 2 0.423800 4.376953 3.284277 23.280003 0 0 0
297 99 2 0.423800 4.439234 4.894198 23.013730 0 0 0
298 100 1 -0.847600 4.214638 6.977307 1.416474 0 0 0
299 100 2 0.423800 4.447827 6.073473 1.057715 0 0 0
300 100 2 0.423800 4.851875 7.655663 1.050737 0 0 0
301 101 1 -0.847600 4.267565 7.013351 4.125623 0 0 0
302 101 2 0.423800 4.898224 7.091741 3.353532 0 0 0
303 101 2 0.423800 4.126180 6.047738 4.343801 0 0 0
304 102 1 -0.847600 4.114605 6.836392 7.007431 0 0 0
305 102 2 0.423800 4.831208 6.798812 7.703899 0 0 0
306 102 2 0.423800 3.918682 7.790733 6.781936 0 0 0
307 103 1 -0.847600 4.125849 7.015016 9.694131 0 0 0
308 103 2 0.423800 3.933331 7.757642 9.052692 0 0 0
309 103 2 0.423800 4.645178 7.371615 10.470748 0 0 0
310 104 1 -0.847600 4.220693 6.874092 12.465654 0 0 0
311 104 2 0.423800 4.257037 5.919297 12.170619 0 0 0
312 104 2 0.423800 3.268492 7.141070 12.614102 0 0 0
313 105 1 -0.847600 4.216365 6.937134 15.199170 0 0 0
314 105 2 0.423800 3.619934 6.568440 15.912146 0 0 0
315 105 2 0.423800 4.183256 7.936354 15.220695 0 0 0
316 106 1 -0.847600 4.241485 6.972141 18.099847 0 0 0
317 106 2 0.423800 3.519633 7.265110 18.726822 0 0 0
318 106 2 0.423800 4.027781 6.060792 17.748032 0 0 0
319 107 1 -0.847600 4.237139 6.978698 20.772233 0 0 0
320 107 2 0.423800 4.406909 7.033790 21.756175 0 0 0
321 107 2 0.423800 5.102506 6.834688 20.292231 0 0 0
322 108 1 -0.847600 4.079722 6.958777 23.524892 0 0 0
323 108 2 0.423800 4.511886 7.750441 23.093032 0 0 0
324 108 2 0.423800 3.215906 6.757383 23.063089 0 0 0
325 109 1 -0.847600 4.191546 9.717953 1.488319 0 0 0
326 109 2 0.423800 4.869879 9.108298 1.078216 0 0 0
327 109 2 0.423800 3.279983 9.472132 1.158734 0 0 0
328 110 1 -0.847600 4.168699 9.749340 4.214520 0 0 0
329 110 2 0.423800 4.120875 8.923969 4.777082 0 0 0
330 110 2 0.423800 4.439521 9.503181 3.283896 0 0 0
331 111 1 -0.847600 4.138590 9.832029 6.892262 0 0 0
332 111 2 0.423800 3.230469 10.181779 7.122461 0 0 0
333 111 2 0.423800 4.623503 9.585765 7.731436 0 0 0
334 112 1 -0.847600 4.143153 9.656736 9.800328 0 0 0
335 112 2 0.423800 4.597024 8.840601 10.157992 0 0 0
336 112 2 0.423800 3.456430 9.387355 9.125165 0 0 0
337 113 1 -0.847600 4.256395 9.736811 12.547518 0 0 0
338 113 2 0.423800 3.747396 8.924292 12.831654 0 0 0
339 113 2 0.423800 3.616917 10.435304 12.226308 0 0 0
340 114 1 -0.847600 4.089040 9.618686 15.175256 0 0 0
341 114 2 0.423800 3.775272 8.881658 14.576642 0 0 0
342 114 2 0.423800 5.001382 9.400923 15.521970 0 0 0
343 115 1 -0.847600 4.163071 9.681773 17.949317 0 0 0
344 115 2 0.423800 4.959382 9.419540 18.494407 0 0 0
345 115 2 0.423800 3.705409 8.859578 17.610879 0 0 0
346 116 1 -0.847600 4.107901 9.687377 20.853184 0 0 0
347 116 2 0.423800 4.056247 8.781742 21.274083 0 0 0
348 116 2 0.423800 3.497587 9.722431 20.061800 0 0 0
349 117 1 -0.847600 4.208485 9.687224 23.701595 0 0 0
350 117 2 0.423800 4.745365 10.492615 23.952802 0 0 0
351 117 2 0.423800 4.513693 8.901912 24.240236 0 0 0
352 118 1 -0.847600 4.192620 12.477608 1.412721 0 0 0
353 118 2 0.423800 4.322254 12.043146 2.304033 0 0 0
354 118 2 0.423800 3.928682 13.433309 1.542999 0 0 0
355 119 1 -0.847600 4.150838 12.479907 4.205533 0 0 0
356 119 2 0.423800 4.135927 12.606000 5.197440 0 0 0
357 119 2 0.423800 4.157776 11.502595 3.993842 0 0 0
358 120 1 -0.847600 4.181915 12.439632 7.054764 0 0 0
359 120 2 0.423800 3.354046 12.992501 6.960065 0 0 0
360 120 2 0.423800 4.161798 11.956564 7.930116 0 0 0
361 121 1 -0.847600 4.133670 12.430814 9.771830 0 0 0
362 121 2 0.423800 4.731902 12.974493 9.183161 0 0 0
363 121 2 0.423800 4.550036 12.339003 10.676380 0 0 0
364 122 1 -0.847600 4.217357 12.534828 12.522290 0 0 0
365 122 2 0.423800 4.194022 12.698837 13.508473 0 0 0
366 122 2 0.423800 3.319081 12.733019 12.130092 0 0 0
367 123 1 -0.847600 4.131910 12.505729 15.171086 0 0 0
368 123 2 0.423800 3.566835 12.909487 15.890578 0 0 0
369 123 2 0.423800 4.090069 13.079374 14.353051 0 0 0
370 124 1 -0.847600 4.172040 12.530822 18.113635 0 0 0
371 124 2 0.423800 3.408954 11.885063 18.087270 0 0 0
372 124 2 0.423800 4.197223 13.052049 17.260589 0 0 0
373 125 1 -0.847600 4.271511 12.555813 20.853460 0 0 0
374 125 2 0.423800 4.402061 13.369495 21.419921 0 0 0
375 125 2 0.423800 4.126757 11.760033 21.441490 0 0 0
376 126 1 -0.847600 4.230495 12.453458 23.588669 0 0 0
377 126 2 0.423800 3.287277 12.434817 23.920322 0 0 0
378 126 2 0.423800 4.510700 13.400825 23.433813 0 0 0
379 127 1 -0.847600 4.208137 15.310417 1.297670 0 0 0
380 127 2 0.423800 4.314665 16.076715 0.664078 0 0 0
381 127 2 0.423800 4.294092 14.449255 0.796659 0 0 0
382 128 1 -0.847600 4.222092 15.273844 4.267795 0 0 0
383 128 2 0.423800 3.959673 15.689116 5.138820 0 0 0
384 128 2 0.423800 4.185118 15.963908 3.544991 0 0 0
385 129 1 -0.847600 4.058161 15.389458 6.890290 0 0 0
386 129 2 0.423800 3.795303 14.440289 6.717129 0 0 0
387 129 2 0.423800 3.340076 16.000320 6.556821 0 0 0
388 130 1 -0.847600 4.073084 15.230664 9.644572 0 0 0
389 130 2 0.423800 3.520487 15.408857 10.458749 0 0 0
390 130 2 0.423800 5.038533 15.183290 9.900822 0 0 0
391 131 1 -0.847600 4.107779 15.263587 12.392854 0 0 0
392 131 2 0.423800 3.364592 15.625054 12.955894 0 0 0
393 131 2 0.423800 3.778678 15.118168 11.459824 0 0 0
394 132 1 -0.847600 4.209829 15.284793 15.253341 0 0 0
395 132 2 0.423800 4.723754 15.424593 14.406974 0 0 0
396 132 2 0.423800 4.751171 14.728744 15.884021 0 0 0
397 133 1 -0.847600 4.184254 15.291747 18.084081 0 0 0
398 133 2 0.423800 3.706023 16.005356 17.572166 0 0 0
399 133 2 0.423800 3.582775 14.933998 18.798391 0 0 0
400 134 1 -0.847600 4.164034 15.205630 20.842477 0 0 0
401 134 2 0.423800 4.363606 14.403700 21.405576 0 0 0
402 134 2 0.423800 4.079249 16.011571 21.428370 0 0 0
403 135 1 -0.847600 4.142190 15.329897 23.665047 0 0 0
404 135 2 0.423800 3.745674 15.335479 22.747036 0 0 0
405 135 2 0.423800 5.121803 15.138554 23.603841 0 0 0
406 136 1 -0.847600 4.139417 17.949317 1.400939 0 0 0
407 136 2 0.423800 4.461778 18.253639 0.504574 0 0 0
408 136 2 0.423800 4.221035 18.699688 2.056897 0 0 0
409 137 1 -0.847600 4.058161 17.987930 4.169197 0 0 0
410 137 2 0.423800 3.748539 17.606898 5.040373 0 0 0
411 137 2 0.423800 3.991560 17.288919 3.457194 0 0 0
412 138 1 -0.847600 4.136203 18.161175 6.859544 0 0 0
413 138 2 0.423800 3.405272 17.731272 7.389566 0 0 0
414 138 2 0.423800 4.979067 18.166852 7.397640 0 0 0
415 139 1 -0.847600 4.159451 18.068256 9.717123 0 0 0
416 139 2 0.423800 4.439403 17.284593 10.271650 0 0 0
417 139 2 0.423800 4.932185 18.693896 9.610092 0 0 0
418 140 1 -0.847600 4.232037 18.118206 12.409606 0 0 0
419 140 2 0.423800 4.297604 18.080073 11.412486 0 0 0
420 140 2 0.423800 5.150962 18.137348 12.803575 0 0 0
421 141 1 -0.847600 4.058161 18.116205 15.325166 0 0 0
422 141 2 0.423800 3.629621 17.803821 16.172968 0 0 0
423 141 2 0.423800 4.917027 17.623653 15.184660 0 0 0
424 142 1 -0.847600 4.112824 17.994832 18.139277 0 0 0
425 142 2 0.423800 4.846237 17.443719 17.741307 0 0 0
426 142 2 0.423800 3.229820 17.667352 17.803033 0 0 0
427 143 1 -0.847600 4.246929 18.015856 20.899850 0 0 0
428 143 2 0.423800 3.810821 18.117216 21.794018 0 0 0
429 143 2 0.423800 4.631141 17.096182 20.818727 0 0 0
430 144 1 -0.847600 4.087816 18.022111 23.642122 0 0 0
431 144 2 0.423800 4.812165 18.673786 23.867152 0 0 0
432 144 2 0.423800 3.200575 18.481190 23.687398 0 0 0
433 145 1 -0.847600 4.240007 20.773709 1.361473 0 0 0
434 145 2 0.423800 4.416663 20.276723 2.211059 0 0 0
435 145 2 0.423800 5.108650 20.997704 0.919561 0 0 0
436 146 1 -0.847600 4.107115 20.776543 4.136172 0 0 0
437 146 2 0.423800 4.785984 20.077763 3.910686 0 0 0
438 146 2 0.423800 4.250576 21.090004 5.074873 0 0 0
439 147 1 -0.847600 4.276533 20.800432 6.892674 0 0 0
440 147 2 0.423800 3.658748 20.890800 7.673812 0 0 0
441 147 2 0.423800 4.884821 21.593269 6.855332 0 0 0
442 148 1 -0.847600 4.160613 20.826000 9.746047 0 0 0
443 148 2 0.423800 4.029740 19.835093 9.777269 0 0 0
444 148 2 0.423800 4.334385 21.168512 10.669350 0 0 0
445 149 1 -0.847600 4.253183 20.891501 12.611226 0 0 0
446 149 2 0.423800 4.578800 21.198259 13.505582 0 0 0
447 149 2 0.423800 4.991622 20.416483 12.132618 0 0 0
448 150 1 -0.847600 4.139397 20.832529 15.350429 0 0 0
449 150 2 0.423800 4.847096 20.424941 14.773339 0 0 0
450 150 2 0.423800 3.348715 20.221575 15.389879 0 0 0
451 151 1 -0.847600 4.184509 20.880789 18.065967 0 0 0
452 151 2 0.423800 4.202679 21.076811 19.046398 0 0 0
453 151 2 0.423800 4.844434 21.467381 17.596490 0 0 0
454 152 1 -0.847600 4.274531 20.779130 20.893167 0 0 0
455 152 2 0.423800 4.760711 21.127067 21.694771 0 0 0
456 152 2 0.423800 3.610924 20.088129 21.179772 0 0 0
457 153 1 -0.847600 4.123105 20.892293 23.663669 0 0 0
458 153 2 0.423800 4.027755 21.630608 24.331351 0 0 0
459 153 2 0.423800 5.057605 20.883336 23.307818 0 0 0
460 154 1 -0.847600 4.142778 23.681176 1.471605 0 0 0
461 154 2 0.423800 3.175997 23.557422 1.695257 0 0 0
462 154 2 0.423800 4.593659 24.184440 2.208783 0 0 0
463 155 1 -0.847600 4.168496 23.519101 4.179867 0 0 0
464 155 2 0.423800 5.146116 23.425258 4.368154 0 0 0
465 155 2 0.423800 3.929758 22.972894 3.376959 0 0 0
466 156 1 -0.847600 4.146543 23.679857 6.906003 0 0 0
467 156 2 0.423800 4.464338 24.628016 6.904589 0 0 0
468 156 2 0.423800 4.289778 23.278962 6.001146 0 0 0
469 157 1 -0.847600 4.117397 23.635057 9.644765 0 0 0
470 157 2 0.423800 5.086218 23.875430 9.584719 0 0 0
471 157 2 0.423800 3.998016 22.894866 10.306479 0 0 0
472 158 1 -0.847600 4.137058 23.724151 12.494564 0 0 0
473 158 2 0.423800 3.806821 22.990629 11.900520 0 0 0
474 158 2 0.423800 5.127206 23.817389 12.390091 0 0 0
475 159 1 -0.847600 4.248393 23.655027 15.310765 0 0 0
476 159 2 0.423800 5.107781 23.196858 15.083755 0 0 0
477 159 2 0.423800 3.957408 23.382345 16.227810 0 0 0
478 160 1 -0.847600 4.247971 23.508955 18.010714 0 0 0
479 160 2 0.423800 3.829740 22.638500 17.751118 0 0 0
480 160 2 0.423800 4.815895 23.376722 18.823104 0 0 0
481 161 1 -0.847600 4.276533 23.656078 20.924121 0 0 0
482 161 2 0.423800 4.261312 23.835647 19.940493 0 0 0
483 161 2 0.423800 3.789238 24.385810 21.403741 0 0 0
484 162 1 -0.847600 4.147953 23.724151 23.692752 0 0 0
485 162 2 0.423800 4.614330 24.112685 22.898061 0 0 0
486 162 2 0.423800 3.679428 24.452207 24.193171 0 0 0
487 163 1 -0.847600 6.836392 1.436057 1.283959 0 0 0
488 163 2 0.423800 6.871622 1.361130 0.287392 0 0 0
489 163 2 0.423800 6.310859 2.247761 1.538814 0 0 0
490 164 1 -0.847600 6.836392 1.420582 4.173283 0 0 0
491 164 2 0.423800 6.503603 2.345551 4.356815 0 0 0
492 164 2 0.423800 6.227047 0.970527 3.520482 0 0 0
493 165 1 -0.847600 6.922144 1.394183 6.893076 0 0 0
494 165 2 0.423800 6.127550 1.769134 6.415548 0 0 0
495 165 2 0.423800 6.786080 1.474468 7.880518 0 0 0
496 166 1 -0.847600 6.989414 1.307410 9.747059 0 0 0
497 166 2 0.423800 6.013902 1.526491 9.727579 0 0 0
498 166 2 0.423800 7.256222 1.056767 10.677646 0 0 0
499 167 1 -0.847600 7.001712 1.395271 12.412972 0 0 0
500 167 2 0.423800 6.415784 0.644912 12.718995 0 0 0
501 167 2 0.423800 6.582591 2.268354 12.662097 0 0 0
502 168 1 -0.847600 6.869500 1.337625 15.212690 0 0 0
503 168 2 0.423800 7.537921 0.638694 14.958311 0 0 0
504 168 2 0.423800 6.791836 2.008616 14.475303 0 0 0
505 169 1 -0.847600 6.954297 1.404246 18.167689 0 0 0
506 169 2 0.423800 7.150618 2.377995 18.282889 0 0 0
507 169 2 0.423800 6.305123 1.281641 17.416995 0 0 0
508 170 1 -0.847600 6.912063 1.498302 20.840484 0 0 0
509 170 2 0.423800 6.832388 2.491682 20.923235 0 0 0
510 170 2 0.423800 7.405137 1.136410 21.631631 0 0 0
511 171 1 -0.847600 6.997732 1.344851 23.520776 0 0 0
512 171 2 0.423800 7.718663 1.916355 23.912749 0 0 0
513 171 2 0.423800 6.930445 1.520171 22.538567 0 0 0
514 172 1 -0.847600 7.009780 4.078220 1.422308 0 0 0
515 172 2 0.423800 7.689697 3.959496 2.145921 0 0 0
516 172 2 0.423800 7.183243 3.419096 0.690552 0 0 0
517 173 1 -0.847600 7.003037 4.222423 4.130893 0 0 0
518 173 2 0.423800 7.963128 3.959116 4.036582 0 0 0
519 173 2 0.423800 6.454861 3.732210 3.453254 0 0 0
520 174 1 -0.847600 6.903851 4.207389 7.054764 0 0 0
521 174 2 0.423800 6.207076 4.305078 6.344157 0 0 0
522 174 2 0.423800 7.411398 3.358117 6.909398 0 0 0
523 175 1 -0.847600 7.034975 4.179600 9.616434 0 0 0
524 175 2 0.423800 6.364350 4.839777 9.954708 0 0 0
525 175 2 0.423800 7.029597 3.369120 10.202176 0 0 0
526 176 1 -0.847600 6.972263 4.113074 12.454688 0 0 0
527 176 2 0.423800 6.447843 4.671265 13.097655 0 0 0
528 176 2 0.423800 7.603075 4.697079 11.943793 0 0 0
529 177 1 -0.847600 6.989442 4.186613 15.237797 0 0 0
530 177 2 0.423800 6.612683 3.326726 14.893346 0 0 0
531 177 2 0.423800 6.243477 4.824773 15.428292 0 0 0
532 178 1 -0.847600 6.906898 4.121014 18.142961 0 0 0
533 178 2 0.423800 6.651470 3.894893 19.082975 0 0 0
534 178 2 0.423800 7.743183 4.669290 18.147508 0 0 0
535 179 1 -0.847600 6.981828 4.173520 20.819768 0 0 0
536 179 2 0.423800 7.118583 4.408513 19.857440 0 0 0
537 179 2 0.423800 6.008863 4.017077 20.989661 0 0 0
538 180 1 -0.847600 6.888794 4.191622 23.525017 0 0 0
539 180 2 0.423800 7.661040 3.556344 23.517343 0 0 0
540 180 2 0.423800 6.392426 4.123362 22.659593 0 0 0
541 181 1 -0.847600 6.909198 7.044185 1.464061 0 0 0
542 181 2 0.423800 6.978170 7.323877 0.506452 0 0 0
543 181 2 0.423800 6.279417 6.271232 1.541011 0 0 0
544 182 1 -0.847600 6.902903 6.950401 4.226541 0 0 0
545 182 2 0.423800 6.631386 6.588189 3.334867 0 0 0
546 182 2 0.423800 6.135849 7.447701 4.631906 0 0 0
547 183 1 -0.847600 6.917283 6.960124 6.886898 0 0 0
548 183 2 0.423800 7.284139 7.493767 7.648897 0 0 0
549 183 2 0.423800 7.316067 7.285597 6.029554 0 0 0
550 184 1 -0.847600 6.893604 7.023635 9.708313 0 0 0
551 184 2 0.423800 5.911017 6.976476 9.528596 0 0 0
552 184 2 0.423800 7.126834 7.934505 10.048784 0 0 0
553 185 1 -0.847600 6.875453 6.980561 12.576624 0 0 0
554 185 2 0.423800 6.672224 7.324320 13.493427 0 0 0
555 185 2 0.423800 7.823300 6.663726 12.541972 0 0 0
556 186 1 -0.847600 7.054764 6.976479 15.207481 0 0 0
557 186 2 0.423800 6.282485 6.661434 15.759144 0 0 0
558 186 2 0.423800 7.911118 6.725621 15.658843 0 0 0
559 187 1 -0.847600 6.872683 6.899979 18.041933 0 0 0
560 187 2 0.423800 6.611554 7.834368 17.799594 0 0 0
561 187 2 0.423800 6.748445 6.763438 19.024746 0 0 0
562 188 1 -0.847600 6.925830 7.009337 20.738128 0 0 0
563 188 2 0.423800 7.339161 7.799420 21.190816 0 0 0
564 188 2 0.423800 7.086689 7.067820 19.752885 0 0 0
565 189 1 -0.847600 6.963690 6.940471 23.644234 0 0 0
566 189 2 0.423800 6.682470 6.345443 24.397133 0 0 0
567 189 2 0.423800 7.511311 6.416443 22.991925 0 0 0
568 190 1 -0.847600 7.054764 9.693571 1.400410 0 0 0
569 190 2 0.423800 6.755342 9.561730 2.345378 0 0 0
570 190 2 0.423800 7.706625 10.450825 1.359885 0 0 0
571 191 1 -0.847600 7.054764 9.664144 4.218544 0 0 0
572 191 2 0.423800 7.887799 9.274269 3.826052 0 0 0
573 191 2 0.423800 6.871375 10.552017 3.796584 0 0 0
574 192 1 -0.847600 7.006131 9.732122 6.850743 0 0 0
575 192 2 0.423800 6.161103 10.145491 7.189940 0 0 0
576 192 2 0.423800 6.857693 9.380926 5.926283 0 0 0
577 193 1 -0.847600 6.994950 9.702687 9.722450 0 0 0
578 193 2 0.423800 6.323603 8.966108 9.640324 0 0 0
579 193 2 0.423800 6.988360 10.056945 10.657574 0 0 0
580 194 1 -0.847600 6.966875 9.757665 12.521598 0 0 0
581 194 2 0.423800 6.152978 9.204178 12.344899 0 0 0
582 194 2 0.423800 7.785818 9.217416 12.328040 0 0 0
583 195 1 -0.847600 7.054764 9.700019 15.312106 0 0 0
584 195 2 0.423800 7.341096 9.132519 16.084089 0 0 0
585 195 2 0.423800 6.243835 9.298799 14.886175 0 0 0
586 196 1 -0.847600 7.014845 9.629185 17.989323 0 0 0
587 196 2 0.423800 6.491199 9.739660 17.144580 0 0 0
588 196 2 0.423800 7.283761 8.671505 18.091955 0 0 0
589 197 1 -0.847600 6.863056 9.728877 20.811018 0 0 0
590 197 2 0.423800 6.574126 8.918561 20.301207 0 0 0
591 197 2 0.423800 7.408900 9.448760 21.600694 0 0 0
592 198 1 -0.847600 6.970009 9.759837 23.558931 0 0 0
593 198 2 0.423800 7.848122 10.031288 23.952926 0 0 0
594 198 2 0.423800 7.021180 8.808794 23.254139 0 0 0
595 199 1 -0.847600 6.891338 12.556472 1.279930 0 0 0
596 199 2 0.423800 6.006394 12.979055 1.084233 0 0 0
597 199 2 0.423800 6.871215 12.148226 2.192580 0 0 0
598 200 1 -0.847600 7.001125 12.521573 4.202669 0 0 0
599 200 2 0.423800 6.736460 12.384563 3.248111 0 0 0
600 200 2 0.423800 7.766189 11.917732 4.426395 0 0 0
601 201 1 -0.847600 6.912496 12.445029 6.992683 0 0 0
602 201 2 0.423800 7.384031 12.228952 7.847648 0 0 0
603 201 2 0.423800 7.541804 12.323636 6.225067 0 0 0
604 202 1 -0.847600 6.894423 12.565331 9.700979 0 0 0
605 202 2 0.423800 6.419833 13.282829 9.191116 0 0 0
606 202 2 0.423800 7.652289 12.212231 9.152381 0 0 0
607 203 1 -0.847600 7.054764 12.505994 12.611226 0 0 0
608 203 2 0.423800 6.529064 11.716481 12.927940 0 0 0
609 203 2 0.423800 6.910008 12.630802 11.629662 0 0 0
610 204 1 -0.847600 7.004764 12.588453 15.232596 0 0 0
611 204 2 0.423800 6.758808 12.258122 14.321341 0 0 0
612 204 2 0.423800 7.906580 13.019250 15.198798 0 0 0
613 205 1 -0.847600 7.054764 12.508685 17.952360 0 0 0
614 205 2 0.423800 6.759137 13.449740 17.787982 0 0 0
615 205 2 0.423800 7.938751 12.355066 17.510808 0 0 0
616 206 1 -0.847600 7.054764 12.433253 20.857190 0 0 0
617 206 2 0.423800 7.334045 13.378404 20.687805 0 0 0
618 206 2 0.423800 6.174685 12.425735 21.331957 0 0 0
619 207 1 -0.847600 6.882793 12.522942 23.626660 0 0 0
620 207 2 0.423800 6.068935 12.779827 23.105464 0 0 0
621 207 2 0.423800 6.822818 12.905785 24.548524 0 0 0
622 208 1 -0.847600 6.924579 15.190193 1.322957 0 0 0
623 208 2 0.423800 6.494855 14.858582 0.483093 0 0 0
624 208 2 0.423800 7.244162 14.411988 1.863571 0 0 0
625 209 1 -0.847600 6.873161 15.310797 4.182689 0 0 0
626 209 2 0.423800 6.055674 15.882104 4.109729 0 0 0
627 209 2 0.423800 6.887685 14.862283 5.076347 0 0 0
628 210 1 -0.847600 6.896807 15.360440 6.881318 0 0 0
629 210 2 0.423800 7.372257 14.993337 7.680807 0 0 0
630 210 2 0.423800 6.208838 14.703886 6.572068 0 0 0
631 211 1 -0.847600 6.865065 15.221572 9.630343 0 0 0
632 211 2 0.423800 7.624605 15.149168 10.276761 0 0 0
633 211 2 0.423800 6.245402 15.949302 9.924327 0 0 0
634 212 1 -0.847600 7.054764 15.266723 12.548930 0 0 0
635 212 2 0.423800 7.558593 15.012662 11.723334 0 0 0
636 212 2 0.423800 7.163617 16.246363 12.717618 0 0 0
637 213 1 -0.847600 7.020293 15.312628 15.177554 0 0 0
638 213 2 0.423800 7.182731 16.099874 15.772414 0 0 0
639 213 2 0.423800 6.041829 15.107327 15.156118 0 0 0
640 214 1 -0.847600 6.921607 15.287480 17.993598 0 0 0
641 214 2 0.423800 7.455711 14.937994 18.763398 0 0 0
642 214 2 0.423800 6.653856 16.233564 18.175901 0 0 0
643 215 1 -0.847600 7.039665 15.314161 20.853371 0 0 0
644 215 2 0.423800 6.772120 14.525638 20.299610 0 0 0
645 215 2 0.423800 7.094215 16.126309 20.272474 0 0 0
646 216 1 -0.847600 6.925990 15.303925 23.677821 0 0 0
647 216 2 0.423800 6.488727 14.775861 22.949845 0 0 0
648 216 2 0.423800 6.297670 15.389429 24.451064 0 0 0
649 217 1 -0.847600 6.952869 18.095731 1.439563 0 0 0
650 217 2 0.423800 7.816572 17.999064 1.934207 0 0 0
651 217 2 0.423800 7.094596 17.873754 0.474866 0 0 0
652 218 1 -0.847600 7.007328 18.002050 4.212058 0 0 0
653 218 2 0.423800 7.073192 17.355652 4.972210 0 0 0
654 218 2 0.423800 6.436726 17.610589 3.490136 0 0 0
655 219 1 -0.847600 6.870538 17.952672 6.897680 0 0 0
656 219 2 0.423800 6.445666 18.764655 7.297889 0 0 0
657 219 2 0.423800 6.478285 17.132073 7.313317 0 0 0
658 220 1 -0.847600 7.026436 18.027258 9.714758 0 0 0
659 220 2 0.423800 6.916254 18.877204 10.229979 0 0 0
660 220 2 0.423800 7.673114 17.430759 10.190147 0 0 0
661 221 1 -0.847600 6.919438 18.003135 12.587463 0 0 0
662 221 2 0.423800 6.165145 18.486020 12.142645 0 0 0
663 221 2 0.423800 7.515031 18.663948 13.044185 0 0 0
664 222 1 -0.847600 6.858042 18.017922 15.171086 0 0 0
665 222 2 0.423800 6.584374 17.197589 14.668930 0 0 0
666 222 2 0.423800 6.046741 18.462459 15.550794 0 0 0
667 223 1 -0.847600 6.957536 17.949317 18.004770 0 0 0
668 223 2 0.423800 6.079496 17.492317 17.862655 0 0 0
669 223 2 0.423800 6.933446 18.457171 18.865876 0 0 0
670 224 1 -0.847600 7.019473 18.023590 20.831723 0 0 0
671 224 2 0.423800 7.419969 18.784373 21.342420 0 0 0
672 224 2 0.423800 7.746364 17.505156 20.381329 0 0 0
673 225 1 -0.847600 7.040495 18.129593 23.573532 0 0 0
674 225 2 0.423800 7.019026 17.796459 22.630897 0 0 0
675 225 2 0.423800 6.441847 17.563932 24.140672 0 0 0
676 226 1 -0.847600 6.937149 20.817370 1.407473 0 0 0
677 226 2 0.423800 7.435839 21.604820 1.769731 0 0 0
678 226 2 0.423800 6.675995 20.995890 0.458828 0 0 0
679 227 1 -0.847600 6.952021 20.785883 4.177811 0 0 0
680 227 2 0.423800 6.478578 20.026871 4.624747 0 0 0
681 227 2 0.423800 7.867074 20.491744 3.901837 0 0 0
682 228 1 -0.847600 6.932231 20.934149 6.947673 0 0 0
683 228 2 0.423800 7.505334 20.419838 7.585668 0 0 0
684 228 2 0.423800 6.080776 20.434774 6.787522 0 0 0
685 229 1 -0.847600 6.890025 20.752905 9.762745 0 0 0
686 229 2 0.423800 7.396392 21.603811 9.902567 0 0 0
687 229 2 0.423800 6.749867 20.299923 10.643178 0 0 0
688 230 1 -0.847600 6.990235 20.842697 12.568817 0 0 0
689 230 2 0.423800 6.375999 20.158546 12.962075 0 0 0
690 230 2 0.423800 6.458523 21.500939 12.035901 0 0 0
691 231 1 -0.847600 6.974996 20.875235 15.269239 0 0 0
692 231 2 0.423800 7.060323 21.484700 14.481031 0 0 0
693 231 2 0.423800 6.320114 20.149115 15.059763 0 0 0
694 232 1 -0.847600 6.874304 20.905987 17.949317 0 0 0
695 232 2 0.423800 6.065736 21.451538 18.169755 0 0 0
696 232 2 0.423800 7.435385 20.795148 18.769623 0 0 0
697 233 1 -0.847600 6.932794 20.770405 20.887470 0 0 0
698 233 2 0.423800 6.856507 19.969089 20.294112 0 0 0
699 233 2 0.423800 6.667091 20.521916 21.818950 0 0 0
700 234 1 -0.847600 6.922145 20.817237 23.629488 0 0 0
701 234 2 0.423800 7.153664 20.889197 22.659322 0 0 0
702 234 2 0.423800 7.603051 20.250627 24.093514 0 0 0
703 235 1 -0.847600 6.891471 23.610548 1.412642 0 0 0
704 235 2 0.423800 6.046495 24.142669 1.466147 0 0 0
705 235 2 0.423800 6.683774 22.641175 1.543701 0 0 0
706 236 1 -0.847600 7.054764 23.584056 4.058161 0 0 0
707 236 2 0.423800 6.089286 23.800929 3.913877 0 0 0
708 236 2 0.423800 7.361384 22.943671 3.353966 0 0 0
709 237 1 -0.847600 6.983106 23.724151 6.939534 0 0 0
710 237 2 0.423800 7.368438 24.548011 7.355194 0 0 0
711 237 2 0.423800 7.132842 22.943447 7.546230 0 0 0
712 238 1 -0.847600 6.910352 23.558498 9.709405 0 0 0
713 238 2 0.423800 6.973355 22.658827 10.141403 0 0 0
714 238 2 0.423800 7.409538 23.547903 8.842975 0 0 0
715 239 1 -0.847600 6.899891 23.637435 12.554244 0 0 0
716 239 2 0.423800 6.693663 24.186526 13.364163 0 0 0
717 239 2 0.423800 6.513876 22.721649 12.665279 0 0 0
718 240 1 -0.847600 6.867654 23.505779 15.238762 0 0 0
719 240 2 0.423800 6.785219 23.299468 16.213770 0 0 0
720 240 2 0.423800 7.790429 23.839130 15.045461 0 0 0
721 241 1 -0.847600 6.949514 23.579875 18.041534 0 0 0
722 241 2 0.423800 7.705432 23.088751 18.474414 0 0 0
723 241 2 0.423800 6.357766 23.969684 18.747143 0 0 0
724 242 1 -0.847600 6.979991 23.648100 20.928894 0 0 0
725 242 2 0.423800 7.096353 24.022069 20.008782 0 0 0
726 242 2 0.423800 7.692845 22.969372 21.105437 0 0 0
727 243 1 -0.847600 6.886736 23.622902 23.601128 0 0 0
728 243 2 0.423800 5.910133 23.532200 23.796112 0 0 0
729 243 2 0.423800 7.362502 22.791362 23.887812 0 0 0
730 244 1 -0.847600 9.755406 1.389382 1.405368 0 0 0
731 244 2 0.423800 9.990296 0.426381 1.273249 0 0 0
732 244 2 0.423800 9.825151 1.872271 0.532469 0 0 0
733 245 1 -0.847600 9.783759 1.373209 4.058161 0 0 0
734 245 2 0.423800 9.337783 0.980973 4.862683 0 0 0
735 245 2 0.423800 10.242377 2.224482 4.313120 0 0 0
736 246 1 -0.847600 9.772790 1.431723 6.954023 0 0 0
737 246 2 0.423800 9.608463 2.030307 7.738048 0 0 0
738 246 2 0.423800 9.118612 1.645542 6.228535 0 0 0
739 247 1 -0.847600 9.695392 1.380636 9.674636 0 0 0
740 247 2 0.423800 9.816907 1.517127 10.657796 0 0 0
741 247 2 0.423800 8.855569 1.834258 9.376436 0 0 0
742 248 1 -0.847600 9.719944 1.303417 12.451646 0 0 0
743 248 2 0.423800 9.383084 0.514377 12.965398 0 0 0
744 248 2 0.423800 10.686094 1.451101 12.663173 0 0 0
745 249 1 -0.847600 9.614623 1.310320 15.311055 0 0 0
746 249 2 0.423800 10.208508 1.828713 14.695775 0 0 0
747 249 2 0.423800 9.178147 1.935423 15.958152 0 0 0
748 250 1 -0.847600 9.766041 1.433589 17.992381 0 0 0
749 250 2 0.423800 9.002585 2.079449 17.991912 0 0 0
750 250 2 0.423800 10.563692 1.860705 18.418203 0 0 0
751 251 1 -0.847600 9.669142 1.377627 20.932787 0 0 0
752 251 2 0.423800 9.600480 0.395947 21.110525 0 0 0
753 251 2 0.423800 10.632390 1.644854 20.905537 0 0 0
754 252 1 -0.847600 9.614623 1.279930 23.646063 0 0 0
755 252 2 0.423800 9.949502 2.139931 24.031101 0 0 0
756 252 2 0.423800 10.386089 0.748829 23.295674 0 0 0
757 253 1 -0.847600 9.805074 4.263024 1.419637 0 0 0
758 253 2 0.423800 9.890716 3.903524 2.348844 0 0 0
759 253 2 0.423800 9.728297 5.259496 1.453529 0 0 0
760 254 1 -0.847600 9.788017 4.195479 4.130213 0 0 0
761 254 2 0.423800 10.404305 4.566384 4.824920 0 0 0
762 254 2 0.423800 10.274277 4.119299 3.259726 0 0 0
763 255 1 -0.847600 9.769469 4.227175 6.930906 0 0 0
764 255 2 0.423800 9.329257 5.104870 7.120281 0 0 0
765 255 2 0.423800 9.700305 3.638887 7.736594 0 0 0
766 256 1 -0.847600 9.755318 4.211617 9.742510 0 0 0
767 256 2 0.423800 10.393177 3.714281 10.330552 0 0 0
768 256 2 0.423800 8.876695 3.734416 9.725156 0 0 0
769 257 1 -0.847600 9.636151 4.147644 12.527684 0 0 0
770 257 2 0.423800 9.039908 3.845963 11.783720 0 0 0
771 257 2 0.423800 10.583845 3.912956 12.311355 0 0 0
772 258 1 -0.847600 9.703684 4.139202 15.336188 0 0 0
773 258 2 0.423800 9.847998 5.104170 15.555304 0 0 0
774 258 2 0.423800 10.584101 3.705830 15.143693 0 0 0
775 259 1 -0.847600 9.802802 4.121406 17.967879 0 0 0
776 259 2 0.423800 9.668743 4.030423 18.954667 0 0 0
777 259 2 0.423800 10.522883 3.494641 17.670140 0 0 0
778 260 1 -0.847600 9.819783 4.276533 20.853417 0 0 0
779 260 2 0.423800 9.551827 4.089790 21.798576 0 0 0
780 260 2 0.423800 9.078656 4.008789 20.237751 0 0 0
781 261 1 -0.847600 9.703250 4.276533 23.524062 0 0 0
782 261 2 0.423800 9.315307 5.164515 23.771019 0 0 0
783 261 2 0.423800 10.623969 4.405814 23.155874 0 0 0
784 262 1 -0.847600 9.759436 6.975778 1.498302 0 0 0
785 262 2 0.423800 10.578754 7.171619 0.959448 0 0 0
786 262 2 0.423800 9.014469 6.708590 0.887045 0 0 0
787 263 1 -0.847600 9.614623 6.915226 4.190708 0 0 0
788 263 2 0.423800 9.701513 6.833716 3.197831 0 0 0
789 263 2 0.423800 10.183440 7.671440 4.514110 0 0 0
790 264 1 -0.847600 9.700699 6.836392 6.894109 0 0 0
791 264 2 0.423800 10.463320 6.406396 6.410878 0 0 0
792 264 2 0.423800 8.977283 6.162058 7.042241 0 0 0
793 265 1 -0.847600 9.823495 6.969532 9.666909 0 0 0
794 265 2 0.423800 10.301760 7.830198 9.841601 0 0 0
795 265 2 0.423800 8.843311 7.145430 9.575804 0 0 0
796 266 1 -0.847600 9.672057 6.836392 12.528599 0 0 0
797 266 2 0.423800 10.059744 6.129855 13.120633 0 0 0
798 266 2 0.423800 9.020681 7.387624 13.049994 0 0 0
799 267 1 -0.847600 9.739811 6.943769 15.268013 0 0 0
800 267 2 0.423800 8.860682 7.383673 15.084668 0 0 0
801 267 2 0.423800 10.475219 7.613919 15.167637 0 0 0
802 268 1 -0.847600 9.733708 6.954504 18.119506 0 0 0
803 268 2 0.423800 9.157714 7.615840 17.639022 0 0 0
804 268 2 0.423800 10.108563 7.376660 18.944896 0 0 0
805 269 1 -0.847600 9.681690 7.020920 20.945920 0 0 0
806 269 2 0.423800 8.964908 7.089308 20.251984 0 0 0
807 269 2 0.423800 10.084400 6.105957 20.920105 0 0 0
808 270 1 -0.847600 9.769612 6.927841 23.653263 0 0 0
809 270 2 0.423800 9.789829 6.067929 24.163304 0 0 0
810 270 2 0.423800 10.689516 7.142388 23.325016 0 0 0
811 271 1 -0.847600 9.662255 9.763728 1.279930 0 0 0
812 271 2 0.423800 9.569840 10.537345 1.906807 0 0 0
813 271 2 0.423800 10.556736 9.335517 1.408538 0 0 0
814 272 1 -0.847600 9.614623 9.808965 4.170083 0 0 0
815 272 2 0.423800 9.359457 8.843718 4.226550 0 0 0
816 272 2 0.423800 10.218405 10.039311 4.933227 0 0 0
817 273 1 -0.847600 9.823411 9.665592 7.008985 0 0 0
818 273 2 0.423800 9.169004 10.060436 7.653848 0 0 0
819 273 2 0.423800 9.764283 10.149456 6.135841 0 0 0
820 274 1 -0.847600 9.652321 9.719414 9.764860 0 0 0
821 274 2 0.423800 8.900888 9.076737 9.914240 0 0 0
822 274 2 0.423800 10.189708 9.425952 8.974230 0 0 0
823 275 1 -0.847600 9.758779 9.674008 12.501479 0 0 0
824 275 2 0.423800 9.576009 10.312296 11.753693 0 0 0
825 275 2 0.423800 9.160897 9.886201 13.274467 0 0 0
826 276 1 -0.847600 9.832995 9.659581 15.358694 0 0 0
827 276 2 0.423800 10.017959 9.882603 14.401589 0 0 0
828 276 2 0.423800 9.028165 10.165345 15.669261 0 0 0
829 277 1 -0.847600 9.677943 9.768566 18.013686 0 0 0
830 277 2 0.423800 9.016912 10.243783 17.432989 0 0 0
831 277 2 0.423800 9.466650 9.947461 18.974598 0 0 0
832 278 1 -0.847600 9.646117 9.645975 20.744728 0 0 0
833 278 2 0.423800 10.089671 9.934795 21.593163 0 0 0
834 278 2 0.423800 8.683108 9.444663 20.923853 0 0 0
835 279 1 -0.847600 9.778649 9.701332 23.573260 0 0 0
836 279 2 0.423800 10.331256 8.928387 23.884999 0 0 0
837 279 2 0.423800 9.148739 9.975313 24.299998 0 0 0
838 280 1 -0.847600 9.709308 12.392854 1.431992 0 0 0
839 280 2 0.423800 9.576777 13.372854 1.580441 0 0 0
840 280 2 0.423800 9.071807 11.879500 2.006500 0 0 0
841 281 1 -0.847600 9.670089 12.504920 4.134296 0 0 0
842 281 2 0.423800 9.025720 12.922314 4.775054 0 0 0
843 281 2 0.423800 10.604956 12.657643 4.454761 0 0 0
844 282 1 -0.847600 9.732038 12.441704 6.970424 0 0 0
845 282 2 0.423800 10.660380 12.775240 6.806303 0 0 0
846 282 2 0.423800 9.714706 11.906037 7.814674 0 0 0
847 283 1 -0.847600 9.692900 12.564753 9.721907 0 0 0
848 283 2 0.423800 9.145035 13.300886 9.324475 0 0 0
849 283 2 0.423800 9.349632 11.682520 9.399677 0 0 0
850 284 1 -0.847600 9.641507 12.439351 12.595158 0 0 0
851 284 2 0.423800 9.873278 11.466603 12.588639 0 0 0
852 284 2 0.423800 9.641444 12.788268 11.658005 0 0 0
853 285 1 -0.847600 9.832995 12.403312 15.231119 0 0 0
854 285 2 0.423800 9.907472 11.911565 14.363572 0 0 0
855 285 2 0.423800 10.746784 12.554194 15.608245 0 0 0
856 286 1 -0.847600 9.760213 12.575701 18.132296 0 0 0
857 286 2 0.423800 10.217361 13.102241 18.849075 0 0 0
858 286 2 0.423800 8.845023 12.947850 17.977594 0 0 0
859 287 1 -0.847600 9.770985 12.462042 20.829878 0 0 0
860 287 2 0.423800 9.534231 13.392233 20.549359 0 0 0
861 287 2 0.423800 9.468313 12.310444 21.770839 0 0 0
862 288 1 -0.847600 9.705153 12.476334 23.602077 0 0 0
863 288 2 0.423800 8.791294 12.105892 23.435839 0 0 0
864 288 2 0.423800 9.682996 13.471881 23.510454 0 0 0
865 289 1 -0.847600 9.712110 15.362654 1.337676 0 0 0
866 289 2 0.423800 10.583991 15.431380 0.852806 0 0 0
867 289 2 0.423800 9.586724 16.170133 1.914091 0 0 0
868 290 1 -0.847600 9.630692 15.234902 4.229662 0 0 0
869 290 2 0.423800 10.043701 15.954225 3.671094 0 0 0
870 290 2 0.423800 9.504955 15.569064 5.163753 0 0 0
871 291 1 -0.847600 9.697865 15.312257 7.054764 0 0 0
872 291 2 0.423800 10.650751 15.327422 7.357713 0 0 0
873 291 2 0.423800 9.397872 14.364587 6.945559 0 0 0
874 292 1 -0.847600 9.726616 15.300681 9.623724 0 0 0
875 292 2 0.423800 10.518959 15.136843 10.211389 0 0 0
876 292 2 0.423800 9.934490 16.039000 8.982106 0 0 0
877 293 1 -0.847600 9.772026 15.247447 12.511142 0 0 0
878 293 2 0.423800 9.091349 14.721185 12.001509 0 0 0
879 293 2 0.423800 9.671854 15.063458 13.488953 0 0 0
880 294 1 -0.847600 9.684023 15.295536 15.373071 0 0 0
881 294 2 0.423800 10.467704 15.884651 15.176128 0 0 0
882 294 2 0.423800 9.371081 14.863317 14.527343 0 0 0
883 295 1 -0.847600 9.750498 15.252466 18.094325 0 0 0
884 295 2 0.423800 10.047626 14.587989 18.780025 0 0 0
885 295 2 0.423800 9.325271 14.772249 17.327139 0 0 0
886 296 1 -0.847600 9.702578 15.379350 20.890043 0 0 0
887 296 2 0.423800 9.782156 15.709778 21.830513 0 0 0
888 296 2 0.423800 8.886010 14.808348 20.805343 0 0 0
889 297 1 -0.847600 9.741160 15.220850 23.635547 0 0 0
890 297 2 0.423800 10.320215 15.853603 23.121428 0 0 0
891 297 2 0.423800 9.587896 14.394295 23.093959 0 0 0
892 298 1 -0.847600 9.683493 18.075636 1.464877 0 0 0
893 298 2 0.423800 9.526940 18.548383 0.597697 0 0 0
894 298 2 0.423800 9.064234 18.440684 2.160045 0 0 0
895 299 1 -0.847600 9.662535 18.065098 4.116660 0 0 0
896 299 2 0.423800 9.615860 17.932079 3.126646 0 0 0
897 299 2 0.423800 9.224233 17.293502 4.577672 0 0 0
898 300 1 -0.847600 9.614623 18.000608 6.836392 0 0 0
899 300 2 0.423800 9.768862 18.591965 6.044870 0 0 0
900 300 2 0.423800 10.028851 18.414164 7.647186 0 0 0
901 301 1 -0.847600 9.747866 18.140628 9.647115 0 0 0
902 301 2 0.423800 10.475549 17.867912 10.276484 0 0 0
903 301 2 0.423800 8.983097 17.500999 9.724588 0 0 0
904 302 1 -0.847600 9.677822 18.037532 12.494303 0 0 0
905 302 2 0.423800 9.878418 17.107172 12.187396 0 0 0
906 302 2 0.423800 8.747545 18.284659 12.223167 0 0 0
907 303 1 -0.847600 9.619423 18.111154 15.327477 0 0 0
908 303 2 0.423800 9.342518 19.063280 15.197940 0 0 0
909 303 2 0.423800 8.954470 17.507801 14.887245 0 0 0
910 304 1 -0.847600 9.720972 18.065036 17.989254 0 0 0
911 304 2 0.423800 9.107877 17.761524 18.718634 0 0 0
912 304 2 0.423800 9.215308 18.640920 17.346867 0 0 0
913 305 1 -0.847600 9.697917 18.097133 20.771129 0 0 0
914 305 2 0.423800 10.299447 18.870835 20.969993 0 0 0
915 305 2 0.423800 9.737433 17.886675 19.794325 0 0 0
916 306 1 -0.847600 9.658404 18.006414 23.597711 0 0 0
917 306 2 0.423800 9.943467 18.575299 22.826277 0 0 0
918 306 2 0.423800 10.178325 17.152219 23.591987 0 0 0
919 307 1 -0.847600 9.731384 20.935452 1.440052 0 0 0
920 307 2 0.423800 10.134732 20.491976 0.639653 0 0 0
921 307 2 0.423800 10.454337 21.357937 1.986721 0 0 0
922 308 1 -0.847600 9.769329 20.861545 4.108558 0 0 0
923 308 2 0.423800 8.874221 21.032200 3.696663 0 0 0
924 308 2 0.423800 10.407221 20.552097 3.403338 0 0 0
925 309 1 -0.847600 9.614623 20.827220 6.913945 0 0 0
926 309 2 0.423800 9.048503 20.267030 7.518672 0 0 0
927 309 2 0.423800 9.998939 20.253254 6.190851 0 0 0
928 310 1 -0.847600 9.832995 20.870311 9.832995 0 0 0
929 310 2 0.423800 10.276361 20.192108 9.246934 0 0 0
930 310 2 0.423800 10.078340 21.789183 9.523997 0 0 0
931 311 1 -0.847600 9.652077 20.861658 12.595321 0 0 0
932 311 2 0.423800 10.127051 20.717328 13.463404 0 0 0
933 311 2 0.423800 10.208326 21.445647 12.004099 0 0 0
934 312 1 -0.847600 9.680897 20.789167 15.356208 0 0 0
935 312 2 0.423800 9.341140 21.585304 15.856938 0 0 0
936 312 2 0.423800 10.637570 20.626773 15.597877 0 0 0
937 313 1 -0.847600 9.695872 20.826872 17.949317 0 0 0
938 313 2 0.423800 10.539368 21.005876 17.442887 0 0 0
939 313 2 0.423800 9.083918 21.613389 17.866229 0 0 0
940 314 1 -0.847600 9.683621 20.727548 20.811087 0 0 0
941 314 2 0.423800 10.374508 21.039200 20.158746 0 0 0
942 314 2 0.423800 10.115171 20.147525 21.501983 0 0 0
943 315 1 -0.847600 9.728027 20.864720 23.581847 0 0 0
944 315 2 0.423800 10.165930 20.067788 23.997948 0 0 0
945 315 2 0.423800 8.735747 20.740845 23.587831 0 0 0
946 316 1 -0.847600 9.755148 23.675066 1.397961 0 0 0
947 316 2 0.423800 9.700804 24.608961 1.044568 0 0 0
948 316 2 0.423800 8.831838 23.316089 1.534472 0 0 0
949 317 1 -0.847600 9.723194 23.670524 4.203319 0 0 0
950 317 2 0.423800 10.289797 23.449846 4.997210 0 0 0
951 317 2 0.423800 9.559040 22.840711 3.669966 0 0 0
952 318 1 -0.847600 9.712943 23.685397 7.014623 0 0 0
953 318 2 0.423800 10.556676 24.152948 6.750975 0 0 0
954 318 2 0.423800 8.927236 24.256968 6.778041 0 0 0
955 319 1 -0.847600 9.716789 23.645404 9.697058 0 0 0
956 319 2 0.423800 10.339284 24.404460 9.506441 0 0 0
957 319 2 0.423800 9.382177 23.264273 8.835215 0 0 0
958 320 1 -0.847600 9.701468 23.647709 12.480868 0 0 0
959 320 2 0.423800 9.675438 24.644503 12.405211 0 0 0
960 320 2 0.423800 10.285201 23.386929 13.249795 0 0 0
961 321 1 -0.847600 9.783550 23.642074 15.323498 0 0 0
962 321 2 0.423800 10.353596 22.860986 15.578350 0 0 0
963 321 2 0.423800 9.015506 23.326466 14.766272 0 0 0
964 322 1 -0.847600 9.752049 23.713782 18.094772 0 0 0
965 322 2 0.423800 8.821076 24.076845 18.133151 0 0 0
966 322 2 0.423800 9.760353 22.779371 18.450871 0 0 0
967 323 1 -0.847600 9.823497 23.528543 20.854425 0 0 0
968 323 2 0.423800 9.921676 23.273861 19.892397 0 0 0
969 323 2 0.423800 9.322046 24.391136 20.921361 0 0 0
970 324 1 -0.847600 9.769630 23.581739 23.570944 0 0 0
971 324 2 0.423800 10.569699 23.263251 24.079328 0 0 0
972 324 2 0.423800 9.387669 22.824065 23.041760 0 0 0
973 325 1 -0.847600 12.479682 1.440121 1.279930 0 0 0
974 325 2 0.423800 12.707548 1.798098 2.185429 0 0 0
975 325 2 0.423800 13.129790 1.794876 0.607986 0 0 0
976 326 1 -0.847600 12.424622 1.413351 4.221975 0 0 0
977 326 2 0.423800 11.641429 1.754657 3.702245 0 0 0
978 326 2 0.423800 12.430942 0.413675 4.197286 0 0 0
979 327 1 -0.847600 12.409273 1.447886 6.917297 0 0 0
980 327 2 0.423800 13.269170 1.958350 6.915229 0 0 0
981 327 2 0.423800 11.757187 1.890898 6.302054 0 0 0
982 328 1 -0.847600 12.445708 1.498302 9.822830 0 0 0
983 328 2 0.423800 12.348057 1.070990 8.924014 0 0 0
984 328 2 0.423800 13.013505 0.918820 10.407473 0 0 0
985 329 1 -0.847600 12.503033 1.297931 12.423985 0 0 0
986 329 2 0.423800 12.514319 1.706098 11.511148 0 0 0
987 329 2 0.423800 11.741918 1.677934 12.949629 0 0 0
988 330 1 -0.847600 12.392854 1.370556 15.273771 0 0 0
989 330 2 0.423800 12.188000 0.829531 16.089447 0 0 0
990 330 2 0.423800 11.882609 2.229942 15.307008 0 0 0
991 331 1 -0.847600 12.522072 1.279930 17.949317 0 0 0
992 331 2 0.423800 12.347111 2.196398 17.589490 0 0 0
993 331 2 0.423800 12.344334 1.268651 18.933330 0 0 0
994 332 1 -0.847600 12.471650 1.286580 20.838186 0 0 0
995 332 2 0.423800 12.465239 0.910783 21.764866 0 0 0
996 332 2 0.423800 12.026686 2.182128 20.838594 0 0 0
997 333 1 -0.847600 12.539935 1.349443 23.528476 0 0 0
998 333 2 0.423800 12.015206 1.452616 24.373470 0 0 0
999 333 2 0.423800 11.922443 1.404582 22.743834 0 0 0
1000 334 1 -0.847600 12.551021 4.264868 1.435360 0 0 0
1001 334 2 0.423800 12.283971 4.730876 2.278877 0 0 0
1002 334 2 0.423800 11.871900 3.565846 1.211389 0 0 0
1003 335 1 -0.847600 12.512685 4.175451 4.205348 0 0 0
1004 335 2 0.423800 12.381828 3.818890 3.280286 0 0 0
1005 335 2 0.423800 13.405410 3.886212 4.550866 0 0 0
1006 336 1 -0.847600 12.516432 4.101797 6.909373 0 0 0
1007 336 2 0.423800 11.939528 3.295498 7.040001 0 0 0
1008 336 2 0.423800 12.928074 4.073082 5.998480 0 0 0
1009 337 1 -0.847600 12.451933 4.127078 9.722318 0 0 0
1010 337 2 0.423800 13.420131 3.897273 9.623416 0 0 0
1011 337 2 0.423800 12.142722 3.879572 10.640538 0 0 0
1012 338 1 -0.847600 12.490931 4.184285 12.545910 0 0 0
1013 338 2 0.423800 12.161201 4.676014 13.351813 0 0 0
1014 338 2 0.423800 13.484262 4.279379 12.480713 0 0 0
1015 339 1 -0.847600 12.564398 4.211672 15.323500 0 0 0
1016 339 2 0.423800 12.271951 4.407672 16.259480 0 0 0
1017 339 2 0.423800 11.760367 4.076785 14.744415 0 0 0
1018 340 1 -0.847600 12.449425 4.183180 17.999609 0 0 0
1019 340 2 0.423800 12.292108 5.076008 18.421639 0 0 0
1020 340 2 0.423800 11.578614 3.700480 17.906396 0 0 0
1021 341 1 -0.847600 12.472263 4.276533 20.908407 0 0 0
1022 341 2 0.423800 11.744851 3.595718 20.994214 0 0 0
1023 341 2 0.423800 12.256352 4.902336 20.158905 0 0 0
1024 342 1 -0.847600 12.493794 4.188738 23.703917 0 0 0
1025 342 2 0.423800 13.400602 4.433145 23.360457 0 0 0
1026 342 2 0.423800 12.135540 3.416611 23.179062 0 0 0
1027 343 1 -0.847600 12.525304 6.955824 1.393082 0 0 0
1028 343 2 0.423800 11.768863 7.609703 1.377609 0 0 0
1029 343 2 0.423800 13.008374 6.984207 0.517961 0 0 0
1030 344 1 -0.847600 12.467374 6.962304 4.215353 0 0 0
1031 344 2 0.423800 12.802201 6.048370 4.444736 0 0 0
1032 344 2 0.423800 11.469936 6.944216 4.146144 0 0 0
1033 345 1 -0.847600 12.467329 6.999301 6.836392 0 0 0
1034 345 2 0.423800 12.623425 6.105617 7.257063 0 0 0
1035 345 2 0.423800 11.627412 6.970458 6.294444 0 0 0
1036 346 1 -0.847600 12.541311 6.972687 9.637053 0 0 0
1037 346 2 0.423800 12.082142 7.844531 9.466609 0 0 0
1038 346 2 0.423800 12.089300 6.250077 9.114061 0 0 0
1039 347 1 -0.847600 12.559471 6.878427 12.521583 0 0 0
1040 347 2 0.423800 12.631827 5.907769 12.292261 0 0 0
1041 347 2 0.423800 13.070343 7.418006 11.852356 0 0 0
1042 348 1 -0.847600 12.549491 6.953530 15.215964 0 0 0
1043 348 2 0.423800 11.956721 6.369064 15.770060 0 0 0
1044 348 2 0.423800 13.015788 7.611489 15.807284 0 0 0
1045 349 1 -0.847600 12.541045 6.866756 18.000124 0 0 0
1046 349 2 0.423800 13.300363 7.100228 17.392731 0 0 0
1047 349 2 0.423800 12.899543 6.463315 18.841976 0 0 0
1048 350 1 -0.847600 12.529136 6.981503 20.938243 0 0 0
1049 350 2 0.423800 13.091273 7.675355 20.488165 0 0 0
1050 350 2 0.423800 11.925912 7.421390 21.603540 0 0 0
1051 351 1 -0.847600 12.543918 6.886787 23.580114 0 0 0
1052 351 2 0.423800 12.311993 7.853495 23.472016 0 0 0
1053 351 2 0.423800 13.109188 6.768905 24.396554 0 0 0
1054 352 1 -0.847600 12.588470 9.737015 1.296876 0 0 0
1055 352 2 0.423800 13.204019 10.337375 0.786320 0 0 0
1056 352 2 0.423800 12.005508 10.287636 1.894347 0 0 0
1057 353 1 -0.847600 12.400125 9.801349 4.276533 0 0 0
1058 353 2 0.423800 12.616888 10.590067 3.701261 0 0 0
1059 353 2 0.423800 11.482755 9.910131 4.659413 0 0 0
1060 354 1 -0.847600 12.609633 9.754091 6.928553 0 0 0
1061 354 2 0.423800 13.394544 9.217076 7.237629 0 0 0
1062 354 2 0.423800 12.924383 10.642516 6.594437 0 0 0
1063 355 1 -0.847600 12.549634 9.814253 9.731610 0 0 0
1064 355 2 0.423800 13.162086 9.261564 9.166422 0 0 0
1065 355 2 0.423800 12.604801 10.770901 9.445637 0 0 0
1066 356 1 -0.847600 12.508905 9.716306 12.460152 0 0 0
1067 356 2 0.423800 12.079447 10.537951 12.834939 0 0 0
1068 356 2 0.423800 11.868582 9.256664 11.844754 0 0 0
1069 357 1 -0.847600 12.584737 9.738348 15.210354 0 0 0
1070 357 2 0.423800 13.196756 10.269053 15.796685 0 0 0
1071 357 2 0.423800 12.372614 8.866715 15.652238 0 0 0
1072 358 1 -0.847600 12.523442 9.721102 17.976321 0 0 0
1073 358 2 0.423800 12.009353 8.962446 17.576129 0 0 0
1074 358 2 0.423800 13.462843 9.429118 18.155965 0 0 0
1075 359 1 -0.847600 12.535656 9.679094 20.827103 0 0 0
1076 359 2 0.423800 13.519496 9.785130 20.971377 0 0 0
1077 359 2 0.423800 12.054168 9.827917 21.690828 0 0 0
1078 360 1 -0.847600 12.433347 9.805981 23.724151 0 0 0
1079 360 2 0.423800 12.352838 8.822172 23.564036 0 0 0
1080 360 2 0.423800 11.918134 10.300830 23.024379 0 0 0
1081 361 1 -0.847600 12.611226 12.598057 1.482104 0 0 0
1082 361 2 0.423800 13.374618 12.549199 2.126189 0 0 0
1083 361 2 0.423800 12.651449 11.817948 0.857755 0 0 0
1084 362 1 -0.847600 12.531690 12.571011 4.242181 0 0 0
1085 362 2 0.423800 13.347672 12.335100 3.714431 0 0 0
1086 362 2 0.423800 11.931238 13.147277 3.687766 0 0 0
1087 363 1 -0.847600 12.537604 12.479674 6.946437 0 0 0
1088 363 2 0.423800 12.416736 12.556341 5.956733 0 0 0
1089 363 2 0.423800 12.626981 11.515875 7.197642 0 0 0
1090 364 1 -0.847600 12.424155 12.489175 9.717396 0 0 0
1091 364 2 0.423800 12.852567 12.522932 10.620349 0 0 0
1092 364 2 0.423800 12.992064 12.984837 9.060281 0 0 0
1093 365 1 -0.847600 12.513284 12.415122 12.504431 0 0 0
1094 365 2 0.423800 13.017369 11.570051 12.326232 0 0 0
1095 365 2 0.423800 13.002005 12.956859 13.188297 0 0 0
1096 366 1 -0.847600 12.394687 12.405466 15.299635 0 0 0
1097 366 2 0.423800 12.501032 12.278023 16.285763 0 0 0
1098 366 2 0.423800 12.718483 13.316531 15.044456 0 0 0
1099 367 1 -0.847600 12.610497 12.493136 18.046503 0 0 0
1100 367 2 0.423800 11.771282 12.533475 18.588803 0 0 0
1101 367 2 0.423800 12.508467 11.808369 17.324919 0 0 0
1102 368 1 -0.847600 12.578499 12.521950 20.812966 0 0 0
1103 368 2 0.423800 12.588049 12.870120 19.875583 0 0 0
1104 368 2 0.423800 13.249594 13.021371 21.360881 0 0 0
1105 369 1 -0.847600 12.464684 12.545534 23.514020 0 0 0
1106 369 2 0.423800 12.391818 12.681249 24.502085 0 0 0
1107 369 2 0.423800 11.877940 11.784265 23.237974 0 0 0
1108 370 1 -0.847600 12.523386 15.171086 1.376974 0 0 0
1109 370 2 0.423800 12.460214 14.812299 2.308254 0 0 0
1110 370 2 0.423800 13.277112 14.721989 0.897173 0 0 0
1111 371 1 -0.847600 12.611226 15.323986 4.176986 0 0 0
1112 371 2 0.423800 13.304998 15.092349 3.495059 0 0 0
1113 371 2 0.423800 11.901146 14.619887 4.182522 0 0 0
1114 372 1 -0.847600 12.448713 15.334224 6.935583 0 0 0
1115 372 2 0.423800 12.109035 16.231073 6.652244 0 0 0
1116 372 2 0.423800 11.679813 14.702501 7.034162 0 0 0
1117 373 1 -0.847600 12.493682 15.217011 9.736212 0 0 0
1118 373 2 0.423800 11.574125 14.974914 10.045733 0 0 0
1119 373 2 0.423800 12.481601 16.136093 9.342330 0 0 0
1120 374 1 -0.847600 12.474877 15.174258 12.509285 0 0 0
1121 374 2 0.423800 12.835880 15.825675 11.841952 0 0 0
1122 374 2 0.423800 11.792380 14.590401 12.069616 0 0 0
1123 375 1 -0.847600 12.481054 15.263451 15.375795 0 0 0
1124 375 2 0.423800 11.719347 15.801043 15.737453 0 0 0
1125 375 2 0.423800 13.039706 14.925451 16.133200 0 0 0
1126 376 1 -0.847600 12.530326 15.300163 18.073395 0 0 0
1127 376 2 0.423800 11.621062 15.312324 17.657352 0 0 0
1128 376 2 0.423800 12.571112 15.980360 18.805288 0 0 0
1129 377 1 -0.847600 12.474321 15.336391 20.727548 0 0 0
1130 377 2 0.423800 11.767578 16.039841 20.802863 0 0 0
1131 377 2 0.423800 12.226278 14.552429 21.296652 0 0 0
1132 378 1 -0.847600 12.395110 15.345626 23.578011 0 0 0
1133 378 2 0.423800 12.869350 14.508588 23.305128 0 0 0
1134 378 2 0.423800 11.966678 15.209865 24.471327 0 0 0
1135 379 1 -0.847600 12.576706 18.112966 1.438097 0 0 0
1136 379 2 0.423800 13.240309 17.894596 0.722594 0 0 0
1137 379 2 0.423800 12.768069 17.561175 2.249828 0 0 0
1138 380 1 -0.847600 12.485082 18.067145 4.134429 0 0 0
1139 380 2 0.423800 12.543779 17.343576 3.446677 0 0 0
1140 380 2 0.423800 11.786567 17.829546 4.809428 0 0 0
1141 381 1 -0.847600 12.534989 18.105974 7.000920 0 0 0
1142 381 2 0.423800 11.690639 17.707623 7.359235 0 0 0
1143 381 2 0.423800 13.075380 18.476709 7.756257 0 0 0
1144 382 1 -0.847600 12.410832 18.054407 9.743539 0 0 0
1145 382 2 0.423800 12.878685 18.026457 10.626903 0 0 0
1146 382 2 0.423800 12.755114 18.825748 9.208280 0 0 0
1147 383 1 -0.847600 12.457402 18.112173 12.484213 0 0 0
1148 383 2 0.423800 12.141823 18.976913 12.093527 0 0 0
1149 383 2 0.423800 13.212955 17.754498 11.935387 0 0 0
1150 384 1 -0.847600 12.440319 18.160528 15.212417 0 0 0
1151 384 2 0.423800 12.428734 17.901455 16.178205 0 0 0
1152 384 2 0.423800 13.146138 18.852641 15.061422 0 0 0
1153 385 1 -0.847600 12.549939 18.014575 18.102901 0 0 0
1154 385 2 0.423800 12.573016 17.806075 19.080651 0 0 0
1155 385 2 0.423800 11.725458 17.619950 17.697311 0 0 0
1156 386 1 -0.847600 12.595451 18.089802 20.929061 0 0 0
1157 386 2 0.423800 12.067646 17.454263 21.492542 0 0 0
1158 386 2 0.423800 12.179840 18.155079 20.021864 0 0 0
1159 387 1 -0.847600 12.544048 18.131680 23.649739 0 0 0
1160 387 2 0.423800 12.705467 18.022633 22.668897 0 0 0
1161 387 2 0.423800 13.235836 18.742072 24.035550 0 0 0
1162 388 1 -0.847600 12.394562 20.859734 1.394186 0 0 0
1163 388 2 0.423800 12.003453 19.988704 1.096963 0 0 0
1164 388 2 0.423800 12.400726 20.898665 2.393409 0 0 0
1165 389 1 -0.847600 12.531827 20.880993 4.058161 0 0 0
1166 389 2 0.423800 12.759809 21.280736 3.170338 0 0 0
1167 389 2 0.423800 11.878016 20.135279 3.929940 0 0 0
1168 390 1 -0.847600 12.581281 20.945920 6.988375 0 0 0
1169 390 2 0.423800 13.523394 20.983894 7.321514 0 0 0
1170 390 2 0.423800 12.112008 21.798663 7.217748 0 0 0
1171 391 1 -0.847600 12.513126 20.945920 9.654470 0 0 0
1172 391 2 0.423800 12.394989 20.580687 10.577860 0 0 0
1173 391 2 0.423800 12.629167 21.938084 9.700784 0 0 0
1174 392 1 -0.847600 12.478276 20.945920 12.533633 0 0 0
1175 392 2 0.423800 11.925963 20.150309 12.782539 0 0 0
1176 392 2 0.423800 12.730417 21.448527 13.360561 0 0 0
1177 393 1 -0.847600 12.540901 20.934959 15.389458 0 0 0
1178 393 2 0.423800 12.227020 20.898211 16.338208 0 0 0
1179 393 2 0.423800 12.892978 21.849439 15.190039 0 0 0
1180 394 1 -0.847600 12.445282 20.850434 18.110656 0 0 0
1181 394 2 0.423800 11.995118 21.377586 17.389917 0 0 0
1182 394 2 0.423800 12.413891 19.877621 17.881203 0 0 0
1183 395 1 -0.847600 12.611226 20.819242 20.829949 0 0 0
1184 395 2 0.423800 11.775602 20.704826 20.292696 0 0 0
1185 395 2 0.423800 12.376841 20.892331 21.799341 0 0 0
1186 396 1 -0.847600 12.425455 20.902212 23.621216 0 0 0
1187 396 2 0.423800 12.766805 20.339735 24.374276 0 0 0
1188 396 2 0.423800 12.959071 21.746208 23.567124 0 0 0
1189 397 1 -0.847600 12.392854 23.589123 1.424143 0 0 0
1190 397 2 0.423800 12.591733 23.595506 0.444140 0 0 0
1191 397 2 0.423800 12.858249 24.357363 1.863707 0 0 0
1192 398 1 -0.847600 12.539792 23.582418 4.199965 0 0 0
1193 398 2 0.423800 13.001547 23.408122 5.069680 0 0 0
1194 398 2 0.423800 12.448133 24.568751 4.063052 0 0 0
1195 399 1 -0.847600 12.460106 23.653608 6.841850 0 0 0
1196 399 2 0.423800 11.763684 24.228738 6.412639 0 0 0
1197 399 2 0.423800 13.132441 23.376056 6.155606 0 0 0
1198 400 1 -0.847600 12.552953 23.570251 9.706999 0 0 0
1199 400 2 0.423800 12.998675 24.005585 8.924812 0 0 0
1200 400 2 0.423800 11.970279 24.236752 10.172045 0 0 0
1201 401 1 -0.847600 12.493837 23.554336 12.610441 0 0 0
1202 401 2 0.423800 13.192893 23.230015 13.247729 0 0 0
1203 401 2 0.423800 11.677052 23.823883 13.120546 0 0 0
1204 402 1 -0.847600 12.468081 23.619099 15.228313 0 0 0
1205 402 2 0.423800 13.127335 22.931933 14.923047 0 0 0
1206 402 2 0.423800 12.265490 23.479225 16.197536 0 0 0
1207 403 1 -0.847600 12.415447 23.574403 18.053159 0 0 0
1208 403 2 0.423800 11.548571 23.187872 18.367993 0 0 0
1209 403 2 0.423800 12.682602 24.327389 18.654524 0 0 0
1210 404 1 -0.847600 12.532885 23.711684 20.862154 0 0 0
1211 404 2 0.423800 13.194371 23.751589 21.611048 0 0 0
1212 404 2 0.423800 11.951189 22.905978 20.973816 0 0 0
1213 405 1 -0.847600 12.444209 23.702232 23.712585 0 0 0
1214 405 2 0.423800 12.711764 23.586112 22.756065 0 0 0
1215 405 2 0.423800 12.319613 22.804518 24.135178 0 0 0
1216 406 1 -0.847600 15.290153 1.403045 1.343247 0 0 0
1217 406 2 0.423800 15.631583 1.452909 0.404664 0 0 0
1218 406 2 0.423800 14.343222 1.081674 1.336832 0 0 0
1219 407 1 -0.847600 15.191995 1.397124 4.253296 0 0 0
1220 407 2 0.423800 15.107757 0.565479 4.802178 0 0 0
1221 407 2 0.423800 15.443982 2.162898 4.844982 0 0 0
1222 408 1 -0.847600 15.389458 1.376880 7.042410 0 0 0
1223 408 2 0.423800 15.257309 0.963928 7.943525 0 0 0
1224 408 2 0.423800 15.988903 2.172996 7.125263 0 0 0
1225 409 1 -0.847600 15.290950 1.425715 9.687779 0 0 0
1226 409 2 0.423800 14.991894 0.516040 9.975975 0 0 0
1227 409 2 0.423800 15.137689 2.077753 10.430314 0 0 0
1228 410 1 -0.847600 15.328982 1.458631 12.579124 0 0 0
1229 410 2 0.423800 14.730419 0.659369 12.525248 0 0 0
1230 410 2 0.423800 14.779711 2.274963 12.757737 0 0 0
1231 411 1 -0.847600 15.308800 1.461655 15.257258 0 0 0
1232 411 2 0.423800 15.212806 2.414783 14.970320 0 0 0
1233 411 2 0.423800 15.680872 1.428682 16.184876 0 0 0
1234 412 1 -0.847600 15.303470 1.444505 18.124497 0 0 0
1235 412 2 0.423800 14.346019 1.262995 18.348867 0 0 0
1236 412 2 0.423800 15.889191 0.802072 18.618674 0 0 0
1237 413 1 -0.847600 15.305269 1.403209 20.818177 0 0 0
1238 413 2 0.423800 15.816917 0.623442 20.457372 0 0 0
1239 413 2 0.423800 15.718264 2.253096 20.490874 0 0 0
1240 414 1 -0.847600 15.377751 1.409039 23.579130 0 0 0
1241 414 2 0.423800 15.089361 2.281245 23.184051 0 0 0
1242 414 2 0.423800 16.038225 0.969520 22.970363 0 0 0
1243 415 1 -0.847600 15.224629 4.076598 1.498302 0 0 0
1244 415 2 0.423800 14.369334 4.239155 1.990283 0 0 0
1245 415 2 0.423800 15.579312 3.172379 1.736182 0 0 0
1246 416 1 -0.847600 15.329208 4.095365 4.235636 0 0 0
1247 416 2 0.423800 15.219340 3.521439 5.047139 0 0 0
1248 416 2 0.423800 15.263357 3.528059 3.414765 0 0 0
1249 417 1 -0.847600 15.389458 4.155982 7.054764 0 0 0
1250 417 2 0.423800 15.074331 5.104508 7.023244 0 0 0
1251 417 2 0.423800 14.686504 3.558233 6.669339 0 0 0
1252 418 1 -0.847600 15.173346 4.276533 9.673868 0 0 0
1253 418 2 0.423800 15.111647 5.239895 9.412858 0 0 0
1254 418 2 0.423800 15.910704 3.838455 9.159678 0 0 0
1255 419 1 -0.847600 15.229866 4.223153 12.407248 0 0 0
1256 419 2 0.423800 15.106633 3.364217 11.910213 0 0 0
1257 419 2 0.423800 15.998234 4.728342 12.014318 0 0 0
1258 420 1 -0.847600 15.383552 4.276533 15.189164 0 0 0
1259 420 2 0.423800 16.243867 4.783911 15.238413 0 0 0
1260 420 2 0.423800 15.103469 4.005132 16.109976 0 0 0
1261 421 1 -0.847600 15.301408 4.261263 18.028476 0 0 0
1262 421 2 0.423800 15.990606 3.545191 17.917809 0 0 0
1263 421 2 0.423800 14.395607 3.843764 18.100725 0 0 0
1264 422 1 -0.847600 15.288261 4.148620 20.945920 0 0 0
1265 422 2 0.423800 15.064147 4.601102 21.809073 0 0 0
1266 422 2 0.423800 16.071024 4.605576 20.523458 0 0 0
1267 423 1 -0.847600 15.347547 4.167581 23.577168 0 0 0
1268 423 2 0.423800 14.880763 4.345029 22.710782 0 0 0
1269 423 2 0.423800 14.906162 3.400384 24.042558 0 0 0
1270 424 1 -0.847600 15.308081 6.919315 1.369915 0 0 0
1271 424 2 0.423800 14.659276 6.662040 2.086059 0 0 0
1272 424 2 0.423800 15.240744 7.901852 1.196460 0 0 0
1273 425 1 -0.847600 15.171086 6.969646 4.208358 0 0 0
1274 425 2 0.423800 14.480707 7.106605 4.918724 0 0 0
1275 425 2 0.423800 15.953689 7.566693 4.384617 0 0 0
1276 426 1 -0.847600 15.366197 6.884550 6.872675 0 0 0
1277 426 2 0.423800 16.110870 7.443482 6.507904 0 0 0
1278 426 2 0.423800 15.012788 7.304570 7.708548 0 0 0
1279 427 1 -0.847600 15.356411 7.040285 9.751944 0 0 0
1280 427 2 0.423800 15.839846 6.542919 10.472304 0 0 0
1281 427 2 0.423800 14.942376 7.865240 10.136683 0 0 0
1282 428 1 -0.847600 15.262408 6.957006 12.503790 0 0 0
1283 428 2 0.423800 15.745746 6.286189 13.066274 0 0 0
1284 428 2 0.423800 15.762301 7.097461 11.649168 0 0 0
1285 429 1 -0.847600 15.223634 6.955552 15.389458 0 0 0
1286 429 2 0.423800 15.294804 7.534931 16.201402 0 0 0
1287 429 2 0.423800 14.265526 6.714322 15.235062 0 0 0
1288 430 1 -0.847600 15.210869 7.025828 17.970705 0 0 0
1289 430 2 0.423800 14.403563 7.058176 17.381460 0 0 0
1290 430 2 0.423800 16.036035 7.087971 17.409243 0 0 0
1291 431 1 -0.847600 15.293973 6.860666 20.835855 0 0 0
1292 431 2 0.423800 14.501321 7.064993 20.261438 0 0 0
1293 431 2 0.423800 15.398287 5.869659 20.919660 0 0 0
1294 432 1 -0.847600 15.303868 7.033373 23.585478 0 0 0
1295 432 2 0.423800 15.638636 7.156015 22.651192 0 0 0
1296 432 2 0.423800 16.067394 7.113221 24.226299 0 0 0
1297 433 1 -0.847600 15.277686 9.675592 1.400410 0 0 0
1298 433 2 0.423800 15.420282 10.665359 1.395255 0 0 0
1299 433 2 0.423800 16.056007 9.224425 0.963760 0 0 0
1300 434 1 -0.847600 15.308930 9.773821 4.196288 0 0 0
1301 434 2 0.423800 14.857364 10.555877 3.766779 0 0 0
1302 434 2 0.423800 15.455390 9.057503 3.514059 0 0 0
1303 435 1 -0.847600 15.277288 9.751267 6.950547 0 0 0
1304 435 2 0.423800 14.875833 9.771584 6.034894 0 0 0
1305 435 2 0.423800 14.576192 9.495803 7.616281 0 0 0
1306 436 1 -0.847600 15.247063 9.757387 9.614623 0 0 0
1307 436 2 0.423800 15.281317 10.522149 8.971220 0 0 0
1308 436 2 0.423800 16.165559 9.380146 9.733173 0 0 0
1309 437 1 -0.847600 15.215127 9.746426 12.472953 0 0 0
1310 437 2 0.423800 14.336102 10.222996 12.458913 0 0 0
1311 437 2 0.423800 15.084492 8.816173 12.815827 0 0 0
1312 438 1 -0.847600 15.222351 9.646627 15.273656 0 0 0
1313 438 2 0.423800 15.291465 10.083363 16.170586 0 0 0
1314 438 2 0.423800 14.726480 10.248165 14.647347 0 0 0
1315 439 1 -0.847600 15.375800 9.708096 17.968349 0 0 0
1316 439 2 0.423800 15.524762 9.590246 16.986554 0 0 0
1317 439 2 0.423800 14.514274 10.192967 18.118927 0 0 0
1318 440 1 -0.847600 15.254275 9.664521 20.737752 0 0 0
1319 440 2 0.423800 16.002017 10.278986 20.989377 0 0 0
1320 440 2 0.423800 14.894683 9.223027 21.559809 0 0 0
1321 441 1 -0.847600 15.360536 9.745386 23.723355 0 0 0
1322 441 2 0.423800 14.759160 10.433104 23.316673 0 0 0
1323 441 2 0.423800 15.078712 9.572356 24.667090 0 0 0
1324 442 1 -0.847600 15.349672 12.526934 1.350624 0 0 0
1325 442 2 0.423800 15.813229 12.442677 0.468572 0 0 0
1326 442 2 0.423800 14.697617 11.776336 1.457525 0 0 0
1327 443 1 -0.847600 15.296192 12.565905 4.173342 0 0 0
1328 443 2 0.423800 14.299069 12.550090 4.099208 0 0 0
1329 443 2 0.423800 15.567701 13.221845 4.877633 0 0 0
1330 444 1 -0.847600 15.367803 12.392854 6.884549 0 0 0
1331 444 2 0.423800 16.277716 12.771516 7.053885 0 0 0
1332 444 2 0.423800 14.920033 12.913631 6.157711 0 0 0
1333 445 1 -0.847600 15.249673 12.498499 9.688776 0 0 0
1334 445 2 0.423800 15.683607 13.365635 9.444285 0 0 0
1335 445 2 0.423800 15.693730 11.752128 9.193050 0 0 0
1336 446 1 -0.847600 15.243342 12.534331 12.581386 0 0 0
1337 446 2 0.423800 15.970206 11.856588 12.692441 0 0 0
1338 446 2 0.423800 15.242256 12.870650 11.639638 0 0 0
1339 447 1 -0.847600 15.182810 12.560488 15.273721 0 0 0
1340 447 2 0.423800 16.052583 12.069335 15.321297 0 0 0
1341 447 2 0.423800 14.429911 11.920831 15.428584 0 0 0
1342 448 1 -0.847600 15.278559 12.406977 17.993302 0 0 0
1343 448 2 0.423800 15.481986 12.897515 18.840645 0 0 0
1344 448 2 0.423800 14.430814 11.888208 18.103785 0 0 0
1345 449 1 -0.847600 15.279030 12.611226 20.886276 0 0 0
1346 449 2 0.423800 14.326789 12.780335 20.632033 0 0 0
1347 449 2 0.423800 15.806183 12.379459 20.068723 0 0 0
1348 450 1 -0.847600 15.204532 12.571743 23.663522 0 0 0
1349 450 2 0.423800 15.082849 13.222133 22.913731 0 0 0
1350 450 2 0.423800 14.383364 12.008008 23.752331 0 0 0
1351 451 1 -0.847600 15.245445 15.341628 1.476835 0 0 0
1352 451 2 0.423800 15.834744 14.629279 1.857999 0 0 0
1353 451 2 0.423800 14.660190 15.711482 2.198420 0 0 0
1354 452 1 -0.847600 15.279360 15.292168 4.060297 0 0 0
1355 452 2 0.423800 14.766828 15.486729 3.223962 0 0 0
1356 452 2 0.423800 14.918895 14.462589 4.486752 0 0 0
1357 453 1 -0.847600 15.375592 15.273018 6.999289 0 0 0
1358 453 2 0.423800 15.799931 15.708437 6.205345 0 0 0
1359 453 2 0.423800 15.356092 14.282226 6.865310 0 0 0
1360 454 1 -0.847600 15.389458 15.326630 9.721748 0 0 0
1361 454 2 0.423800 15.109888 16.216432 10.082431 0 0 0
1362 454 2 0.423800 16.090573 14.931676 10.315421 0 0 0
1363 455 1 -0.847600 15.361019 15.227502 12.537769 0 0 0
1364 455 2 0.423800 14.929701 15.301671 11.638623 0 0 0
1365 455 2 0.423800 16.255527 14.790539 12.443332 0 0 0
1366 456 1 -0.847600 15.243055 15.273200 15.248194 0 0 0
1367 456 2 0.423800 15.450296 16.097492 15.775066 0 0 0
1368 456 2 0.423800 14.829560 15.530966 14.374937 0 0 0
1369 457 1 -0.847600 15.354144 15.368829 18.107300 0 0 0
1370 457 2 0.423800 14.427718 15.744643 18.084950 0 0 0
1371 457 2 0.423800 15.405155 14.571873 17.505420 0 0 0
1372 458 1 -0.847600 15.258298 15.348540 20.860231 0 0 0
1373 458 2 0.423800 14.481646 15.298690 21.488186 0 0 0
1374 458 2 0.423800 15.518032 16.304929 20.726600 0 0 0
1375 459 1 -0.847600 15.389061 15.384481 23.566687 0 0 0
1376 459 2 0.423800 15.016325 15.170956 22.663650 0 0 0
1377 459 2 0.423800 14.729090 15.934882 24.078054 0 0 0
1378 460 1 -0.847600 15.267093 18.167689 1.358662 0 0 0
1379 460 2 0.423800 15.257987 17.170340 1.286459 0 0 0
1380 460 2 0.423800 14.398345 18.482119 1.741297 0 0 0
1381 461 1 -0.847600 15.281634 17.998419 4.201054 0 0 0
1382 461 2 0.423800 15.004659 17.049549 4.352483 0 0 0
1383 461 2 0.423800 15.742594 18.074032 3.316861 0 0 0
1384 462 1 -0.847600 15.207089 17.949317 6.903273 0 0 0
1385 462 2 0.423800 15.917537 18.220354 6.253810 0 0 0
1386 462 2 0.423800 14.447731 18.598319 6.856669 0 0 0
1387 463 1 -0.847600 15.320213 17.992742 9.615982 0 0 0
1388 463 2 0.423800 14.489466 17.622399 10.031560 0 0 0
1389 463 2 0.423800 16.117710 17.688364 10.136897 0 0 0
1390 464 1 -0.847600 15.179570 18.068335 12.553427 0 0 0
1391 464 2 0.423800 15.128221 18.342670 13.513689 0 0 0
1392 464 2 0.423800 14.582551 17.281049 12.399313 0 0 0
1393 465 1 -0.847600 15.230618 18.029489 15.298981 0 0 0
1394 465 2 0.423800 14.476082 18.671615 15.434447 0 0 0
1395 465 2 0.423800 15.223377 17.347599 16.030400 0 0 0
1396 466 1 -0.847600 15.286543 18.006615 18.039049 0 0 0
1397 466 2 0.423800 14.395197 17.968022 18.490727 0 0 0
1398 466 2 0.423800 15.211675 18.544423 17.199313 0 0 0
1399 467 1 -0.847600 15.241849 18.022730 20.744015 0 0 0
1400 467 2 0.423800 15.851982 18.442155 20.071839 0 0 0
1401 467 2 0.423800 14.607083 18.711795 21.093674 0 0 0
1402 468 1 -0.847600 15.273587 18.167689 23.656209 0 0 0
1403 468 2 0.423800 15.436275 19.032039 23.180360 0 0 0
1404 468 2 0.423800 14.370162 18.187883 24.084479 0 0 0
1405 469 1 -0.847600 15.245869 20.824837 1.279930 0 0 0
1406 469 2 0.423800 14.595905 21.103213 1.987074 0 0 0
1407 469 2 0.423800 15.889368 21.570390 1.106548 0 0 0
1408 470 1 -0.847600 15.244610 20.736125 4.120387 0 0 0
1409 470 2 0.423800 14.307172 20.507707 4.383132 0 0 0
1410 470 2 0.423800 15.867836 20.034182 4.465154 0 0 0
1411 471 1 -0.847600 15.322942 20.788306 6.940274 0 0 0
1412 471 2 0.423800 15.092300 19.815282 6.934854 0 0 0
1413 471 2 0.423800 15.368631 21.114771 7.884378 0 0 0
1414 472 1 -0.847600 15.206797 20.798831 9.735320 0 0 0
1415 472 2 0.423800 15.207290 21.362048 8.909010 0 0 0
1416 472 2 0.423800 14.441337 21.066330 10.320567 0 0 0
1417 473 1 -0.847600 15.265523 20.945920 12.490696 0 0 0
1418 473 2 0.423800 14.305466 20.692032 12.608307 0 0 0
1419 473 2 0.423800 15.338013 21.663993 11.798514 0 0 0
1420 474 1 -0.847600 15.389458 20.727548 15.264208 0 0 0
1421 474 2 0.423800 15.124275 19.799414 15.525448 0 0 0
1422 474 2 0.423800 16.134530 21.039697 15.853640 0 0 0
1423 475 1 -0.847600 15.347017 20.837105 17.985208 0 0 0
1424 475 2 0.423800 15.401857 20.024639 18.565631 0 0 0
1425 475 2 0.423800 15.761047 20.640379 17.096457 0 0 0
1426 476 1 -0.847600 15.342274 20.878102 20.812136 0 0 0
1427 476 2 0.423800 14.389394 20.574915 20.822004 0 0 0
1428 476 2 0.423800 15.447540 21.666359 21.418411 0 0 0
1429 477 1 -0.847600 15.374294 20.922490 23.655499 0 0 0
1430 477 2 0.423800 15.791707 21.131841 24.539771 0 0 0
1431 477 2 0.423800 15.935183 21.307592 22.922628 0 0 0
1432 478 1 -0.847600 15.389458 23.622047 1.365435 0 0 0
1433 478 2 0.423800 14.691981 23.937929 0.722206 0 0 0
1434 478 2 0.423800 15.591018 22.658105 1.191682 0 0 0
1435 479 1 -0.847600 15.292463 23.674116 4.190639 0 0 0
1436 479 2 0.423800 15.299717 23.105228 3.368257 0 0 0
1437 479 2 0.423800 15.128259 24.626941 3.935370 0 0 0
1438 480 1 -0.847600 15.328590 23.710015 6.846846 0 0 0
1439 480 2 0.423800 15.575912 22.910283 6.299799 0 0 0
1440 480 2 0.423800 14.453411 24.074086 6.528232 0 0 0
1441 481 1 -0.847600 15.287838 23.545545 9.713604 0 0 0
1442 481 2 0.423800 14.438487 24.051789 9.564209 0 0 0
1443 481 2 0.423800 15.894573 23.673575 8.929077 0 0 0
1444 482 1 -0.847600 15.257790 23.505779 12.466983 0 0 0
1445 482 2 0.423800 15.134367 24.274626 13.094391 0 0 0
1446 482 2 0.423800 16.148025 23.080989 12.631407 0 0 0
1447 483 1 -0.847600 15.258579 23.521100 15.283901 0 0 0
1448 483 2 0.423800 14.642788 23.080366 14.630789 0 0 0
1449 483 2 0.423800 14.978415 23.288628 16.215279 0 0 0
1450 484 1 -0.847600 15.354731 23.580682 17.975442 0 0 0
1451 484 2 0.423800 16.265942 23.564810 18.387074 0 0 0
1452 484 2 0.423800 14.722476 23.055516 18.545051 0 0 0
1453 485 1 -0.847600 15.344958 23.573701 20.945920 0 0 0
1454 485 2 0.423800 15.048836 23.086087 20.124614 0 0 0
1455 485 2 0.423800 15.495095 22.918711 21.686492 0 0 0
1456 486 1 -0.847600 15.308469 23.542105 23.538908 0 0 0
1457 486 2 0.423800 14.589443 22.961907 23.921494 0 0 0
1458 486 2 0.423800 16.199440 23.116174 23.696244 0 0 0
1459 487 1 -0.847600 18.076441 1.345615 1.421160 0 0 0
1460 487 2 0.423800 17.702615 1.139007 2.325353 0 0 0
1461 487 2 0.423800 17.328058 1.546228 0.788960 0 0 0
1462 488 1 -0.847600 18.024410 1.329865 4.181820 0 0 0
1463 488 2 0.423800 17.682803 1.801669 3.368982 0 0 0
1464 488 2 0.423800 18.116942 0.353542 3.986295 0 0 0
1465 489 1 -0.847600 18.059829 1.434311 6.912927 0 0 0
1466 489 2 0.423800 18.421232 2.237961 7.385721 0 0 0
1467 489 2 0.423800 18.247664 0.615742 7.455756 0 0 0
1468 490 1 -0.847600 18.167689 1.307139 9.778961 0 0 0
1469 490 2 0.423800 19.009159 0.845729 9.497842 0 0 0
1470 490 2 0.423800 17.535653 1.348350 9.005118 0 0 0
1471 491 1 -0.847600 17.972266 1.498302 12.510201 0 0 0
1472 491 2 0.423800 17.283320 1.595719 11.791964 0 0 0
1473 491 2 0.423800 18.243445 2.403672 12.836952 0 0 0
1474 492 1 -0.847600 18.111020 1.448277 15.200176 0 0 0
1475 492 2 0.423800 18.464050 1.093134 14.334587 0 0 0
1476 492 2 0.423800 17.826990 0.686222 15.782069 0 0 0
1477 493 1 -0.847600 18.001924 1.296094 18.031765 0 0 0
1478 493 2 0.423800 18.404319 1.325042 17.116757 0 0 0
1479 493 2 0.423800 18.520177 1.894384 18.642880 0 0 0
1480 494 1 -0.847600 18.111760 1.403092 20.795010 0 0 0
1481 494 2 0.423800 18.080634 0.958126 21.690016 0 0 0
1482 494 2 0.423800 17.570391 2.243457 20.821568 0 0 0
1483 495 1 -0.847600 18.141504 1.377041 23.641416 0 0 0
1484 495 2 0.423800 18.693648 1.624733 22.845309 0 0 0
1485 495 2 0.423800 18.677970 0.792775 24.250381 0 0 0
1486 496 1 -0.847600 18.005104 4.094229 1.389789 0 0 0
1487 496 2 0.423800 17.815557 3.887814 2.349719 0 0 0
1488 496 2 0.423800 18.858397 4.611267 1.322233 0 0 0
1489 497 1 -0.847600 18.167689 4.221495 4.276533 0 0 0
1490 497 2 0.423800 18.115507 3.517601 3.568147 0 0 0
1491 497 2 0.423800 17.270473 4.648589 4.388763 0 0 0
1492 498 1 -0.847600 18.093965 4.189566 6.988292 0 0 0
1493 498 2 0.423800 18.206894 5.166644 7.168754 0 0 0
1494 498 2 0.423800 18.653802 3.929004 6.201724 0 0 0
1495 499 1 -0.847600 18.101746 4.276533 9.697629 0 0 0
1496 499 2 0.423800 17.539286 4.737860 9.011468 0 0 0
1497 499 2 0.423800 18.967639 4.765655 9.802456 0 0 0
1498 500 1 -0.847600 18.090152 4.170100 12.532568 0 0 0
1499 500 2 0.423800 18.848582 3.589521 12.828728 0 0 0
1500 500 2 0.423800 18.132660 4.294019 11.541187 0 0 0
1501 501 1 -0.847600 18.080589 4.200110 15.219234 0 0 0
1502 501 2 0.423800 17.695034 3.743083 14.417689 0 0 0
1503 501 2 0.423800 17.345956 4.633140 15.741536 0 0 0
1504 502 1 -0.847600 18.033239 4.109896 18.071170 0 0 0
1505 502 2 0.423800 17.130517 3.679716 18.065077 0 0 0
1506 502 2 0.423800 17.928702 5.104302 18.056041 0 0 0
1507 503 1 -0.847600 18.079461 4.199897 20.787233 0 0 0
1508 503 2 0.423800 17.255424 4.653397 21.126792 0 0 0
1509 503 2 0.423800 17.929625 3.211507 20.762058 0 0 0
1510 504 1 -0.847600 18.009434 4.154721 23.562074 0 0 0
1511 504 2 0.423800 17.062474 4.391960 23.778830 0 0 0
1512 504 2 0.423800 18.609517 4.475504 24.294876 0 0 0
1513 505 1 -0.847600 18.129619 6.882602 1.478170 0 0 0
1514 505 2 0.423800 18.185938 7.510540 0.701947 0 0 0
1515 505 2 0.423800 18.969467 6.342408 1.531511 0 0 0
1516 506 1 -0.847600 18.039397 6.969062 4.129860 0 0 0
1517 506 2 0.423800 17.714967 7.907388 4.010321 0 0 0
1518 506 2 0.423800 18.825074 6.809352 3.532195 0 0 0
1519 507 1 -0.847600 18.073888 6.930219 6.907912 0 0 0
1520 507 2 0.423800 18.986478 6.765438 6.533711 0 0 0
1521 507 2 0.423800 17.947875 7.910578 7.059622 0 0 0
1522 508 1 -0.847600 18.115617 6.911623 9.748268 0 0 0
1523 508 2 0.423800 17.630122 7.576348 9.180434 0 0 0
1524 508 2 0.423800 18.904471 7.352295 10.176657 0 0 0
1525 509 1 -0.847600 18.011770 6.933901 12.549675 0 0 0
1526 509 2 0.423800 18.787122 7.486330 12.243650 0 0 0
1527 509 2 0.423800 17.280108 7.535266 12.870658 0 0 0
1528 510 1 -0.847600 17.949317 6.937698 15.319690 0 0 0
1529 510 2 0.423800 18.073822 5.945517 15.311097 0 0 0
1530 510 2 0.423800 18.350445 7.331139 14.492465 0 0 0
1531 511 1 -0.847600 18.026959 7.040194 18.075426 0 0 0
1532 511 2 0.423800 17.679179 6.149282 17.783321 0 0 0
1533 511 2 0.423800 17.783648 7.195377 19.032880 0 0 0
1534 512 1 -0.847600 18.167689 6.999497 20.881210 0 0 0
1535 512 2 0.423800 17.317014 7.296922 21.314674 0 0 0
1536 512 2 0.423800 17.978421 6.234295 20.265870 0 0 0
1537 513 1 -0.847600 18.017201 6.982154 23.505779 0 0 0
1538 513 2 0.423800 18.891113 6.748693 23.932129 0 0 0
1539 513 2 0.423800 18.180187 7.561456 22.707128 0 0 0
1540 514 1 -0.847600 18.125880 9.777828 1.309661 0 0 0
1541 514 2 0.423800 18.291063 10.554714 1.917249 0 0 0
1542 514 2 0.423800 17.157665 9.748958 1.061215 0 0 0
1543 515 1 -0.847600 17.994841 9.747541 4.242918 0 0 0
1544 515 2 0.423800 18.120419 10.462432 3.555051 0 0 0
1545 515 2 0.423800 17.020962 9.539154 4.333111 0 0 0
1546 516 1 -0.847600 18.098217 9.749012 6.836392 0 0 0
1547 516 2 0.423800 18.274131 9.274470 5.973917 0 0 0
1548 516 2 0.423800 17.902443 10.712340 6.652890 0 0 0
1549 517 1 -0.847600 18.014799 9.710618 9.766402 0 0 0
1550 517 2 0.423800 18.483348 9.605104 10.643516 0 0 0
1551 517 2 0.423800 18.020625 10.674240 9.499199 0 0 0
1552 518 1 -0.847600 18.071174 9.722879 12.517861 0 0 0
1553 518 2 0.423800 18.694613 8.941561 12.488453 0 0 0
1554 518 2 0.423800 17.486361 9.652426 13.325963 0 0 0
1555 519 1 -0.847600 18.103912 9.639174 15.252290 0 0 0
1556 519 2 0.423800 18.281266 9.788275 14.279503 0 0 0
1557 519 2 0.423800 18.796429 10.115389 15.794175 0 0 0
1558 520 1 -0.847600 18.012506 9.614623 18.133185 0 0 0
1559 520 2 0.423800 18.106661 9.680635 19.126552 0 0 0
1560 520 2 0.423800 18.919720 9.579088 17.714019 0 0 0
1561 521 1 -0.847600 18.070110 9.750026 20.862686 0 0 0
1562 521 2 0.423800 17.628896 10.170196 21.655648 0 0 0
1563 521 2 0.423800 17.671132 8.847910 20.698359 0 0 0

Bonds

1 1 1 2
2 1 1 3
3 1 4 5
4 1 4 6
5 1 7 8
6 1 7 9
7 1 10 11
8 1 10 12
9 1 13 14
10 1 13 15
11 1 16 17
12 1 16 18
13 1 19 20
14 1 19 21
15 1 22 23
16 1 22 24
17 1 25 26
18 1 25 27
19 1 28 29
20 1 28 30
21 1 31 32
22 1 31 33
23 1 34 35
24 1 34 36
25 1 37 38
26 1 37 39
27 1 40 41
28 1 40 42
29 1 43 44
30 1 43 45
31 1 46 47
32 1 46 48
33 1 49 50
34 1 49 51
35 1 52 53
36 1 52 54
37 1 55 56
38 1 55 57
39 1 58 59
40 1 58 60
41 1 61 62
42 1 61 63
43 1 64 65
44 1 64 66
45 1 67 68
46 1 67 69
47 1 70 71
48 1 70 72
49 1 73 74
50 1 73 75
51 1 76 77
52 1 76 78
53 1 79 80
54 1 79 81
55 1 82 83
56 1 82 84
57 1 85 86
58 1 85 87
59 1 88 89
60 1 88 90
61 1 91 92
62 1 91 93
63 1 94 95
64 1 94 96
65 1 97 98
66 1 97 99
67 1 100 101
68 1 100 102
69 1 103 104
70 1 103 105
71 1 106 107
72 1 106 108
73 1 109 110
74 1 109 111
75 1 112 113
76 1 112 114
77 1 115 116
78 1 115 117
79 1 118 119
80 1 118 120
81 1 121 122
82 1 121 123
83 1 124 125
84 1 124 126
85 1 127 128
86 1 127 129
87 1 130 131
88 1 130 132
89 1 133 134
90 1 133 135
91 1 136 137
92 1 136 138
93 1 139 140
94 1 139 141
95 1 142 143
96 1 142 144
97 1 145 146
98 1 145 147
99 1 148 149
100 1 148 150
101 1 151 152
102 1 151 153
103 1 154 155
104 1 154 156
105 1 157 158
106 1 157 159
107 1 160 161
108 1 160 162
109 1 163 164
110 1 163 165
111 1 166 167
112 1 166 168
113 1 169 170
114 1 169 171
115 1 172 173
116 1 172 174
117 1 175 176
118 1 175 177
119 1 178 179
120 1 178 180
121 1 181 182
122 1 181 183
123 1 184 185
124 1 184 186
125 1 187 188
126 1 187 189
127 1 190 191
128 1 190 192
129 1 193 194
130 1 193 195
131 1 196 197
132 1 196 198
133 1 199 200
134 1 199 201
135 1 202 203
136 1 202 204
137 1 205 206
138 1 205 207
139 1 208 209
140 1 208 210
141 1 211 212
142 1 211 213
143 1 214 215
144 1 214 216
145 1 217 218
146 1 217 219
147 1 220 221
148 1 220 222
149 1 223 224
150 1 223 225
151 1 226 227
152 1 226 228
153 1 229 230
154 1 229 231
155 1 232 233
156 1 232 234
157 1 235 236
158 1 235 237
159 1 238 239
160 1 238 240
161 1 241 242
162 1 241 243
163 1 244 245
164 1 244 246
165 1 247 248
166 1 247 249
167 1 250 251
168 1 250 252
169 1 253 254
170 1 253 255
171 1 256 257
172 1 256 258
173 1 259 260
174 1 259 261
175 1 262 263
176 1 262 264
177 1 265 266
178 1 265 267
179 1 268 269
180 1 268 270
181 1 271 272
182 1 271 273
183 1 274 275
184 1 274 276
185 1 277 278
186 1 277 279
187 1 280 281
188 1 280 282
189 1 283 284
190 1 283 285
191 1 286 287
192 1 286 288
193 1 289 290
194 1 289 291
195 1 292 293
196 1 292 294
197 1 295 296
198 1 295 297
199 1 298 299
200 1 298 300
201 1 301 302
202 1 301 303
203 1 304 305
204 1 304 306
205 1 307 308
206 1 307 309
207 1 310 311
208 1 310 312
209 1 313 314
210 1 313 315
211 1 316 317
212 1 316 318
213 1 319 320
214 1 319 321
215 1 322 323
216 1 322 324
217 1 325 326
218 1 325 327
219 1 328 329
220 1 328 330
221 1 331 332
222 1 331 333
223 1 334 335
224 1 334 336
225 1 337 338
226 1 337 339
227 1 340 341
228 1 340 342
229 1 343 344
230 1 343 345
231 1 346 347
232 1 346 348
233 1 349 350
234 1 349 351
235 1 352 353
236 1 352 354
237 1 355 356
238 1 355 357
239 1 358 359
240 1 358 360
241 1 361 362
242 1 361 363
243 1 364 365
244 1 364 366
245 1 367 368
246 1 367 369
247 1 370 371
248 1 370 372
249 1 373 374
250 1 373 375
251 1 376 377
252 1 376 378
253 1 379 380
254 1 379 381
255 1 382 383
256 1 382 384
257 1 385 386
258 1 385 387
259 1 388 389
260 1 388 390
261 1 391 392
262 1 391 393
263 1 394 395
264 1 394 396
265 1 397 398
266 1 397 399
267 1 400 401
268 1 400 402
269 1 403 404
270 1 403 405
271 1 406 407
272 1 406 408
273 1 409 410
274 1 409 411
275 1 412 413
276 1 412 414
277 1 415 416
278 1 415 417
279 1 418 419
280 1 418 420
281 1 421 422
282 1 421 423
283 1 424 425
284 1 424 426
285 1 427 428
286 1 427 429
287 1 430 431
288 1 430 432
289 1 433 434
290 1 433 435
291 1 436 437
292 1 436 438
293 1 439 440
294 1 439 441
295 1 442 443
296 1 442 444
297 1 445 446
298 1 445 447
299 1 448 449
300 1 448 450
301 1 451 452
302 1 451 453
303 1 454 455
304 1 454 456
305 1 457 458
306 1 457 459
307 1 460 461
308 1 460 462
309 1 463 464
310 1 463 465
311 1 466 467
312 1 466 468
313 1 469 470
314 1 469 471
315 1 472 473
316 1 472 474
317 1 475 476
318 1 475 477
319 1 478 479
320 1 478 480
321 1 481 482
322 1 481 483
323 1 484 485
324 1 484 486
325 1 487 488
326 1 487 489
327 1 490 491
328 1 490 492
329 1 493 494
330 1 493 495
331 1 496 497
332 1 496 498
333 1 499 500
334 1 499 501
335 1 502 503
336 1 502 504
337 1 505 506
338 1 505 507
339 1 508 509
340 1 508 510
341 1 511 512
342 1 511 513
343 1 514 515
344 1 514 516
345 1 517 518
346 1 517 519
347 1 520 521
348 1 520 522
349 1 523 524
350 1 523 525
351 1 526 527
352 1 526 528
353 1 529 530
354 1 529 531
355 1 532 533
356 1 532 534
357 1 535 536
358 1 535 537
359 1 538 539
360 1 538 540
361 1 541 542
362 1 541 543
363 1 544 545
364 1 544 546
365 1 547 548
366 1 547 549
367 1 550 551
368 1 550 552
369 1 553 554
370 1 553 555
371 1 556 557
372 1 556 558
373 1 559 560
374 1 559 561
375 1 562 563
376 1 562 564
377 1 565 566
378 1 565 567
379 1 568 569
380 1 568 570
381 1 571 572
382 1 571 573
383 1 574 575
384 1 574 576
385 1 577 578
386 1 577 579
387 1 580 581
388 1 580 582
389 1 583 584
390 1 583 585
391 1 586 587
392 1 586 588
393 1 589 590
394 1 589 591
395 1 592 593
396 1 592 594
397 1 595 596
398 1 595 597
399 1 598 599
400 1 598 600
401 1 601 602
402 1 601 603
403 1 604 605
404 1 604 606
405 1 607 608
406 1 607 609
407 1 610 611
408 1 610 612
409 1 613 614
410 1 613 615
411 1 616 617
412 1 616 618
413 1 619 620
414 1 619 621
415 1 622 623
416 1 622 624
417 1 625 626
418 1 625 627
419 1 628 629
420 1 628 630
421 1 631 632
422 1 631 633
423 1 634 635
424 1 634 636
425 1 637 638
426 1 637 639
427 1 640 641
428 1 640 642
429 1 643 644
430 1 643 645
431 1 646 647
432 1 646 648
433 1 649 650
434 1 649 651
435 1 652 653
436 1 652 654
437 1 655 656
438 1 655 657
439 1 658 659
440 1 658 660
441 1 661 662
442 1 661 663
443 1 664 665
444 1 664 666
445 1 667 668
446 1 667 669
447 1 670 671
448 1 670 672
449 1 673 674
450 1 673 675
451 1 676 677
452 1 676 678
453 1 679 680
454 1 679 681
455 1 682 683
456 1 682 684
457 1 685 686
458 1 685 687
459 1 688 689
460 1 688 690
461 1 691 692
462 1 691 693
463 1 694 695
464 1 694 696
465 1 697 698
466 1 697 699
467 1 700 701
468 1 700 702
469 1 703 704
470 1 703 705
471 1 706 707
472 1 706 708
473 1 709 710
474 1 709 711
475 1 712 713
476 1 712 714
477 1 715 716
478 1 715 717
479 1 718 719
480 1 718 720
481 1 721 722
482 1 721 723
483 1 724 725
484 1 724 726
485 1 727 728
486 1 727 729
487 1 730 731
488 1 730 732
489 1 733 734
490 1 733 735
491 1 736 737
492 1 736 738
493 1 739 740
494 1 739 741
495 1 742 743
496 1 742 744
497 1 745 746
498 1 745 747
499 1 748 749
500 1 748 750
501 1 751 752
502 1 751 753
503 1 754 755
504 1 754 756
505 1 757 758
506 1 757 759
507 1 760 761
508 1 760 762
509 1 763 764
510 1 763 765
511 1 766 767
512 1 766 768
513 1 769 770
514 1 769 771
515 1 772 773
516 1 772 774
517 1 775 776
518 1 775 777
519 1 778 779
520 1 778 780
521 1 781 782
522 1 781 783
523 1 784 785
524 1 784 786
525 1 787 788
526 1 787 789
527 1 790 791
528 1 790 792
529 1 793 794
530 1 793 795
531 1 796 797
532 1 796 798
533 1 799 800
534 1 799 801
535 1 802 803
536 1 802 804
537 1 805 806
538 1 805 807
539 1 808 809
540 1 808 810
541 1 811 812
542 1 811 813
543 1 814 815
544 1 814 816
545 1 817 818
546 1 817 819
547 1 820 821
548 1 820 822
549 1 823 824
550 1 823 825
551 1 826 827
552 1 826 828
553 1 829 830
554 1 829 831
555 1 832 833
556 1 832 834
557 1 835 836
558 1 835 837
559 1 838 839
560 1 838 840
561 1 841 842
562 1 841 843
563 1 844 845
564 1 844 846
565 1 847 848
566 1 847 849
567 1 850 851
568 1 850 852
569 1 853 854
570 1 853 855
571 1 856 857
572 1 856 858
573 1 859 860
574 1 859 861
575 1 862 863
576 1 862 864
577 1 865 866
578 1 865 867
579 1 868 869
580 1 868 870
581 1 871 872
582 1 871 873
583 1 874 875
584 1 874 876
585 1 877 878
586 1 877 879
587 1 880 881
588 1 880 882
589 1 883 884
590 1 883 885
591 1 886 887
592 1 886 888
593 1 889 890
594 1 889 891
595 1 892 893
596 1 892 894
597 1 895 896
598 1 895 897
599 1 898 899
600 1 898 900
601 1 901 902
602 1 901 903
603 1 904 905
604 1 904 906
605 1 907 908
606 1 907 909
607 1 910 911
608 1 910 912
609 1 913 914
610 1 913 915
611 1 916 917
612 1 916 918
613 1 919 920
614 1 919 921
615 1 922 923
616 1 922 924
617 1 925 926
618 1 925 927
619 1 928 929
620 1 928 930
621 1 931 932
622 1 931 933
623 1 934 935
624 1 934 936
625 1 937 938
626 1 937 939
627 1 940 941
628 1 940 942
629 1 943 944
630 1 943 945
631 1 946 947
632 1 946 948
633 1 949 950
634 1 949 951
635 1 952 953
636 1 952 954
637 1 955 956
638 1 955 957
639 1 958 959
640 1 958 960
641 1 961 962
642 1 961 963
643 1 964 965
644 1 964 966
645 1 967 968
646 1 967 969
647 1 970 971
648 1 970 972
649 1 973 974
650 1 973 975
651 1 976 977
652 1 976 978
653 1 979 980
654 1 979 981
655 1 982 983
656 1 982 984
657 1 985 986
658 1 985 987
659 1 988 989
660 1 988 990
661 1 991 992
662 1 991 993
663 1 994 995
664 1 994 996
665 1 997 998
666 1 997 999
667 1 1000 1001
668 1 1000 1002
669 1 1003 1004
670 1 1003 1005
671 1 1006 1007
672 1 1006 1008
673 1 1009 1010
674 1 1009 1011
675 1 1012 1013
676 1 1012 1014
677 1 1015 1016
678 1 1015 1017
679 1 1018 1019
680 1 1018 1020
681 1 1021 1022
682 1 1021 1023
683 1 1024 1025
684 1 1024 1026
685 1 1027 1028
686 1 1027 1029
687 1 1030 1031
688 1 1030 1032
689 1 1033 1034
690 1 1033 1035
691 1 1036 1037
692 1 1036 1038
693 1 1039 1040
694 1 1039 1041
695 1 1042 1043
696 1 1042 1044
697 1 1045 1046
698 1 1045 1047
699 1 1048 1049
700 1 1048 1050
701 1 1051 1052
702 1 1051 1053
703 1 1054 1055
704 1 1054 1056
705 1 1057 1058
706 1 1057 1059
707 1 1060 1061
708 1 1060 1062
709 1 1063 1064
710 1 1063 1065
711 1 1066 1067
712 1 1066 1068
713 1 1069 1070
714 1 1069 1071
715 1 1072 1073
716 1 1072 1074
717 1 1075 1076
718 1 1075 1077
719 1 1078 1079
720 1 1078 1080
721 1 1081 1082
722 1 1081 1083
723 1 1084 1085
724 1 1084 1086
725 1 1087 1088
726 1 1087 1089
727 1 1090 1091
728 1 1090 1092
729 1 1093 1094
730 1 1093 1095
731 1 1096 1097
732 1 1096 1098
733 1 1099 1100
734 1 1099 1101
735 1 1102 1103
736 1 1102 1104
737 1 1105 1106
738 1 1105 1107
739 1 1108 1109
740 1 1108 1110
741 1 1111 1112
742 1 1111 1113
743 1 1114 1115
744 1 1114 1116
745 1 1117 1118
746 1 1117 1119
747 1 1120 1121
748 1 1120 1122
749 1 1123 1124
750 1 1123 1125
751 1 1126 1127
752 1 1126 1128
753 1 1129 1130
754 1 1129 1131
755 1 1132 1133
756 1 1132 1134
757 1 1135 1136
758 1 1135 1137
759 1 1138 1139
760 1 1138 1140
761 1 1141 1142
762 1 1141 1143
763 1 1144 1145
764 1 1144 1146
765 1 1147 1148
766 1 1147 1149
767 1 1150 1151
768 1 1150 1152
769 1 1153 1154
770 1 1153 1155
771 1 1156 1157
772 1 1156 1158
773 1 1159 1160
774 1 1159 1161
775 1 1162 1163
776 1 1162 1164
777 1 1165 1166
778 1 1165 1167
779 1 1168 1169
780 1 1168 1170
781 1 1171 1172
782 1 1171 1173
783 1 1174 1175
784 1 1174 1176
785 1 1177 1178
786 1 1177 1179
787 1 1180 1181
788 1 1180 1182
789 1 1183 1184
790 1 1183 1185
791 1 1186 1187
792 1 1186 1188
793 1 1189 1190
794 1 1189 1191
795 1 1192 1193
796 1 1192 1194
797 1 1195 1196
798 1 1195 1197
799 1 1198 1199
800 1 1198 1200
801 1 1201 1202
802 1 1201 1203
803 1 1204 1205
804 1 1204 1206
805 1 1207 1208
806 1 1207 1209
807 1 1210 1211
808 1 1210 1212
809 1 1213 1214
810 1 1213 1215
811 1 1216 1217
812 1 1216 1218
813 1 1219 1220
814 1 1219 1221
815 1 1222 1223
816 1 1222 1224
817 1 1225 1226
818 1 1225 1227
819 1 1228 1229
820 1 1228 1230
821 1 1231 1232
822 1 1231 1233
823 1 1234 1235
824 1 1234 1236
825 1 1237 1238
826 1 1237 1239
827 1 1240 1241
828 1 1240 1242
829 1 1243 1244
830 1 1243 1245
831 1 1246 1247
832 1 1246 1248
833 1 1249 1250
834 1 1249 1251
835 1 1252 1253
836 1 1252 1254
837 1 1255 1256
838 1 1255 1257
839 1 1258 1259
840 1 1258 1260
841 1 1261 1262
842 1 1261 1263
843 1 1264 1265
844 1 1264 1266
845 1 1267 1268
846 1 1267 1269
847 1 1270 1271
848 1 1270 1272
849 1 1273 1274
850 1 1273 1275
851 1 1276 1277
852 1 1276 1278
853 1 1279 1280
854 1 1279 1281
855 1 1282 1283
856 1 1282 1284
857 1 1285 1286
858 1 1285 1287
859 1 1288 1289
860 1 1288 1290
861 1 1291 1292
862 1 1291 1293
863 1 1294 1295
864 1 1294 1296
865 1 1297 1298
866 1 1297 1299
867 1 1300 1301
868 1 1300 1302
869 1 1303 1304
870 1 1303 1305
871 1 1306 1307
872 1 1306 1308
873 1 1309 1310
874 1 1309 1311
875 1 1312 1313
876 1 1312 1314
877 1 1315 1316
878 1 1315 1317
879 1 1318 1319
880 1 1318 1320
881 1 1321 1322
882 1 1321 1323
883 1 1324 1325
884 1 1324 1326
885 1 1327 1328
886 1 1327 1329
887 1 1330 1331
888 1 1330 1332
889 1 1333 1334
890 1 1333 1335
891 1 1336 1337
892 1 1336 1338
893 1 1339 1340
894 1 1339 1341
895 1 1342 1343
896 1 1342 1344
897 1 1345 1346
898 1 1345 1347
899 1 1348 1349
900 1 1348 1350
901 1 1351 1352
902 1 1351 1353
903 1 1354 1355
904 1 1354 1356
905 1 1357 1358
906 1 1357 1359
907 1 1360 1361
908 1 1360 1362
909 1 1363 1364
910 1 1363 1365
911 1 1366 1367
912 1 1366 1368
913 1 1369 1370
914 1 1369 1371
915 1 1372 1373
916 1 1372 1374
917 1 1375 1376
918 1 1375 1377
919 1 1378 1379
920 1 1378 1380
921 1 1381 1382
922 1 1381 1383
923 1 1384 1385
924 1 1384 1386
925 1 1387 1388
926 1 1387 1389
927 1 1390 1391
928 1 1390 1392
929 1 1393 1394
930 1 1393 1395
931 1 1396 1397
932 1 1396 1398
933 1 1399 1400
934 1 1399 1401
935 1 1402 1403
936 1 1402 1404
937 1 1405 1406
938 1 1405 1407
939 1 1408 1409
940 1 1408 1410
941 1 1411 1412
942 1 1411 1413
943 1 1414 1415
944 1 1414 1416
945 1 1417 1418
946 1 1417 1419
947 1 1420 1421
948 1 1420 1422
949 1 1423 1424
950 1 1423 1425
951 1 1426 1427
952 1 1426 1428
953 1 1429 1430
954 1 1429 1431
955 1 1432 1433
956 1 1432 1434
957 1 1435 1436
958 1 1435 1437
959 1 1438 1439
960 1 1438 1440
961 1 1441 1442
962 1 1441 1443
963 1 1444 1445
964 1 1444 1446
965 1 1447 1448
966 1 1447 1449
967 1 1450 1451
968 1 1450 1452
969 1 1453 1454
970 1 1453 1455
971 1 1456 1457
972 1 1456 1458
973 1 1459 1460
974 1 1459 1461
975 1 1462 1463
976 1 1462 1464
977 1 1465 1466
978 1 1465 1467
979 1 1468 1469
980 1 1468 1470
981 1 1471 1472
982 1 1471 1473
983 1 1474 1475
984 1 1474 1476
985 1 1477 1478
986 1 1477 1479
987 1 1480 1481
988 1 1480 1482
989 1 1483 1484
990 1 1483 1485
991 1 1486 1487
992 1 1486 1488
993 1 1489 1490
994 1 1489 1491
995 1 1492 1493
996 1 1492 1494
997 1 1495 1496
998 1 1495 1497
999 1 1498 1499
1000 1 1498 1500
1001 1 1501 1502
1002 1 1501 1503
1003 1 1504 1505
1004 1 1504 1506
1005 1 1507 1508
1006 1 1507 1509
1007 1 1510 1511
1008 1 1510 1512
1009 1 1513 1514
1010 1 1513 1515
1011 1 1516 1517
1012 1 1516 1518
1013 1 1519 1520
1014 1 1519 1521
1015 1 1522 1523
1016 1 1522 1524
1017 1 1525 1526
1018 1 1525 1527
1019 1 1528 1529
1020 1 1528 1530
1021 1 1531 1532
1022 1 1531 1533
1023 1 1534 1535
1024 1 1534 1536
1025 1 1537 1538
1026 1 1537 1539
1027 1 1540 1541
1028 1 1540 1542
1029 1 1543 1544
1030 1 1543 1545
1031 1 1546 1547
1032 1 1546 1548
1033 1 1549 1550
1034 1 1549 1551
1035 1 1552 1553
1036 1 1552 1554
1037 1 1555 1556
1038 1 1555 1557
1039 1 1558 1559
1040 1 1558 1560
1041 1 1561 1562
1042 1 1561 1563

Angles

1 1 2 1 3
2 1 5 4 6
3 1 8 7 9
4 1 11 10 12
5 1 14 13 15
6 1 17 16 18
7 1 20 19 21
8 1 23 22 24
9 1 26 25 27
10 1 29 28 30
11 1 32 31 33
12 1 35 34 36
13 1 38 37 39
14 1 41 40 42
15 1 44 43 45
16 1 47 46 48
17 1 50 49 51
18 1 53 52 54
19 1 56 55 57
20 1 59 58 60
21 1 62 61 63
22 1 65 64 66
23 1 68 67 69
24 1 71 70 72
25 1 74 73 75
26 1 77 76 78
27 1 80 79 81
28 1 83 82 84
29 1 86 85 87
30 1 89 88 90
31 1 92 91 93
32 1 95 94 96
33 1 98 97 99
34 1 101 100 102
35 1 104 103 105
36 1 107 106 108
37 1 110 109 111
38 1 113 112 114
39 1 116 115 117
40 1 119 118 120
41 1 122 121 123
42 1 125 124 126
43 1 128 127 129
44 1 131 130 132
45 1 134 133 135
46 1 137 136 138
47 1 140 139 141
48 1 143 142 144
49 1 146 145 147
50 1 149 148 150
51 1 152 151 153
52 1 155 154 156
53 1 158 157 159
54 1 161 160 162
55 1 164 163 165
56 1 167 166 168
57 1 170 169 171
58 1 173 172 174
59 1 176 175 177
60 1 179 178 180
61 1 182 181 183
62 1 185 184 186
63 1 188 187 189
64 1 191 190 192
65 1 194 193 195
66 1 197 196 198
67 1 200 199 201
68 1 203 202 204
69 1 206 205 207
70 1 209 208 210
71 1 212 211 213
72 1 215 214 216
73 1 218 217 219
74 1 221 220 222
75 1 224 223 225
76 1 227 226 228
77 1 230 229 231
78 1 233 232 234
79 1 236 235 237
80 1 239 238 240
81 1 242 241 243
82 1 245 244 246
83 1 248 247 249
84 1 251 250 252
85 1 254 253 255
86 1 257 256 258
87 1 260 259 261
88 1 263 262 264
89 1 266 265 267
90 1 269 268 270
91 1 272 271 273
92 1 275 274 276
93 1 278 277 279
94 1 281 280 282
95 1 284 283 285
96 1 287 286 288
97 1 290 289 291
98 1 293 292 294
99 1 296 295 297
100 1 299 298 300
101 1 302 301 303
102 1 305 304 306
103 1 308 307 309
104 1 311 310 312
105 1 314 313 315
106 1 317 316 318
107 1 320 319 321
108 1 323 322 324
109 1 326 325 327
110 1 329 328 330
111 1 332 331 333
112 1 335 334 336
113 1 338 337 339
114 1 341 340 342
115 1 344 343 345
116 1 347 346 348
117 1 350 349 351
118 1 353 352 354
119 1 356 355 357
120 1 359 358 360
121 1 362 361 363
122 1 365 364 366
123 1 368 367 369
124 1 371 370 372
125 1 374 373 375
126 1 377 376 378
127 1 380 379 381
128 1 383 382 384
129 1 386 385 387
130 1 389 388 390
131 1 392 391 393
132 1 395 394 396
133 1 398 397 399
134 1 401 400 402
135 1 404 403 405
136 1 407 406 408
137 1 410 409 411
138 1 413 412 414
139 1 416 415 417
140 1 419 418 420
141 1 422 421 423
142 1 425 424 426
143 1 428 427 429
144 1 431 430 432
145 1 434 433 435
146 1 437 436 438
147 1 440 439 441
148 1 443 442 444
149 1 446 445 447
150 1 449 448 450
151 1 452 451 453
152 1 455 454 456
153 1 458 457 459
154 1 461 460 462
155 1 464 463 465
156 1 467 466 468
157 1 470 469 471
158 1 473 472 474
159 1 476 475 477
160 1 479 478 480
161 1 482 481 483
162 1 485 484 486
163 1 488 487 489
164 1 491 490 492
165 1 494 493 495
166 1 497 496 498
167 1 500 499 501
168 1 503 502 504
169 1 506 505 507
170 1 509 508 510
171 1 512 511 513
172 1 515 514 516
173 1 518 517 519
174 1 521 520 522
175 1 524 523 525
176 1 527 526 528
177 1 530 529 531
178 1 533 532 534
179 1 536 535 537
180 1 539 538 540
181 1 542 541 543
182 1 545 544 546
183 1 548 547 549
184 1 551 550 552
185 1 554 553 555
186 1 557 556 558
187 1 560 559 561
188 1 563 562 564
189 1 566 565 567
190 1 569 568 570
191 1 572 571 573
192 1 575 574 576
193 1 578 577 579
194 1 581 580 582
195 1 584 583 585
196 1 587 586 588
197 1 590 589 591
198 1 593 592 594
199 1 596 595 597
200 1 599 598 600
201 1 602 601 603
202 1 605 604 606
203 1 608 607 609
204 1 611 610 612
205 1 614 613 615
206 1 617 616 618
207 1 620 619 621
208 1 623 622 624
209 1 626 625 627
210 1 629 628 630
211 1 632 631 633
212 1 635 634 636
213 1 638 637 639
214 1 641 640 642
215 1 644 643 645
216 1 647 646 648
217 1 650 649 651
218 1 653 652 654
219 1 656 655 657
220 1 659 658 660
221 1 662 661 663
222 1 665 664 666
223 1 668 667 669
224 1 671 670 672
225 1 674 673 675
226 1 677 676 678
227 1 680 679 681
228 1 683 682 684
229 1 686 685 687
230 1 689 688 690
231 1 692 691 693
232 1 695 694 696
233 1 698 697 699
234 1 701 700 702
235 1 704 703 705
236 1 707 706 708
237 1 710 709 711
238 1 713 712 714
239 1 716 715 717
240 1 719 718 720
241 1 722 721 723
242 1 725 724 726
243 1 728 727 729
244 1 731 730 732
245 1 734 733 735
246 1 737 736 738
247 1 740 739 741
248 1 743 742 744
249 1 746 745 747
250 1 749 748 750
251 1 752 751 753
252 1 755 754 756
253 1 758 757 759
254 1 761 760 762
255 1 764 763 765
256 1 767 766 768
257 1 770 769 771
258 1 773 772 774
259 1 776 775 777
260 1 779 778 780
261 1 782 781 783
262 1 785 784 786
263 1 788 787 789
264 1 791 790 792
265 1 794 793 795
266 1 797 796 798
267 1 800 799 801
268 1 803 802 804
269 1 806 805 807
270 1 809 808 810
271 1 812 811 813
272 1 815 814 816
273 1 818 817 819
274 1 821 820 822
275 1 824 823 825
276 1 827 826 828
277 1 830 829 831
278 1 833 832 834
279 1 836 835 837
280 1 839 838 840
281 1 842 841 843
282 1 845 844 846
283 1 848 847 849
284 1 851 850 852
285 1 854 853 855
286 1 857 856 858
287 1 860 859 861
288 1 863 862 864
289 1 866 865 867
290 1 869 868 870
291 1 872 871 873
292 1 875 874 876
293 1 878 877 879
294 1 881 880 882
295 1 884 883 885
296 1 887 886 888
297 1 890 889 891
298 1 893 892 894
299 1 896 895 897
300 1 899 898 900
301 1 902 901 903
302 1 905 904 906
303 1 908 907 909
304 1 911 910 912
305 1 914 913 915
306 1 917 916 918
307 1 920 919 921
308 1 923 922 924
309 1 926 925 927
310 1 929 928 930
311 1 932 931 933
312 1 935 934 936
313 1 938 937 939
314 1 941 940 942
315 1 944 943 945
316 1 947 946 948
317 1 950 949 951
318 1 953 952 954
319 1 956 955 957
320 1 959 958 960
321 1 962 961 963
322 1 965 964 966
323 1 968 967 969
324 1 971 970 972
325 1 974 973 975
326 1 977 976 978
327 1 980 979 981
328 1 983 982 984
329 1 986 985 987
330 1 989 988 990
331 1 992 991 993
332 1 995 994 996
333 1 998 997 999
334 1 1001 1000 1002
335 1 1004 1003 1005
336 1 1007 1006 1008
337 1 1010 1009 1011
338 1 1013 1012 1014
339 1 1016 1015 1017
340 1 1019 1018 1020
341 1 1022 1021 1023
342 1 1025 1024 1026
343 1 1028 1027 1029
344 1 1031 1030 1032
345 1 1034 1033 1035
346 1 1037 1036 1038
347 1 1040 1039 1041
348 1 1043 1042 1044
349 1 1046 1045 1047
350 1 1049 1048 1050
351 1 1052 1051 1053
352 1 1055 1054 1056
353 1 1058 1057 1059
354 1 1061 1060 1062
355 1 1064 1063 1065
356 1 1067 1066 1068
357 1 1070 1069 1071
358 1 1073 1072 1074
359 1 1076 1075 1077
360 1 1079 1078 1080
361 1 1082 1081 1083
362 1 1085 1084 1086
363 1 1088 1087 1089
364 1 1091 1090 1092
365 1 1094 1093 1095
366 1 1097 1096 1098
367 1 1100 1099 1101
368 1 1103 1102 1104
369 1 1106 1105 1107
370 1 1109 1108 1110
371 1 1112 1111 1113
372 1 1115 1114 1116
373 1 1118 1117 1119
374 1 1121 1120 1122
375 1 1124 1123 1125
376 1 1127 1126 1128
377 1 1130 1129 1131
378 1 1133 1132 1134
379 1 1136 1135 1137
380 1 1139 1138 1140
381 1 1142 1141 1143
382 1 1145 1144 1146
383 1 1148 1147 1149
384 1 1151 1150 1152
385 1 1154 1153 1155
386 1 1157 1156 1158
387 1 1160 1159 1161
388 1 1163 1162 1164
389 1 1166 1165 1167
390 1 1169 1168 1170
391 1 1172 1171 1173
392 1 1175 1174 1176
393 1 1178 1177 1179
394 1 1181 1180 1182
395 1 1184 1183 1185
396 1 1187 1186 1188
397 1 1190 1189 1191
398 1 1193 1192 1194
399 1 1196 1195 1197
400 1 1199 1198 1200
401 1 1202 1201 1203
402 1 1205 1204 1206
403 1 1208 1207 1209
404 1 1211 1210 1212
405 1 1214 1213 1215
406 1 1217 1216 1218
407 1 1220 1219 1221
408 1 1223 1222 1224
409 1 1226 1225 1227
410 1 1229 1228 1230
411 1 1232 1231 1233
412 1 1235 1234 1236
413 1 1238 1237 1239
414 1 1241 1240 1242
415 1 1244 1243 1245
416 1 1247 1246 1248
417 1 1250 1249 1251
418 1 1253 1252 1254
419 1 1256 1255 1257
420 1 1259 1258 1260
421 1 1262 1261 1263
422 1 1265 1264 1266
423 1 1268 1267 1269
424 1 1271 1270 1272
425 1 1274 1273 1275
426 1 1277 1276 1278
427 1 1280 1279 1281
428 1 1283 1282 1284
429 1 1286 1285 1287
430 1 1289 1288 1290
431 1 1292 1291 1293
432 1 1295 1294 1296
433 1 1298 1297 1299
434 1 1301 1300 1302
435 1 1304 1303 1305
436 1 1307 1306 1308
437 1 1310 1309 1311
438 1 1313 1312 1314
439 1 1316 1315 1317
440 1 1319 1318 1320
441 1 1322 1321 1323
442 1 1325 1324 1326
443 1 1328 1327 1329
444 1 1331 1330 1332
445 1 1334 1333 1335
446 1 1337 1336 1338
447 1 1340 1339 1341
448 1 1343 1342 1344
449 1 1346 1345 1347
450 1 1349 1348 1350
451 1 1352 1351 1353
452 1 1355 1354 1356
453 1 1358 1357 1359
454 1 1361 1360 1362
455 1 1364 1363 1365
456 1 1367 1366 1368
457 1 1370 1369 1371
458 1 1373 1372 1374
459 1 1376 1375 1377
460 1 1379 1378 1380
461 1 1382 1381 1383
462 1 1385 1384 1386
463 1 1388 1387 1389
464 1 1391 1390 1392
465 1 1394 1393 1395
466 1 1397 1396 1398
467 1 1400 1399 1401
468 1 1403 1402 1404
469 1 1406 1405 1407
470 1 1409 1408 1410
471 1 1412 1411 1413
472 1 1415 1414 1416
473 1 1418 1417 1419
474 1 1421 1420 1422
475 1 1424 1423 1425
476 1 1427 1426 1428
477 1 1430 1429 1431
478 1 1433 1432 1434
479 1 1436 1435 1437
480 1 1439 1438 1440
481 1 1442 1441 1443
482 1 1445 1444 1446
483 1 1448 1447 1449
484 1 1451 1450 1452
485 1 1454 1453 1455
486 1 1457 1456 1458
487 1 1460 1459 1461
488 1 1463 1462 1464
489 1 1466 1465 1467
490 1 1469 1468 1470
491 1 1472 1471 1473
492 1 1475 1474 1476
493 1 1478 1477 1479
494 1 1481 1480 1482
495 1 1484 1483 1485
496 1 1487 1486 1488
497 1 1490 1489 1491
498 1 1493 1492 1494
499 1 1496 1495 1497
500 1 1499 1498 1500
501 1 1502 1501 1503
502 1 1505 1504 1506
503 1 1508 1507 1509
504 1 1511 1510 1512
505 1 1514 1513 1515
506 1 1517 1516 1518
507 1 1520 1519 1521
508 1 1523 1522 1524
509 1 1526 1525 1527
510 1 1529 1528 1530
511 1 1532 1531 1533
512 1 1535 1534 1536
513 1 1538 1537 1539
514 1 1541 1540 1542
515 1 1544 1543 1545
516 1 1547 1546 1548
517 1 1550 1549 1551
518 1 1553 1552 1554
519 1 1556 1555 1557
520 1 1559 1558 1560
521 1 1562 1561 1563
