LAMMPS data file via write_data, version 22 Jul 2025, timestep = 550500, units = real

1563 atoms
2 atom types
1042 bonds
1 bond types
521 angles
1 angle types

0.000788936304509491 25.00329206369551 xlo xhi
0.000788936304509491 25.00329206369551 ylo yhi
0.000788936304509491 25.00329206369551 zlo zhi

Masses

1 15.9994
2 1.008

Pair Coeffs # lj/cut/coul/long/gpu

1 0.1553 3.166
2 0 0

Bond Coeffs # harmonic

1 553 1

Angle Coeffs # harmonic

1 100 109.47

Atoms # full

1556 519 2 0.4238 2.656326641281959 4.41339586777197 3.900619895059229 0 1 2
1555 519 1 -0.8476 2.3127673086838825 4.112868218736022 3.0108583919711895 0 1 2
1557 519 2 0.4238 2.524656962101142 4.804832857514521 2.320703971984455 0 1 2
1406 469 2 0.4238 1.5713989716167291 1.3619366612479449 4.079860412824273 0 1 0
407 136 2 0.4238 3.0115685852598912 0.8652318010561652 2.1629134911351304 0 2 1
1140 380 2 0.4238 0.46968942387747675 4.250057134467826 3.4374012027563396 -1 0 -1
1460 487 2 0.4238 0.3240020193411055 5.786390150442708 0.9064794767624228 1 0 0
1405 469 1 -0.8476 2.4838297374018032 1.4861461873209698 3.689902121104975 0 1 0
1407 469 2 0.4238 2.609780238601684 2.4449521604335507 3.435239657542063 0 1 0
1180 394 1 -0.8476 4.796697534379068 0.5834441888688443 5.074010055995044 1 -1 1
1182 394 2 0.4238 4.117632958231406 0.972699767095378 4.451613446617483 1 -1 1
244 82 1 -0.8476 5.388248945217121 1.3819925014914272 0.16688993641464 0 0 0
1185 395 2 0.4238 0.9876005345939181 2.0461067025408157 0.10909682706143187 1 3 1
446 149 2 0.4238 3.1528655328861044 5.133179631519148 24.69529750073081 0 0 0
1181 394 2 0.4238 5.713713490470191 0.8440683190401166 4.772044333526926 1 -1 1
1184 395 2 0.4238 24.911399373319195 3.27092231103265 0.05507816837729366 0 3 1
336 112 2 0.4238 24.895806143530557 0.7708682646388121 5.770633133765376 -1 -1 0
1183 395 1 -0.8476 0.018896673462344495 2.2846131096097104 0.17804156133500845 1 3 1
66 22 2 0.4238 0.07005948158486675 0.24770047317675786 1.5431966246357882 0 0 -1
334 112 1 -0.8476 24.95701972482206 1.7154659184164662 5.448119171322694 -1 -1 0
408 136 2 0.4238 4.047742967836669 0.6416639111580462 0.9207161665606103 0 2 1
1256 419 2 0.4238 3.8862752938143816 4.012768678394031 5.833060223325593 1 0 -1
1255 419 1 -0.8476 3.2907644666236036 4.74654891446046 5.506014651691403 1 0 -1
321 107 2 0.4238 7.861728237329668 1.5856687892028152 5.397261267750539 -1 0 0
1504 502 1 -0.8476 7.787862236574331 3.8315205851313414 2.388260863815978 0 0 0
1505 502 2 0.4238 8.295397278748041 4.485400351811575 2.9493989622675962 0 0 0
1506 502 2 0.4238 7.16179477317017 4.3254986072396315 1.7848943181869479 0 0 0
284 95 2 0.4238 7.433432320005712 0.8022448634510589 3.1547011336596493 0 0 -1
285 95 2 0.4238 7.598429123722398 2.3887763005222533 3.504542462519612 0 0 -1
283 95 1 -0.8476 7.261448635864127 1.5092893512109449 3.8406574717888007 0 0 -1
976 326 1 -0.8476 9.607920807417353 2.0802839701406652 1.1771154696581305 -1 -1 -1
978 326 2 0.4238 9.001162190374275 2.749786218840283 1.6056447272286172 -1 -1 -1
357 119 2 0.4238 11.601638043565034 2.99266634816521 6.640409914447721 -1 1 1
977 326 2 0.4238 10.499116042721678 2.100001925995066 1.6303356146095387 -1 -1 -1
1237 413 1 -0.8476 11.783131568102668 4.831334026080724 3.978111686171972 0 0 0
1239 413 2 0.4238 10.909300651376768 5.3093143235694455 3.888782268756021 0 0 0
1238 413 2 0.4238 12.529862517145029 5.456884298732743 3.7520471604880345 0 0 0
245 82 2 0.4238 6.100271494043388 1.004805044688623 0.7591562327649571 0 0 0
319 107 1 -0.8476 8.090263687527184 1.4668937854111375 6.3635381078620386 -1 0 0
320 107 2 0.4238 8.767922694957692 2.1513939371329 6.632357074955095 -1 0 0
1161 387 2 0.4238 12.333652203829686 0.8307149139806932 3.0863947701725136 1 1 0
1003 335 1 -0.8476 12.337737378578476 2.6499394239962504 2.385265186816229 0 0 0
1005 335 2 0.4238 13.042142831656669 2.888977082361597 1.7169094970830485 0 0 0
85 29 1 -0.8476 14.229259584601252 3.8856791275576867 0.6331939702603592 -1 0 0
1004 335 2 0.4238 12.122508727384435 3.451107243364895 2.943684506986678 0 0 0
86 29 2 0.4238 15.150055637296093 4.177409009714433 0.8921413186540754 -1 0 0
784 262 1 -0.8476 16.809275579197315 4.146834604847513 1.1323159488634396 0 0 0
785 262 2 0.4238 17.245216688721587 3.2566388354431672 1.2647258434455682 0 0 0
722 241 2 0.4238 18.134843018869102 1.8284142296749248 3.93720802393479 0 1 1
721 241 1 -0.8476 17.793578799309536 2.743825142751661 3.7236964411159565 0 1 1
1458 486 2 0.4238 17.803624992129006 0.40425205987251306 2.4900705309789455 -1 1 1
519 173 2 0.4238 16.319323479455946 3.122657969001206 4.194704525125788 1 0 -1
1262 421 2 0.4238 13.307100603714108 5.277911064646952 0.4477417023183688 1 0 0
1456 486 1 -0.8476 17.55231372264104 24.934474105750994 3.334948399108366 -1 0 1
1038 346 2 0.4238 12.724382203820655 4.308554748656593 5.3715938272230686 0 0 -1
1037 346 2 0.4238 13.889017071136525 3.172073947653808 5.5084555974115155 0 0 -1
518 173 2 0.4238 15.610267938139968 2.2797223439153314 5.400272401912502 1 0 -1
517 173 1 -0.8476 15.472864152452294 2.99067156562157 4.710564633576246 1 0 -1
1299 433 2 0.4238 17.88062098286697 1.2142097521391084 0.5384948384360946 0 0 0
1261 421 1 -0.8476 12.83575465837782 6.159644217836963 0.46786737059737993 1 0 0
1160 387 2 0.4238 13.484160373381236 24.88056983117797 2.426480712313391 1 0 0
1159 387 1 -0.8476 12.675857134905003 24.89629042439258 3.0150593612837957 1 0 0
956 319 2 0.4238 16.35811568795256 24.995074072067794 4.937105495716984 1 0 1
1036 346 1 -0.8476 13.168613203240351 3.6657188034729113 5.995650045657172 0 0 -1
1263 421 2 0.4238 12.778572637648642 6.528284414997655 24.54254508626074 1 0 -1
77 26 2 0.4238 14.417314419848049 0.620312885007069 0.6666836199447942 0 1 1
723 241 2 0.4238 18.56551086409573 3.3545460348667526 3.5471548122794343 0 1 1
1297 433 1 -0.8476 18.734248275244983 0.9801585622774419 1.0038612330726666 0 0 0
1298 433 2 0.4238 19.418874052381657 1.6852134279815325 0.8189002022702673 0 0 0
1339 447 1 -0.8476 20.625747374924476 2.881045683185528 1.1297686299177507 0 -1 1
1340 447 2 0.4238 20.394166866859116 3.3889869092334655 1.9594622987612798 0 -1 1
606 202 2 0.4238 20.360047249001397 4.035128055431691 24.438695379905155 -1 -1 1
463 155 1 -0.8476 22.87621451876623 1.8706663593130057 2.4542598920698344 -2 1 0
1436 479 2 0.4238 23.76799924626467 5.159441432038693 4.145400126723437 -1 1 0
1152 384 2 0.4238 22.109121842259704 0.06379793321966076 4.690354905615107 -1 1 0
465 155 2 0.4238 23.7431512023538 2.363586135468571 2.528263900662487 -2 1 0
1457 486 2 0.4238 17.98040685070889 24.030880761593178 3.3517037976491473 -1 0 1
941 314 2 0.4238 20.675772518768397 4.891273392360717 3.598743567303002 0 1 1
940 314 1 -0.8476 19.88366609563067 4.442266933439298 3.1852390538044313 0 1 1
1435 479 1 -0.8476 23.189198896384145 5.842095952385603 4.59149419765565 -1 1 0
464 155 2 0.4238 22.539473212985573 1.6492959660758737 3.3694791361521865 -2 1 0
942 314 2 0.4238 19.16504981755436 5.118202942087467 3.0217565297254034 0 1 1
1034 345 2 0.4238 22.004538295483066 7.1817894921889485 0.19433991489685898 0 1 0
1033 345 1 -0.8476 22.0091530952436 7.6070818781847676 1.0993981777066273 0 1 0
1524 508 2 0.4238 21.836404226849996 24.778061640274895 2.170800692568386 -1 -1 0
1522 508 1 -0.8476 21.303370741614497 24.52830969784218 1.3623912808236884 -1 -1 0
1138 380 1 -0.8476 24.639240260414994 3.7686147313956546 3.7102193531614525 -2 0 -1
1139 380 2 0.4238 24.870458874011092 3.04437597878822 4.359867648605208 -2 0 -1
801 267 2 0.4238 2.1920262100705634 8.84247426775959 0.6028246974672655 0 0 1
131 44 2 0.4238 3.0760698489355343 7.014754172811256 1.8557463876312268 0 1 0
799 267 1 -0.8476 1.3076251700609989 8.540424582194026 0.24697780149545343 0 0 1
130 44 1 -0.8476 3.3882232174371447 6.0972504368056795 1.6092255383076541 0 1 0
132 44 2 0.4238 4.34168074189425 6.138606218649863 1.3105052438031581 0 1 0
692 231 2 0.4238 4.487078633851724 9.294955187145314 4.278736449084359 0 -1 1
691 231 1 -0.8476 3.6293196635896936 9.214388444724582 4.786462325534024 0 -1 1
693 231 2 0.4238 3.473487561798996 10.050542690738551 5.312378631765851 0 -1 1
1219 407 1 -0.8476 0.7392929441209195 7.901292927085174 5.127723284087974 0 -1 1
1221 407 2 0.4238 1.6764222068273185 8.094187997710097 5.418594394480911 0 -1 1
703 235 1 -0.8476 4.113433940993288 9.24711358007846 0.9669619290755044 0 1 1
704 235 2 0.4238 4.829424101003481 9.130564125248744 1.6552933397098595 0 1 1
869 290 2 0.4238 3.254214975481349 12.134255430033392 0.3353307142079346 0 0 1
870 290 2 0.4238 4.240579902712438 12.565789197714077 1.5631572955630937 0 0 1
868 290 1 -0.8476 4.189466011516351 12.390097846660966 0.5800262567765724 0 0 1
792 264 2 0.4238 0.44461138895817087 7.342292353527162 2.9445548414255627 1 0 -1
1065 355 2 0.4238 4.592450884335118 12.28010250977019 5.813637643057137 0 0 -1
1258 420 1 -0.8476 5.734643010922069 8.956224309251832 3.2346053761290574 1 -2 1
1260 420 2 0.4238 6.011956179759814 9.770649209007079 2.7248653821527062 1 -2 1
800 267 2 0.4238 1.0366625513309577 7.692798038197767 0.7031948113832053 0 0 1
790 264 1 -0.8476 24.899153520237633 6.721484944935912 2.383874647482719 0 0 -1
1116 372 2 0.4238 1.0509876563389962 12.899500101143651 3.5561441018989512 0 0 0
1259 420 2 0.4238 6.5278064798637265 8.5732844194472 3.708181290807352 1 -2 1
1063 355 1 -0.8476 5.4042162768686826 12.494148505300494 5.270270589515713 0 0 -1
1115 372 2 0.4238 0.8143962171848731 12.871138145077282 1.940621177630099 0 0 0
1257 419 2 0.4238 3.5860502088630857 5.616496041050832 5.901013037235407 1 0 -1
705 235 2 0.4238 4.43175354029839 8.885958200141584 0.09045457159283975 0 1 1
219 73 2 0.4238 5.759827026281172 7.0678796124962995 24.76553376142701 -1 1 -1
7 3 1 -0.8476 9.078074767598663 6.0773731596660525 3.3654789014922657 -1 0 1
217 73 1 -0.8476 6.08554919661783 6.617331505131266 0.5942567575521239 -1 1 0
1330 444 1 -0.8476 8.648942767864298 8.344175441133299 0.8312541802835368 0 0 0
1331 444 2 0.4238 8.700097393120055 9.264891304018523 1.2181535225151567 0 0 0
218 73 2 0.4238 6.925766363203698 7.060777861258418 0.9063718623266259 -1 1 0
1332 444 2 0.4238 9.497262654451937 7.852462073676839 1.0277173998176876 0 0 0
963 321 2 0.4238 8.327080589013578 9.25441646575689 4.560145456429889 0 1 1
961 321 1 -0.8476 7.896697744142709 8.357230985339287 4.65942021862376 0 1 1
592 198 1 -0.8476 6.337461209935669 11.109270571513056 0.8282622999049624 0 0 1
8 3 2 0.4238 8.51796439709065 6.686951547222331 3.9264744136215097 -1 0 1
1402 468 1 -0.8476 9.362045887443593 10.783311863763913 4.830721336099661 1 1 1
9 3 2 0.4238 9.713537751936254 6.620007172892417 2.816151518206461 -1 0 1
208 70 1 -0.8476 10.823771124229447 7.33609467224064 1.877729658591779 0 1 0
209 70 2 0.4238 11.040659213446526 8.310331955529385 1.815708226630109 0 1 0
1376 459 2 0.4238 12.642324688251577 9.241202217281412 4.549496322299443 1 -1 1
213 71 2 0.4238 7.899204852564134 11.16682754522852 1.7740856198182084 0 1 1
212 71 2 0.4238 8.836492858148693 11.235863623197401 3.109533415761683 0 1 1
211 71 1 -0.8476 8.83906691196624 11.137262024912172 2.1143965684597976 0 1 1
210 70 2 0.4238 11.516255785259618 6.808471249433366 1.3856890934035595 0 1 0
1404 468 2 0.4238 10.326663691745255 11.043702009662162 4.872372908694734 1 1 1
1403 468 2 0.4238 8.919490343109953 11.003630590095947 5.699990927506146 1 1 1
68 23 2 0.4238 10.384224988543716 10.541717414307586 2.187517631407182 0 1 0
1348 450 1 -0.8476 12.081051343672677 11.19923531850212 4.989112671200992 0 1 1
593 198 2 0.4238 5.403175855670833 11.44270731533702 0.7019441896272764 0 0 1
962 321 2 0.4238 7.672734512507132 8.199569905787687 5.621194588491416 0 1 1
594 198 2 0.4238 6.831451614455044 11.165057280255727 24.963074968324428 0 0 0
786 262 2 0.4238 17.17191883429674 4.798026076599573 1.7989984853825145 0 0 0
1375 459 1 -0.8476 12.443534982837207 8.267462886254755 4.660581276156617 1 -1 1
67 23 1 -0.8476 11.317493020659532 10.219921473840545 2.027881970604524 0 1 0
162 54 2 0.4238 14.231884433408931 7.20697035163843 2.838156805697495 0 0 0
161 54 2 0.4238 13.181353129663082 6.139750908582582 2.1869112528866363 0 0 0
1377 459 2 0.4238 13.015045597900071 7.737046161620448 4.03443464977202 1 -1 1
160 54 1 -0.8476 13.600944019135655 6.457128340879696 3.037346712922978 0 0 0
797 266 2 0.4238 17.516818186018998 10.118622223004271 0.8941747047441817 0 1 0
1269 423 2 0.4238 14.289476607762039 9.445671337968243 2.478837292711818 0 -1 1
1267 423 1 -0.8476 14.874434793721797 8.635369899013941 2.5143520114073423 0 -1 1
1268 423 2 0.4238 15.700171853211678 8.843101784435895 3.038786504350482 0 -1 1
69 23 2 0.4238 11.964040128654021 10.950903801337924 2.2462098108831827 0 1 0
796 266 1 -0.8476 17.012181491208846 10.954048569952212 1.1119595029981346 0 1 0
247 83 1 -0.8476 17.219927463665204 7.675102476583437 0.49392176168123525 0 -1 0
249 83 2 0.4238 16.419294431305055 8.168708247926691 0.833576668118882 0 -1 0
248 83 2 0.4238 16.921973937532126 6.898783503820629 24.940926983030224 0 -1 -1
675 225 2 0.4238 15.437393797977714 11.517822696897015 1.4509601539733088 0 1 1
673 225 1 -0.8476 14.490896917429527 11.455907507613807 1.767720848797056 0 1 1
1349 450 2 0.4238 12.348141371103312 12.015559248754212 4.476956911838024 0 1 1
1350 450 2 0.4238 12.677107839137086 11.095436741423917 5.785333684050195 0 1 1
424 142 1 -0.8476 17.023477987488352 8.366548636764538 4.74177428215598 0 1 0
426 142 2 0.4238 16.560740193810908 8.29475598037121 5.625372539906665 0 1 0
604 202 1 -0.8476 20.15705790306636 4.80316560327356 23.831291861767266 -1 -1 1
727 243 1 -0.8476 19.460023881822185 9.125130629172405 0.3385210507858592 0 0 1
1169 390 2 0.4238 18.751215776411513 11.346566860216333 3.7967195075303 0 0 -1
1168 390 1 -0.8476 18.698132700408078 10.710446603038164 4.566498757668655 0 0 -1
1170 390 2 0.4238 19.62083853214385 10.501700870303122 4.890635679141648 0 0 -1
728 243 2 0.4238 18.72926741922176 8.444655328392065 0.2839787053480595 0 0 1
894 298 2 0.4238 21.465080595429455 8.045040159267227 3.0932965456312496 -2 0 1
893 298 2 0.4238 22.37949543126422 9.267046133273407 3.6740212360848505 -2 0 1
892 298 1 -0.8476 21.69897483365825 8.573203843674602 3.909606920423321 -2 0 1
521 174 2 0.4238 23.855511911484257 10.351427053492339 1.7644301450513937 -1 0 1
1209 403 2 0.4238 21.624249246146103 10.892932777432163 2.260082195742963 -1 0 0
1208 403 2 0.4238 20.219822449849932 10.499091633816189 1.525801139784683 -1 0 0
520 174 1 -0.8476 23.425777505679715 10.490037326892413 2.6566981150541924 -1 0 1
50 17 2 0.4238 18.466021094453996 11.577452611313204 6.076108323048686 0 0 1
1306 436 1 -0.8476 17.630722076075017 6.376844184556107 2.8518502036553817 0 0 0
1308 436 2 0.4238 17.48186324427434 6.999699032769018 3.6199115795682975 0 0 0
1035 345 2 0.4238 22.926519577269303 7.949751402849443 1.301985684470761 0 1 0
425 142 2 0.4238 17.50791132685859 9.239810313134875 4.689191522813927 0 1 0
1307 436 2 0.4238 17.69326414640142 6.902692995647595 2.003559628139875 0 0 0
1229 410 2 0.4238 21.10383812749798 8.562509651651542 5.840966024701852 -1 0 0
1220 407 2 0.4238 0.1574277103197905 8.687771340456173 5.334873495449665 0 -1 1
683 228 2 0.4238 24.468075619030394 11.161619046277776 5.516289904950367 0 1 -2
682 228 1 -0.8476 24.919097805085165 11.697287000048455 4.8023817466127925 0 1 -2
522 174 2 0.4238 24.089527874002336 10.891968226702591 3.2875018200421198 -1 0 1
791 264 2 0.4238 24.10778164316706 6.408682248096208 2.909146382576263 0 0 -1
1064 355 2 0.4238 5.125060225351365 12.795884474838966 4.3586493936544635 0 0 -1
1114 372 1 -0.8476 1.5036340029665507 12.90355518257649 2.6644487382124353 0 0 0
89 30 2 0.4238 4.581527992141532 16.49116601847566 4.348321977654147 0 -1 0
88 30 1 -0.8476 4.013042591194453 15.76131831143674 4.728021950102661 0 -1 0
1076 359 2 0.4238 1.4999707100017707 16.032221746538706 0.3719993311441305 0 0 1
1075 359 1 -0.8476 0.7945261224304272 15.97362634435498 1.0783571773942537 0 0 1
570 190 2 0.4238 1.2472210540355972 16.33151271395459 3.0535513183554093 0 -1 0
568 190 1 -0.8476 1.4828215594236231 16.374406422104528 4.024467334252897 0 -1 0
569 190 2 0.4238 2.437454750706303 16.10345050697717 4.148094832437453 0 -1 0
1017 339 2 0.4238 4.209308785554583 14.317529720087899 3.513061057917876 0 -1 1
254 85 2 0.4238 1.4030649081329511 18.09924266398896 3.6809040699366418 0 -2 0
1077 359 2 0.4238 0.2107079745896992 15.181233863046023 0.9014488370875477 0 0 1
278 93 2 0.4238 24.07171963162487 12.865824916815159 24.9849955087881 -2 -1 0
1015 339 1 -0.8476 4.191235542229444 13.52802736696928 2.899558993258612 0 -1 1
1016 339 2 0.4238 3.249701024323099 13.207043253555241 2.7970534688540276 0 -1 1
1421 474 2 0.4238 4.935374625162164 15.60887197299366 0.15660275694518488 1 1 1
1515 505 2 0.4238 0.6832083040604833 15.195646739714856 4.844988092344429 1 1 -1
1513 505 1 -0.8476 0.2595420270769673 14.360091983775037 5.1948173785629805 1 1 -1
90 30 2 0.4238 4.375969248640845 15.484890083085729 5.617907927886222 0 -1 0
277 93 1 -0.8476 24.84081684456494 13.40529627825445 0.32525396331607953 -2 -1 1
1422 474 2 0.4238 5.037821722555719 14.400331203166413 1.2500505193588687 1 1 1
1420 474 1 -0.8476 5.551658512043876 14.955042896703697 0.595609971328114 1 1 1
1059 353 2 0.4238 11.171476283646408 14.735647616818513 5.926480459818068 0 0 0
495 165 2 0.4238 9.588231929752347 15.346287873569505 2.5010383964317002 -1 0 1
493 165 1 -0.8476 9.144720338915457 15.03528570768757 3.341633733045032 -1 0 1
494 165 2 0.4238 8.419330583723255 14.385319783127127 3.1149635615542843 -1 0 1
1057 353 1 -0.8476 10.33003541347648 14.234295751171969 5.7248643098141905 0 0 0
1058 353 2 0.4238 10.017869763831788 14.464081910081294 4.803030846786687 0 0 0
188 63 2 0.4238 8.98427743340386 16.679460497015057 3.7918959162511885 0 0 1
242 81 2 0.4238 11.294940670921562 15.39114244361522 0.6940390626546001 -1 -1 0
241 81 1 -0.8476 10.537552170344712 15.874879876530684 1.132657550344633 -1 -1 0
966 322 2 0.4238 12.834610331458121 16.02705222108723 5.098933205373021 1 -1 1
103 35 1 -0.8476 7.45864589801912 18.248421607028202 24.91115228339079 0 -1 -2
243 81 2 0.4238 10.825308817066597 16.804055328428284 1.364723201133645 -1 -1 0
798 266 2 0.4238 17.657439873546775 11.70108364282657 1.2719783665927078 0 1 0
237 79 2 0.4238 17.227408291382787 15.410969920789665 3.4248677462719854 -1 1 0
964 322 1 -0.8476 12.52761803808888 16.043837811129478 4.147355903064374 1 -1 1
774 258 2 0.4238 12.91082912272415 14.13563386204151 3.2695389341705736 -2 0 1
773 258 2 0.4238 14.141472138633228 13.525055631717807 4.152378739500304 -2 0 1
772 258 1 -0.8476 13.45715357663838 13.318400797456249 3.453073913139483 -2 0 1
674 225 2 0.4238 14.28099109854715 12.243722521660374 2.346783426516431 0 1 1
965 322 2 0.4238 11.532467107457206 16.138390042684993 4.119790187428636 1 -1 1
450 150 2 0.4238 15.385998236017599 16.96295542751018 3.917291563423376 -1 0 0
449 150 2 0.4238 15.366653978136243 15.694285041391176 4.9452970983008235 -1 0 0
448 150 1 -0.8476 15.946417373732805 16.26600950404622 4.364753454000411 -1 0 0
1517 506 2 0.4238 13.182937319478018 17.335143159698323 3.2946588571443693 0 0 0
979 327 1 -0.8476 15.00647877823455 14.464008213800268 5.99624906383793 0 -1 0
235 79 1 -0.8476 17.85041465879682 15.453430087548584 2.6437879257096077 -1 1 0
236 79 2 0.4238 17.588969659736673 16.21430775060877 2.0498710716708217 -1 1 0
510 170 2 0.4238 17.036172060655854 18.03831279913403 5.165334198702485 0 -1 1
502 168 1 -0.8476 17.271911102589655 17.703474572830267 1.3731357239201913 0 0 -1
1207 403 1 -0.8476 20.789903831148116 11.256032177634708 1.8452907587451106 -1 0 0
1019 340 2 0.4238 18.95437784012899 15.329057069486783 1.372844429463623 0 0 0
1188 396 2 0.4238 19.602632716581404 12.650687297189512 2.334939832284549 1 -1 0
201 67 2 0.4238 21.475296827708895 14.1203104465849 4.722353161284583 0 0 1
200 67 2 0.4238 21.32059123971542 13.735850885856255 6.301894650838898 0 0 1
199 67 1 -0.8476 20.827435525472175 14.009108385948595 5.475968658645452 0 0 1
264 88 2 0.4238 21.42865255969522 12.99032248447698 1.6621686311541117 -1 -1 0
1476 492 2 0.4238 19.91084481883219 16.377622744392884 4.886500268764411 1 -1 0
262 88 1 -0.8476 21.509107902409614 13.979635299531521 1.540462082320241 -1 -1 0
598 200 1 -0.8476 22.9714948974814 14.68272623458904 3.738516645861863 0 0 0
1018 340 1 -0.8476 19.591073628546333 15.287223474431809 0.6028484242048924 0 0 0
1020 340 2 0.4238 20.377276946681345 14.721163555497853 0.8508120905387655 0 0 0
263 88 2 0.4238 22.009830325074937 14.37083178915072 2.312645840778122 -1 -1 0
1474 492 1 -0.8476 19.991432367048965 16.69497870057347 3.9416103736246306 1 -1 0
1475 492 2 0.4238 19.218215252972623 16.352502883394486 3.407876731869907 1 -1 0
1186 396 1 -0.8476 18.671707756364487 12.76109825149617 2.6830975595646565 1 -1 0
1187 396 2 0.4238 18.47373839152137 13.734007315706066 2.802604504725945 1 -1 0
599 200 2 0.4238 22.772945725054715 15.641103329457849 3.533292365464036 0 0 0
378 126 2 0.4238 21.654594028234783 17.205540752552096 3.7282165914063685 -1 -1 2
873 291 2 0.4238 20.47690109312926 16.86292455323251 0.6524613394781132 0 0 0
376 126 1 -0.8476 22.648035783270092 17.21364655842028 3.842379553274358 -1 -1 2
882 294 2 0.4238 24.313984095253808 17.29842367679707 0.7675377203412341 1 1 1
851 284 2 0.4238 22.845072762904817 17.1740060776746 5.580270157417093 0 0 0
881 294 2 0.4238 22.71359994282313 17.458763107827785 0.4851267125398994 1 1 1
880 294 1 -0.8476 23.62212737331018 17.475835202186765 0.06762001323923565 1 1 1
684 228 2 0.4238 24.86769614937483 12.669165596406389 5.032242408525929 0 1 -2
600 200 2 0.4238 23.775531315678666 14.628293995022764 4.330621357519011 0 0 0
436 146 1 -0.8476 1.281241922624247 20.424087874097566 1.6038723017312826 0 1 0
438 146 2 0.4238 0.38974055096385696 20.8264704796908 1.8120523751232749 0 1 0
653 218 2 0.4238 3.2283725802589407 19.58949898579554 4.559485219883502 1 0 0
533 178 2 0.4238 4.48728918293754 21.436342543554254 2.377835722440629 0 -1 2
437 146 2 0.4238 1.6032679443095155 19.900941264202565 2.3929491651742425 0 1 0
1026 342 2 0.4238 4.794133764318227 21.531483099611393 4.801792025169358 0 0 1
626 209 2 0.4238 2.1475525625364016 20.114062218679624 0.3355184631769465 0 0 1
670 224 1 -0.8476 3.1357940829931548 22.71219012402889 2.357489608342019 0 -1 1
532 178 1 -0.8476 5.329773465362367 20.900526476466375 2.3217312383448574 0 -1 2
671 224 2 0.4238 3.288557943133538 23.58521505827729 1.8943308400944505 0 -1 1
1445 482 2 0.4238 2.478914972323735 22.43166452124292 5.611562428878703 1 -1 0
672 224 2 0.4238 2.314802788321285 22.277593948327336 1.9871859109560404 0 -1 1
1446 482 2 0.4238 2.3143998678770124 22.950517286815305 4.071945241229216 1 -1 0
253 85 1 -0.8476 1.4596778450831154 19.091786791202495 3.788965436730447 0 -2 0
1444 482 1 -0.8476 1.8268459384396627 22.603429496781057 4.873098841062081 1 -1 0
1192 398 1 -0.8476 5.829249316198978 17.82245770154302 4.034286847668853 1 0 0
1193 398 2 0.4238 5.46170223247765 18.622393948603023 4.508667179648154 1 0 0
534 178 2 0.4238 5.320538803332397 20.19022545296427 3.0255869675065243 0 -1 2
734 245 2 0.4238 5.431990760413423 21.722130917665268 0.5265607676294234 0 0 2
1314 438 2 0.4238 24.967777159806015 23.443392438004384 5.485966292303765 0 0 1
255 85 2 0.4238 1.0099088670645755 19.36053115101436 4.64073437488476 0 -2 0
652 218 1 -0.8476 4.0887920379582505 19.990451033358724 4.874035588866029 1 0 0
1024 342 1 -0.8476 5.368245939342587 22.35027559836761 4.802592288166159 0 0 1
1025 342 2 0.4238 4.833499122737532 23.132624822114032 4.4832163401834295 0 0 1
1194 398 2 0.4238 6.815416550748228 17.766346599892696 4.190335847983634 1 0 0
715 239 1 -0.8476 7.705171555024474 21.989015510407597 3.0038137072924385 0 1 1
332 111 2 0.4238 10.913377970300191 22.836349551083643 4.849599847829292 0 0 -2
825 275 2 0.4238 9.821106569580584 19.786802164975136 1.504701424633212 0 0 1
667 223 1 -0.8476 9.187747468644421 22.484301303893485 5.546890073007339 -2 -1 1
668 223 2 0.4238 8.962037612680586 21.511888161585514 5.606008869487378 -2 -1 1
669 223 2 0.4238 8.431285251564017 23.02503458673604 5.914856327641051 -2 -1 1
824 275 2 0.4238 9.214758155606935 18.400458988476874 0.8906261638925769 0 0 1
823 275 1 -0.8476 9.899471178056551 18.78986645522426 1.5067073110561773 0 0 1
189 63 2 0.4238 9.183264420268522 18.078281882353096 2.973118140319403 0 0 1
717 239 2 0.4238 7.909057424417529 22.04409270474787 3.981270926591982 0 1 1
187 63 1 -0.8476 8.90026393273646 17.674617777332692 3.843170661151419 0 0 1
331 111 1 -0.8476 11.512263584573043 22.651064259778583 4.070478074641924 0 0 -2
369 123 2 0.4238 11.857301486913356 19.765266487690983 5.517925309296426 0 -1 0
333 111 2 0.4238 11.96537855261164 23.4971720920071 3.789740199283014 0 0 -2
398 133 2 0.4238 10.757822743688559 22.022944522146382 2.7148145690083028 -1 0 0
397 133 1 -0.8476 10.215957554876256 22.049232071690735 1.8747452491690575 -1 0 0
716 239 2 0.4238 6.78820557011353 21.61125986090813 2.875358760811378 0 1 1
95 32 2 0.4238 8.788745702835794 19.051145918178804 5.091897914281681 -1 -1 1
367 123 1 -0.8476 12.121350780642395 19.919940628072343 4.565885546470304 0 -1 0
368 123 2 0.4238 11.673870496755297 20.747168602861233 4.22606018659503 0 -1 0
399 133 2 0.4238 9.242933568785181 22.045512044376995 2.1054742553715244 -1 0 0
623 208 2 0.4238 7.042984434537671 23.423639924824563 2.1373586353210956 0 -1 0
1008 336 2 0.4238 11.60015368775446 22.78556108526775 1.0523728681988205 0 -1 2
1518 506 2 0.4238 13.484882881078601 18.902582231575956 3.639126210675 0 0 0
387 129 2 0.4238 14.707659585827452 19.161955254458505 2.0656594038956206 0 0 0
1516 506 1 -0.8476 13.869549955394733 18.06131952617128 3.2592134827798542 0 0 0
1224 408 2 0.4238 15.408186203232738 20.929321073497455 3.929662009906314 0 -1 1
1222 408 1 -0.8476 16.25542935252561 20.490702340055737 3.6299636474421404 0 -1 1
1223 408 2 0.4238 16.159041335191947 20.193708851173014 2.6799475817896132 0 -1 1
659 220 2 0.4238 14.350726908713606 23.09233252734341 3.5143546130314736 0 0 0
660 220 2 0.4238 13.447937336482296 21.789025689369254 3.905579009583418 0 0 0
658 220 1 -0.8476 14.29358826785532 22.285291415642813 4.102101092727808 0 0 0
414 138 2 0.4238 16.968396950277032 21.487819895798708 24.84994271914076 -1 0 -1
412 138 1 -0.8476 16.862028961704926 22.26219485319045 0.4711822774448083 -1 0 0
413 138 2 0.4238 17.677959157516675 22.343648884347278 1.0435886088549977 -1 0 0
1197 399 2 0.4238 15.660658190653686 23.449522394799022 1.2604823538180039 0 -1 0
1472 491 2 0.4238 14.73065306893864 22.574684278182477 5.692307452155785 1 0 1
386 129 2 0.4238 14.589374288592552 19.84511203144591 0.5871467918890332 0 0 0
385 129 1 -0.8476 15.215343438688615 19.428380740659833 1.246330434528765 0 0 0
1274 425 2 0.4238 17.68582709534722 21.711731887115786 3.373448992317762 0 0 0
509 170 2 0.4238 16.563598648659376 19.59412258705155 5.01425667888957 0 -1 1
1195 399 1 -0.8476 15.296217004855912 24.12684093894873 1.8995814046028006 0 -1 0
1006 336 1 -0.8476 12.38147997198948 22.633634596627974 0.4470016032863526 0 -1 2
1007 336 2 0.4238 12.824527523000937 23.50796148773506 0.24879252253784115 0 -1 2
504 168 2 0.4238 16.364443578941824 18.10129450570369 1.2379787564979574 0 0 -1
1273 425 1 -0.8476 18.398553470013557 22.351850865074812 3.0865793152637786 0 0 0
1275 425 2 0.4238 19.29730826900993 21.943815720301977 3.247117608512637 0 0 0
1386 462 2 0.4238 20.290113934368737 20.65577841230025 5.084156352009277 1 0 0
1385 462 2 0.4238 21.366800359917214 20.789748365157564 3.8637085980835457 1 0 0
1029 343 2 0.4238 23.77490292932445 20.255056426611546 4.561243479523669 0 0 0
1027 343 1 -0.8476 23.373527872813245 19.867806780911284 3.7312061318929097 0 0 0
377 126 2 0.4238 23.024064084322266 18.043917596923915 3.4309453566530896 -1 -1 2
1384 462 1 -0.8476 20.39907662017476 20.84820556292866 4.108900248732362 1 0 0
1028 343 2 0.4238 23.50634798137877 20.502013986903314 2.96951965579725 0 0 0
929 310 2 0.4238 23.402102895284123 21.91928016901912 1.0112238582079103 -1 0 -1
1151 384 2 0.4238 22.167769127495102 23.462396614111686 4.991594539849115 -1 0 0
343 115 1 -0.8476 20.82785004413773 21.784516905647365 0.6442405274142927 0 0 0
344 115 2 0.4238 21.51211006489638 21.713306921522168 24.920972722340704 0 0 -1
345 115 2 0.4238 21.014757189062674 22.594416207732937 1.2002577559161345 0 0 0
346 116 1 -0.8476 0.14822142637162786 20.74651414869136 5.8302829939292184 0 -1 1
928 310 1 -0.8476 23.95639772024775 21.97580229570685 1.841638140516066 -1 0 -1
930 310 2 0.4238 24.382326633317692 22.878861670009908 1.8972593509535554 -1 0 -1
1529 510 2 0.4238 4.427786541355409 24.907815365125238 6.620141285754421 0 -2 2
406 136 1 -0.8476 3.3684466684964556 0.2001430638508438 1.5069253981462072 0 2 1
65 22 2 0.4238 1.5102424941342516 24.480967011664404 1.572216639074849 0 -1 -1
1312 438 1 -0.8476 24.475666194173844 24.040280857087343 6.119667577860663 0 0 1
622 208 1 -0.8476 7.147945236124748 24.37912304662746 1.8615676902671614 0 -1 0
624 208 2 0.4238 7.934178161974781 24.46497003129194 1.249608961671673 0 -1 0
1196 399 2 0.4238 15.986888027003705 24.33792017257789 2.5912782096723954 0 -1 0
1150 384 1 -0.8476 22.318348080027878 24.16944027576081 4.300623396608727 -1 0 0
1394 465 2 0.4238 21.13317645472977 0.26817868986731636 24.826793968181995 0 0 -1
1523 508 2 0.4238 20.33053923420197 24.665055800134432 1.549274464774845 -1 -1 0
64 22 1 -0.8476 0.5179858984660856 24.356702939972013 1.5755076932287533 0 -1 -1
194 65 2 0.4238 5.046945411645196 2.5142737996390045 7.876743181788994 0 1 0
335 112 2 0.4238 0.27323026045217136 2.3019299933914943 6.192772263284174 0 -1 0
193 65 1 -0.8476 5.1271447774766035 2.692579535090184 6.89602852177313 0 1 0
1371 457 2 0.4238 1.8324630799648725 4.0737463450312665 6.287460211767082 0 0 0
805 269 1 -0.8476 5.207029045222016 2.6914158628816645 9.670861677998314 0 1 1
725 242 2 0.4238 2.7622474348039163 0.9192915458508065 10.46042930944868 1 0 1
1369 457 1 -0.8476 1.0037434119573534 3.928810484602125 6.828055680061064 0 0 0
1370 457 2 0.4238 0.47244255521174777 4.7755087100405085 6.857169184596412 0 0 0
1542 514 2 0.4238 2.6368550399268487 6.003534004783277 8.93321659283921 2 1 -1
806 269 2 0.4238 5.572359278106976 3.105016579748431 10.504824293301546 0 1 1
1558 520 1 -0.8476 3.287926679111059 4.6357312036630125 9.719917637706821 0 0 0
1560 520 2 0.4238 3.7835504957098203 3.80288472385891 9.473444186331765 0 0 0
726 242 2 0.4238 2.0757842249399387 24.9555201578376 9.337141077119043 1 -1 1
1559 520 2 0.4238 3.4160809601848254 4.824050364219449 10.693641306552186 0 0 0
1356 452 2 0.4238 1.41766002221922 1.35549524680741 12.011314829437582 1 0 -1
195 65 2 0.4238 5.234597613254516 1.8266558776572452 6.407504239732714 0 1 0
451 151 1 -0.8476 24.73787449471702 3.4313596916686473 9.991387110943586 -1 1 1
270 90 2 0.4238 24.66978580306433 5.120467521454443 10.782264265400554 -1 -1 1
452 151 2 0.4238 0.5085053474716628 3.7678272087693525 9.453726590235116 0 1 1
1488 496 2 0.4238 0.1235974312738589 23.794874780266454 9.251281248135472 1 0 1
268 90 1 -0.8476 24.56938091100956 6.096893958530752 10.973409289719804 -1 -1 1
1487 496 2 0.4238 0.45300871791331515 23.985949521175595 7.663303674826393 1 0 1
1486 496 1 -0.8476 0.8427166597895168 23.76383446413427 8.557069876597348 1 0 1
156 52 2 0.4238 9.8992965445619 3.7486063139103996 5.70902225275495 -1 1 1
355 119 1 -0.8476 10.76418541651625 2.470270663782121 6.80103743213182 -1 1 1
356 119 2 0.4238 10.982754320403687 1.4954424702461369 6.8453433083661945 -1 1 1
1468 490 1 -0.8476 6.642455953185214 3.3630202317839095 11.86108089956115 1 1 0
807 269 2 0.4238 5.114803073913442 1.7042282740048609 9.80117056670331 0 1 1
1470 490 2 0.4238 6.192420039023374 2.9038020566069274 12.626987537545151 1 1 0
154 52 1 -0.8476 9.018006470425982 4.0397994502101415 5.336785328131447 -1 1 1
155 52 2 0.4238 9.163853029182961 4.763246707609605 4.661968000160089 -1 1 1
650 217 2 0.4238 7.684986522030344 24.82324506860324 6.932302066918045 0 0 1
960 320 2 0.4238 11.34871415185137 3.473002261911785 9.39354596329531 1 1 0
958 320 1 -0.8476 12.022950507013313 2.9561347524956774 9.921067791025568 1 1 0
959 320 2 0.4238 11.567590525093324 2.204861982326596 10.398835907247053 1 1 0
563 188 2 0.4238 9.47808203873341 0.8176129544409205 11.623019757222714 1 1 1
562 188 1 -0.8476 10.221309872629018 1.4616888936461152 11.44190044458709 1 1 1
1118 373 2 0.4238 7.102901990800569 4.775406144548612 9.124936130023617 1 -1 0
1265 422 2 0.4238 6.506886352336736 3.78427880650169 7.110709984161447 0 0 0
1266 422 2 0.4238 7.883301802158905 4.316368959538683 6.4113855095528 0 0 0
1119 373 2 0.4238 7.151389640222031 4.697908889733574 10.755377067230384 1 -1 0
1264 422 1 -0.8476 7.289853106256266 4.3980415823011985 7.212118712418754 0 0 0
1117 373 1 -0.8476 7.317404056117542 5.281400419153368 9.96039099344562 1 -1 0
1303 435 1 -0.8476 10.217342417698058 4.839215541797795 8.588071495827396 0 0 0
1305 435 2 0.4238 9.259346483986647 4.64312104798043 8.378747737182982 0 0 0
564 188 2 0.4238 9.839560416438447 2.3330022007574946 11.133506546453239 1 1 1
1304 435 2 0.4238 10.615488692200794 5.382746212976777 7.849099117095575 0 0 0
649 217 1 -0.8476 7.30080637020466 23.900806520423192 6.971521208169007 0 0 1
1469 490 2 0.4238 7.625325714347682 3.41876317982823 12.036825510004046 1 1 0
1290 430 2 0.4238 9.593773464935417 4.967853929385823 11.63348001502369 0 0 0
666 222 2 0.4238 11.591327718788705 6.506163502147144 10.925494634438701 1 0 1
665 222 2 0.4238 10.515980925042454 5.695271015750102 10.002035492719168 1 0 1
955 319 1 -0.8476 15.829228790934884 0.18953103773916158 5.762642410495025 1 1 1
995 332 2 0.4238 13.463900074941433 4.071774317839546 9.009675038133983 0 0 0
1211 404 2 0.4238 15.957673419415618 4.649272202263985 5.675820094211258 0 1 0
994 332 1 -0.8476 13.993879908282059 4.741292731217606 8.489201326789233 0 0 0
996 332 2 0.4238 14.117151154652033 4.413419927388479 7.552542346924258 0 0 0
998 333 2 0.4238 13.321628798525673 1.665133526935313 7.856144491950427 0 -1 1
997 333 1 -0.8476 14.206602751420645 1.4580159374066075 8.27321644029866 0 -1 1
999 333 2 0.4238 14.818589979501846 1.0727381369259357 7.582522219067502 0 -1 1
697 233 1 -0.8476 15.476599136067055 5.091268163836095 10.821201883624168 0 1 1
699 233 2 0.4238 15.243617928533942 4.782200173363908 9.899126647062769 0 1 1
1125 375 2 0.4238 17.478934484563794 4.4471369883802545 7.666965294106765 0 1 0
1199 400 2 0.4238 16.803169092439838 2.522219053227101 11.715094229708372 -1 1 0
1210 404 1 -0.8476 16.287897600496812 4.995122382609423 6.554094239923299 0 1 0
751 251 1 -0.8476 16.75518707345105 1.865042201358486 9.697183583064215 -1 1 0
1124 375 2 0.4238 17.742294923385934 3.309964220424713 8.808969457014221 0 1 0
1198 400 1 -0.8476 16.692275439760966 3.0082323525263925 12.581996597587858 -1 1 0
698 233 2 0.4238 15.804711591279975 4.315266354011964 11.359894074519085 0 1 1
861 287 2 0.4238 13.63136235407524 6.456160008813871 9.091146361003624 0 0 0
1068 356 2 0.4238 13.681535859872085 5.814540056479704 11.271440711953618 -1 0 0
1066 356 1 -0.8476 12.884824080644451 5.980877712433432 11.852481561600683 -1 0 0
370 124 1 -0.8476 22.000088288191204 2.1980569949099755 5.027891988491123 -1 1 1
372 124 2 0.4238 22.942481935080114 2.0208821202063825 5.311667708264249 -1 1 1
371 124 2 0.4238 21.74302229985824 3.1287785691850343 5.288083928241523 -1 1 1
1496 499 2 0.4238 19.03519832701671 0.35302042084217466 8.051658286571405 0 -1 0
1123 375 1 -0.8476 18.171248730251136 4.016315088194935 8.245859820454408 0 1 0
862 288 1 -0.8476 19.90799174128335 1.5774005842754906 6.538267088302644 0 1 1
863 288 2 0.4238 20.398415757256732 1.860084561900122 5.713888400176198 0 1 1
174 58 2 0.4238 19.337924135454557 4.570756400304952 9.319402842513357 -2 1 0
602 201 2 0.4238 21.87663798827079 5.202073705718347 5.403301995775053 -1 1 -1
601 201 1 -0.8476 21.223459739679704 4.626966908503033 5.895882710155538 -1 1 -1
603 201 2 0.4238 20.4328044235485 5.176548476591018 6.1657895333037045 -1 1 -1
308 103 2 0.4238 22.179479093582884 2.175856759410375 8.710589554262455 -1 0 0
1148 383 2 0.4238 22.957346180930855 4.406623955362716 7.843787154029998 -1 0 0
1149 383 2 0.4238 23.286640295426746 3.831236352328315 9.336163997712019 -1 0 0
1147 383 1 -0.8476 22.566541441692202 3.976660330950497 8.657684137224127 -1 0 0
172 58 1 -0.8476 20.11996758294009 4.913403379934379 9.840004896739208 -2 1 0
173 58 2 0.4238 20.950076925283692 4.4404906158874295 9.544543580205328 -2 1 0
864 288 2 0.4238 19.580057546433817 2.3870016563440175 7.025125433322759 0 1 1
309 103 2 0.4238 21.239498766909296 1.029577655598202 8.025625574710942 -1 0 0
513 171 2 0.4238 20.437053258928934 5.446455107050561 11.512321977435024 -1 -1 1
1355 452 2 0.4238 0.0915063441750117 0.49646428736262116 11.598911054266825 1 0 -1
1200 400 2 0.4238 17.53637766189269 2.9383770093256967 13.11363350637178 -1 1 0
307 103 1 -0.8476 21.787121642117633 1.2636766510691557 8.828951553152569 -1 0 0
1437 479 2 0.4238 23.759016095121567 6.457902064376891 5.135660190125224 -1 1 0
1354 452 1 -0.8476 0.6732109638652519 1.2705513121965097 11.349041319256521 1 0 -1
453 151 2 0.4238 0.05734329541956029 2.748035082758505 10.646693880334833 0 1 1
269 90 2 0.4238 24.307844750892805 6.224067224843065 11.930201983590296 -1 -1 1
586 196 1 -0.8476 3.2075888804050647 11.92269290437028 6.884314925606912 0 -1 -1
1541 514 2 0.4238 1.3081145871450492 6.8260246394842214 8.459241797799859 2 1 -1
678 226 2 0.4238 0.1581751579296835 7.01250684117862 6.470328087524824 0 1 -1
879 293 2 0.4238 3.8450069158598446 7.991026657979335 5.967867350493347 0 0 0
877 293 1 -0.8476 4.057473637802119 7.166656360513068 6.492554763444331 0 0 0
587 196 2 0.4238 3.6992836978778914 11.646105695964646 7.710003200426265 0 -1 -1
299 100 2 0.4238 2.632248365069801 8.470184715289468 11.601491722449396 0 -1 0
1540 514 1 -0.8476 2.3062744644233586 6.789435541674896 8.410626214814382 2 1 -1
878 293 2 0.4238 3.3569329467701294 7.0272196498956765 7.192430140004959 0 0 0
777 259 2 0.4238 3.3996331088870573 7.6546310502315835 9.520959636922841 0 1 1
775 259 1 -0.8476 3.7249907960403696 8.080874531657573 10.365047775781825 0 1 1
1144 382 1 -0.8476 4.1870120129250905 11.172087655578759 9.339039346551495 0 1 0
1145 382 2 0.4238 4.1457765859165105 11.491743429985613 10.28568881467296 0 1 0
776 259 2 0.4238 4.724859030664867 8.09787793998195 10.365946899816691 0 1 1
497 166 2 0.4238 2.0047612759178337 9.332990536961558 9.513936649731948 0 0 0
498 166 2 0.4238 0.5381998294929387 8.738586370358773 9.110730098502136 0 0 0
496 166 1 -0.8476 1.134300698905007 9.540345850708466 9.067475185394782 0 0 0
676 226 1 -0.8476 24.664832121858552 6.491731209928743 7.165278112369025 -1 1 -1
948 316 2 0.4238 5.833050300029582 7.164455385191675 6.800496161946797 0 2 0
115 39 1 -0.8476 6.469308580444975 7.932371036486233 10.436206220160907 0 0 -1
27 9 2 0.4238 0.46198297196819377 11.031993562219874 9.348984255283732 0 1 0
677 226 2 0.4238 24.172312004327733 7.121805544848416 7.765659063725048 -1 1 -1
1146 382 2 0.4238 5.115380234861539 10.863732630235427 9.131494143104673 0 1 0
315 105 2 0.4238 10.650826805989839 7.610061571751737 7.230399470748228 1 0 1
313 105 1 -0.8476 11.319837599517651 6.933567809283441 6.922493436177881 1 0 1
314 105 2 0.4238 11.791285381653594 7.276828351838694 6.110129858486012 1 0 1
946 316 1 -0.8476 6.825548001636208 7.15973601945746 6.922772197561912 0 2 0
947 316 2 0.4238 7.17803036032226 6.23958309383204 6.752184498496165 0 2 0
1248 416 2 0.4238 9.239557170579317 7.181827079604198 9.012237029131613 1 -1 1
1246 416 1 -0.8476 9.00566016312599 8.01686084807909 8.514204328438126 1 -1 1
1247 416 2 0.4238 8.091555001907304 7.924489488977796 8.119355136578239 1 -1 1
1410 470 2 0.4238 9.820170493474002 9.465872941172142 9.170069283341393 0 1 -1
1408 470 1 -0.8476 10.305518841589626 10.2002669014948 9.644545705555153 0 1 -1
116 39 2 0.4238 6.566548598669049 6.996598993108954 10.097236533851282 0 0 -1
1409 470 2 0.4238 10.038507878302518 10.207992479581279 10.60822139854229 0 1 -1
944 315 2 0.4238 11.9649361715415 10.146349685475066 9.514658853691397 0 0 1
430 144 1 -0.8476 7.7447645703919115 11.872593736198157 7.205749633284031 0 2 1
431 144 2 0.4238 6.855327756125765 11.966804446049439 6.758477042952982 0 2 1
125 42 2 0.4238 6.749275337010947 9.59713928118888 10.074175357075404 -1 0 0
124 42 1 -0.8476 6.888058872154429 10.535122320347705 9.75644374972361 -1 0 0
126 42 2 0.4238 7.507409641123554 10.532889664750567 8.971316200510898 -1 0 0
1311 437 2 0.4238 11.191271228685215 13.068036473179317 9.527255797316448 1 0 0
664 222 1 -0.8476 10.628037361073908 6.433774341544098 10.66692764594054 1 0 1
904 302 1 -0.8476 8.957263258304042 10.165606296623729 12.169903175071962 0 0 -1
282 94 2 0.4238 14.494208933922327 7.9483725819810935 6.88737025880031 0 0 0
1212 404 2 0.4238 15.884569798290162 5.892775138701074 6.731779751263478 0 1 0
860 287 2 0.4238 12.475015710379374 7.24781123209375 8.252787901748947 0 0 0
859 287 1 -0.8476 13.308476459642891 7.3550477028182675 8.79488466487796 0 0 0
827 276 2 0.4238 15.974608205213938 7.171274189177719 8.660899929970851 0 -1 0
826 276 1 -0.8476 16.501618712936725 7.357704386901045 9.4900738192676 0 -1 0
281 94 2 0.4238 15.829791598992923 8.80006732404379 7.284269679001633 0 0 0
514 172 1 -0.8476 13.743315940215247 10.639792102815417 7.0852497596254755 -1 0 0
515 172 2 0.4238 13.431185585893365 10.43941629817328 8.013931392636644 -1 0 0
280 94 1 -0.8476 15.494204913107799 7.943994649712749 6.891145591002636 0 0 0
516 172 2 0.4238 14.734538227945148 10.772064878679677 7.088020527534284 -1 0 0
1324 442 1 -0.8476 16.359626492665857 10.4164845035809 7.846931739594652 -1 0 -1
1325 442 2 0.4238 16.450806875966503 10.418151220924901 8.842777479247037 -1 0 -1
252 84 2 0.4238 16.95314758778413 8.794822784269027 10.274021763477514 -1 0 0
250 84 1 -0.8476 17.022841990803407 9.665182826840246 10.76150671229679 -1 0 0
251 84 2 0.4238 16.20209699745119 9.803385345983752 11.315856066089358 -1 0 0
943 315 1 -0.8476 12.92812417240564 9.883231877758707 9.570005855606789 0 0 1
945 315 2 0.4238 13.013705933055506 8.89820481248648 9.420263270980973 0 0 1
1326 442 2 0.4238 17.17563492207066 10.823874700462316 7.43682338931579 -1 0 -1
56 19 2 0.4238 17.727371158584187 11.226140862855003 11.39072344130048 -1 0 0
828 276 2 0.4238 16.18039668598782 6.765788518456452 10.229315335453316 0 -1 0
938 313 2 0.4238 14.051492471397987 9.907150851566508 10.863952044809054 0 1 1
937 313 1 -0.8476 14.57494735808935 9.676258641241375 11.684140537247732 0 1 1
443 148 2 0.4238 19.780639729394846 6.519332370165315 7.537829677748463 -1 -1 0
169 57 1 -0.8476 24.084022094424512 9.71167038494682 6.475865640178252 -2 0 -1
49 17 1 -0.8476 18.30357192741972 11.96478548050668 6.983637337529983 0 0 1
444 148 2 0.4238 18.5596013636554 6.423093925184415 6.457784460804115 -1 -1 0
442 148 1 -0.8476 19.553484359524226 6.437350519086353 6.567414828467993 -1 -1 0
1228 410 1 -0.8476 21.344091590808166 8.825187543641718 6.775473966042541 -1 0 0
1230 410 2 0.4238 21.165717058728216 8.059340770472303 7.393282647174094 -1 0 0
1462 488 1 -0.8476 23.08640614628469 10.46625065752634 10.877753383537204 0 0 -1
1463 488 2 0.4238 23.150921947610687 9.548849001544703 10.48502217856162 0 0 -1
714 238 2 0.4238 20.634706380306774 8.16303584712451 9.53160250717604 1 0 0
713 238 2 0.4238 20.678485189265245 6.53062291994912 9.529238677393455 1 0 0
1129 377 1 -0.8476 23.666150152487926 7.767580614380184 9.18838534594067 1 1 0
1130 377 2 0.4238 22.67223407924768 7.664204120998185 9.150050491068031 1 1 0
712 238 1 -0.8476 20.989999377883443 7.356453199657796 9.05914436514045 1 0 0
51 17 2 0.4238 19.167311554993514 12.011992597758104 7.485385022691453 0 0 1
311 104 2 0.4238 20.91114799550486 10.488287759796798 7.292617884766575 0 -1 1
310 104 1 -0.8476 20.772549496263796 11.409295312256186 7.656708892280788 0 -1 1
81 27 2 0.4238 21.35600275733451 11.553238576399998 10.877516687774747 0 0 1
80 27 2 0.4238 20.690964658224686 11.756192224151656 9.399941556339048 0 0 1
79 27 1 -0.8476 20.539997149863613 11.853701437707823 10.383672283416697 0 0 1
756 252 2 0.4238 18.877115985880017 9.34420284375962 11.19883334459416 0 -1 0
754 252 1 -0.8476 19.651624014659983 8.79849609744359 11.518782403837402 0 -1 0
171 57 2 0.4238 23.16061769403064 9.431165973219349 6.737911121558425 -2 0 -1
312 104 2 0.4238 21.56903796432963 11.975240163365088 7.443778148121422 0 -1 1
170 57 2 0.4238 24.69331616008906 9.631152346210898 7.264727601286628 -2 0 -1
1131 377 2 0.4238 24.03677539889146 7.166095695529859 9.89611290720948 1 1 0
26 9 2 0.4238 24.026781116171687 11.670239296189505 9.787551140065835 -1 1 0
25 9 1 -0.8476 24.85501917983049 11.818240772369103 9.247048904773349 -1 1 0
588 196 2 0.4238 2.3560927494659376 12.380024059073651 7.140884536498419 0 -1 -1
1514 505 2 0.4238 0.737115855490245 14.065590103520194 6.022595887743433 1 1 -1
482 161 2 0.4238 4.116696149609258 17.83043515537758 8.184383382526448 -1 1 0
547 183 1 -0.8476 1.2477875775216813 13.446534660710723 7.8413344841872155 0 -1 0
548 183 2 0.4238 0.8704051763633311 12.840187154001057 8.541299226182685 0 -1 0
1336 446 1 -0.8476 4.373197855980586 16.48146540304625 9.526681181413508 0 0 1
1337 446 2 0.4238 4.580665100154847 15.782980515389406 8.841771262574301 0 0 1
549 183 2 0.4238 1.2740703962404027 14.38317508070789 8.190675798380607 0 -1 0
6 2 2 0.4238 0.5134726323216373 15.720144371845 9.71579339896522 -1 0 1
4 2 1 -0.8476 1.3066208907136916 15.767719043293907 9.108603967072456 -1 0 1
5 2 2 0.4238 1.9888615372046083 16.38575203697392 9.4992562746151 -1 0 1
383 128 2 0.4238 1.430321054254292 13.119361160756375 11.097745591239452 -1 2 0
384 128 2 0.4238 2.6828227632176076 12.844452042465713 12.108863189459775 -1 2 0
1338 446 2 0.4238 4.738945459375199 16.198020274710423 10.41319846991036 0 0 1
145 49 1 -0.8476 4.541927586208072 12.005289714300472 12.003205312657014 0 0 -1
146 49 2 0.4238 5.243121331193415 12.631127479865961 11.661620258473919 0 0 -1
1052 351 2 0.4238 1.198999204330869 16.69086517764923 7.433576692640917 1 -1 0
1051 351 1 -0.8476 0.6476303186687606 17.21355055045775 6.783331829179993 1 -1 0
783 261 2 0.4238 5.946379705781012 14.707173798511574 7.916487860060657 0 1 1
781 261 1 -0.8476 4.962895973553572 14.642591648985253 7.74733023075302 0 1 1
782 261 2 0.4238 4.640598636754636 13.730031861563868 7.999092882972815 0 1 1
1053 351 2 0.4238 1.0813469877661854 17.18825494630817 5.882623451290673 1 -1 0
481 161 1 -0.8476 4.27889952281402 18.52394719056331 7.482416834408497 -1 1 0
382 128 1 -0.8476 1.8275581774050909 13.348022909999742 11.986532380438938 -1 2 0
973 325 1 -0.8476 12.76204939559283 16.004981404232762 6.880341228825133 0 -1 -1
432 144 2 0.4238 8.112629345788564 12.77966291818032 7.4105107799035554 0 2 1
975 325 2 0.4238 12.802910118415923 16.860680442149423 7.396224319520368 0 -1 -1
1013 338 2 0.4238 8.081884397854651 15.422761516215212 7.295915919295688 -1 -1 -1
1310 437 2 0.4238 11.354807258960845 14.430916667841677 10.411850442480747 1 0 0
1012 338 1 -0.8476 7.537462042056404 14.818626728632436 7.877853224841094 -1 -1 -1
1014 338 2 0.4238 7.817907229772273 14.932278515243492 8.830984952378273 -1 -1 -1
815 272 2 0.4238 7.919206940989196 13.726354603589781 10.998781872618135 0 0 0
814 272 1 -0.8476 7.123016101489262 13.16933369461656 10.762489736475176 0 0 0
816 272 2 0.4238 7.426801364701261 12.269336806412047 10.449845826468986 0 0 0
202 68 1 -0.8476 8.936889818791116 15.28092592883713 10.312898121719591 0 -1 0
204 68 2 0.4238 9.826218756511985 15.703994315300923 10.139310758791838 0 -1 0
839 280 2 0.4238 10.309654909717239 11.961868327200849 8.15086377132407 0 0 0
838 280 1 -0.8476 10.705811940365047 12.871971696575798 8.029218961028976 0 0 0
889 297 1 -0.8476 11.316808070677572 16.217889771438557 10.563031290795424 0 1 1
890 297 2 0.4238 11.171185485843113 16.469021103927727 11.519981467027668 0 1 1
1309 437 1 -0.8476 11.518919368430163 13.444627766952424 10.393772455220873 1 0 0
840 280 2 0.4238 10.333699183482691 13.289381742888343 7.2001665558706485 0 0 0
891 297 2 0.4238 12.298116022458986 16.165182393035142 10.37787609541659 0 1 1
579 193 2 0.4238 13.64112649876275 18.87841704563948 9.22214296839659 -1 0 0
577 193 1 -0.8476 13.551904120198056 18.606358700217832 8.263993544293951 -1 0 0
203 68 2 0.4238 8.259287375945465 15.992965271909773 10.496964188279293 0 -1 0
974 325 2 0.4238 13.165449119324228 15.268665729002667 7.423604173212536 0 -1 -1
1231 411 1 -0.8476 13.756288245380574 13.830100263748697 8.162684582645092 0 1 0
1232 411 2 0.4238 14.313238316944325 13.70455246460521 8.983702305252123 0 1 0
980 327 2 0.4238 15.812920150290394 14.667960247872866 6.551299747593347 0 -1 0
1233 411 2 0.4238 12.866061220697372 13.39385829187581 8.293889397232284 0 1 0
981 327 2 0.4238 14.461673638142171 13.7569345711502 6.4470922913768876 0 -1 0
566 189 2 0.4238 17.00992448088829 12.985125982685771 10.289806311264382 1 0 1
565 189 1 -0.8476 16.052656518257887 13.159135070369912 10.05875409308179 1 0 1
578 193 2 0.4238 14.459987184533336 18.539451302847812 7.8505512788156055 -1 0 0
1432 478 1 -0.8476 16.57541612153226 16.37815340361513 9.15112681562271 -1 0 0
1433 478 2 0.4238 16.845957535573078 15.532898203586425 8.6902837004727 -1 0 0
567 189 2 0.4238 15.608027894584177 13.635708137095072 10.81718009330716 1 0 1
1434 478 2 0.4238 16.970712626701985 17.161008439203364 8.670602062138766 -1 0 0
1483 495 1 -0.8476 14.218997135263127 16.213192406239422 10.626175700507357 1 -2 1
1485 495 2 0.4238 13.917619864529627 17.165093800047583 10.570670025419176 1 -2 1
1345 449 1 -0.8476 17.02150771299512 14.156554243280606 7.740831098444891 1 0 0
55 19 1 -0.8476 18.234604821887178 12.073548925050416 11.547691528484329 -1 0 0
1484 495 2 0.4238 15.046793499241476 16.093155708377896 10.078115710408131 1 -2 1
350 117 2 0.4238 17.836942055886283 13.231757232384956 12.906931552587974 0 -1 1
30 10 2 0.4238 14.184685820399407 13.557327709490728 12.879419866030926 -1 0 -1
28 10 1 -0.8476 14.869094833503638 14.12920933489129 12.427134340265269 -1 0 -1
60 20 2 0.4238 18.11863414374566 15.39571521462639 6.556339468805185 -1 1 0
57 19 2 0.4238 19.121590785178668 12.020956250452713 11.088872004376348 -1 0 0
1347 449 2 0.4238 17.577718351474378 13.372736146291452 7.464634833194462 1 0 0
1346 449 2 0.4238 16.29650072132513 13.849995749231544 8.357606724963789 1 0 0
58 20 1 -0.8476 19.0631039073739 15.696110885463819 6.42305526161826 -1 1 0
643 215 1 -0.8476 20.567325748581926 17.821897954906863 7.26806675296884 -1 0 0
645 215 2 0.4238 21.550672786764995 17.65837634232692 7.347539480567912 -1 0 0
644 215 2 0.4238 20.082889939616674 16.947056024716005 7.267964048016982 -1 0 0
932 311 2 0.4238 23.181631068536458 16.04961859847107 8.29608271091601 -1 0 0
59 20 2 0.4238 19.603814337132608 14.941091342370898 6.052106304745181 -1 1 0
1039 347 1 -0.8476 20.348554152831472 15.986235070927757 10.517039037226496 -1 0 1
1041 347 2 0.4238 20.223646161204492 14.99819668397903 10.426464220690209 -1 0 1
1040 347 2 0.4238 21.31099679314922 16.215287561658705 10.371214500521075 -1 0 1
1283 428 2 0.4238 22.914023055120477 13.888714639307514 8.354598624352477 0 0 0
1282 428 1 -0.8476 22.872557063813275 13.05208247712583 7.808381979215117 0 0 0
931 311 1 -0.8476 23.19949827427526 15.390185919790392 9.047650848376705 -1 0 0
921 307 2 0.4238 18.867035856305513 17.836533382860566 9.9946984680757 -1 1 -1
505 169 1 -0.8476 18.218511636129396 17.246802228474 11.68086749442692 0 -1 1
850 284 1 -0.8476 23.057181464645623 17.05739174451669 6.55054661541225 0 0 0
933 311 2 0.4238 23.60650851186876 15.816481630652643 9.855512236891434 -1 0 0
1284 428 2 0.4238 23.764431646230353 12.600004034725739 7.822880334066993 0 0 0
506 169 2 0.4238 19.033704226673283 16.769760835739156 11.352358840428208 0 -1 1
409 137 1 -0.8476 24.42255924405312 16.061119445405797 11.177271748703944 -1 1 -1
410 137 2 0.4238 0.10218892677167446 16.70909937842353 11.516156871336266 0 1 -1
852 284 2 0.4238 24.049254438500753 17.040806140055977 6.675212354354264 0 0 0
348 116 2 0.4238 0.9221853774667116 21.30534561563054 5.532434696347186 0 -1 1
654 218 2 0.4238 4.206245946481911 19.80442693868873 5.849548923872333 1 0 0
483 161 2 0.4238 4.954036580255345 19.182724034120742 7.814423707637046 -1 1 0
47 16 2 0.4238 1.419671059590299 18.485294417512826 10.16200974002271 0 0 1
318 106 2 0.4238 1.7183884368759563 20.172732279964027 8.322351507992376 -1 0 0
317 106 2 0.4238 0.7410270130802784 18.910092544870032 7.980006650390576 -1 0 0
316 106 1 -0.8476 1.2258966192891 19.39307672711959 8.709152320484737 -1 0 0
185 62 2 0.4238 4.995322543701184 22.70774424514128 9.85484795382989 -1 0 1
184 62 1 -0.8476 4.9393674287158005 21.81895291203001 9.399935763346706 -1 0 1
537 179 2 0.4238 4.022520041276632 20.897646169849867 10.362344514160444 1 0 1
186 62 2 0.4238 5.803558092755895 21.627749867971183 8.934488184798127 -1 0 1
763 255 1 -0.8476 2.6225837905659244 21.742486674804162 7.551115195927163 -1 0 0
765 255 2 0.4238 3.460654834083382 21.92744265025643 8.064393255025859 -1 0 0
607 203 1 -0.8476 5.186443696707009 23.916719461282778 11.181220273814878 1 1 0
764 255 2 0.4238 2.000598069108059 22.5208279344278 7.636815612469066 -1 0 0
886 296 1 -0.8476 1.22007936420298 21.958858164737375 11.384586449770872 0 1 1
499 167 1 -0.8476 5.165671219962617 18.549999886159245 12.310126329633032 0 0 0
501 167 2 0.4238 4.525842770562082 19.24863723279966 11.989889748682804 0 0 0
536 179 2 0.4238 2.686007705422379 21.09038691596639 11.280647261540206 1 0 1
887 296 2 0.4238 1.043912826750518 22.419378670412232 10.514579558385233 0 1 1
768 256 2 0.4238 6.09318980614676 21.43606301892768 6.171373588896782 -1 -1 -1
766 256 1 -0.8476 6.27037737110943 20.82707874025327 6.944528791326691 -1 -1 -1
767 256 2 0.4238 7.2563231588750305 20.692571559945907 7.04374724550057 -1 -1 -1
546 182 2 0.4238 9.25677147144143 22.270694161390942 8.720921567263568 0 0 0
1202 401 2 0.4238 6.475389293700325 17.443333947792002 10.084102505040029 0 0 0
1201 401 1 -0.8476 7.0676676819754585 17.068551109844083 10.797383623619512 0 0 0
544 182 1 -0.8476 8.344941198049636 21.996700765574 9.026730939017273 0 0 0
1203 401 2 0.4238 6.677238264639009 17.271313421596528 11.695424966945776 0 0 0
94 32 1 -0.8476 8.821899254021476 19.857814508270714 5.681993682045121 -1 -1 1
96 32 2 0.4238 9.545117451725192 19.743098993130037 6.363038181064686 -1 -1 1
152 51 2 0.4238 10.583744675005041 22.26225217005002 9.972672805239842 0 -1 1
1498 500 1 -0.8476 10.357898650890334 22.129822356845228 11.681135106473981 0 1 0
1499 500 2 0.4238 9.444469551605913 22.535855248204903 11.70959489469752 0 1 0
545 182 2 0.4238 7.654504309924754 22.438835659211986 8.45415825370204 0 0 0
1500 500 2 0.4238 11.015677280133598 22.759717176621482 12.094154704582518 0 1 0
1099 367 1 -0.8476 11.234768308345592 20.36518400877394 7.558773267182008 0 -1 1
1101 367 2 0.4238 11.829041485448125 19.652077482650654 7.930719931790827 0 -1 1
74 25 2 0.4238 10.482607442510613 24.252895672080193 6.602906268686579 0 0 2
1473 491 2 0.4238 13.741592920661123 23.164869804078027 6.849949543421632 1 0 1
1471 491 1 -0.8476 14.675925796151581 22.87312215332147 6.645179511985544 1 0 1
1100 367 2 0.4238 11.265117490706757 21.1682873286958 8.153862369438844 0 -1 1
151 51 1 -0.8476 10.99269473437353 22.509382687899336 9.0942015370571 0 -1 1
153 51 2 0.4238 11.732658934424578 23.16521600259191 9.24373763429087 0 -1 1
1452 484 2 0.4238 13.539150431508011 19.499296994795227 11.593592791610956 0 1 0
762 254 2 0.4238 15.842847978789424 21.264485190123263 8.996762915506785 -1 -1 0
760 254 1 -0.8476 16.093786547148863 22.17449074138896 8.666694570785996 -1 -1 0
1396 466 1 -0.8476 13.255321806970043 24.059355429246548 9.288710968666114 1 1 0
39 13 2 0.4238 17.98101638330273 22.39990905060637 8.412749770760726 -1 -1 0
761 254 2 0.4238 15.611606092605165 22.36345377973197 7.811229545269693 -1 -1 0
1001 334 2 0.4238 16.711719466445867 22.79045460886441 10.319817202704451 -1 1 -1
1002 334 2 0.4238 17.13254534056795 21.79118087411213 11.540903492971248 -1 1 -1
1451 484 2 0.4238 12.536468407148396 18.211821728444647 11.532516276546012 0 1 0
1450 484 1 -0.8476 13.327507070927183 18.651569526351846 11.10718690731025 0 1 0
1000 334 1 -0.8476 16.789289621301144 22.702346394771713 11.312915989460262 -1 1 -1
1397 466 2 0.4238 14.1149632617592 23.61920091065192 9.548145509973294 1 1 0
528 176 2 0.4238 16.294432753055844 19.127594408220016 7.332286074553377 -1 0 0
526 176 1 -0.8476 16.202573956294597 19.370340260503696 8.298030893073905 -1 0 0
527 176 2 0.4238 17.006394204174114 19.050946105376116 8.799913570472226 -1 0 0
508 170 1 -0.8476 16.906510821424966 18.9030568663707 5.650546572042295 0 -1 1
347 116 2 0.4238 0.04616767219225736 20.8201476891006 6.822345904748863 0 -1 1
135 45 2 0.4238 22.67068660121021 21.924477228043664 7.092143785663007 0 0 0
920 307 2 0.4238 19.703250866867624 18.374707837070762 8.699396413302072 -1 1 -1
919 307 1 -0.8476 18.908907346362906 18.539041637084303 9.28423769215665 -1 1 -1
127 43 1 -0.8476 18.057522390369222 20.373031870344594 11.372522356783584 -1 -1 1
37 13 1 -0.8476 18.950190588967526 22.153486430118473 8.411121957655894 -1 -1 0
129 43 2 0.4238 17.91929931925256 19.571049811509145 10.791363908449044 -1 -1 1
38 13 2 0.4238 19.13384850205749 21.528176549412578 7.6526480096085585 -1 -1 0
1133 378 2 0.4238 18.2807510907668 19.780027315242393 6.3185441802857225 -1 0 0
1428 476 2 0.4238 20.608732312467676 22.260250150091935 9.108361255012126 0 0 0
364 122 1 -0.8476 23.498062715389555 24.05988924082638 10.163562353063485 1 -1 1
1426 476 1 -0.8476 21.51568013224472 22.13632126316509 9.510993457922877 0 0 0
1427 476 2 0.4238 21.45375965648783 21.504910764102195 10.283982510774443 0 0 0
365 122 2 0.4238 22.95275499771138 23.310222769263213 9.788507869588761 1 -1 1
1134 378 2 0.4238 19.820803652463212 19.32671847906006 6.617614978530782 -1 0 0
1132 378 1 -0.8476 19.203584967936024 20.107604735728692 6.521265839753757 -1 0 0
389 130 2 0.4238 22.953654020461503 21.39573213602862 8.922984724732181 0 0 0
388 130 1 -0.8476 23.918305595697888 21.207127632966646 8.738862325640303 0 0 0
390 130 2 0.4238 24.35139008747969 20.84787577291492 9.565543218231598 0 0 0
1102 368 1 -0.8476 24.40918480346891 20.038555039548218 11.404961416789396 -1 1 1
1497 499 2 0.4238 18.74715775392147 23.95783146124432 8.845499437777606 0 -2 0
1104 368 2 0.4238 0.16000243015324384 20.691470269827363 11.32599977693084 0 1 1
1103 368 2 0.4238 24.77777555235718 19.120230533863957 11.549344003261776 -1 1 1
1530 510 2 0.4238 3.9491326307858556 24.830574581031993 8.179506506852247 0 -2 2
1313 438 2 0.4238 23.536462503981067 23.71322929219275 6.224357034911067 0 0 1
724 242 1 -0.8476 2.9379852256229113 0.33912422309158036 9.665099991092166 1 0 1
608 203 2 0.4238 4.602747953759025 24.526873461780426 10.645462166255331 1 1 0
609 203 2 0.4238 5.048656697192245 24.09424005993803 12.155656814213412 1 1 0
1528 510 1 -0.8476 4.636022778858363 24.524868130742796 7.520149829408439 0 -2 2
260 87 2 0.4238 11.747352659762372 0.013968109445670507 12.402615483861661 0 0 -1
651 217 2 0.4238 6.302882019354227 23.953487690136235 6.934143685104134 0 0 1
1502 501 2 0.4238 7.945889403676487 22.171513187993806 10.929329381552993 0 -1 -1
73 25 1 -0.8476 11.177912364337036 24.792216952224116 7.077994924781593 0 0 2
75 25 2 0.4238 11.394360361829511 24.360031922279983 7.953433051666634 0 0 2
259 87 1 -0.8476 11.768690569837114 24.13454223735515 12.87354182929839 0 -1 -1
1501 501 1 -0.8476 7.831651808224727 22.903274270819363 11.60126753698025 0 -1 -1
1503 501 2 0.4238 6.911735139000062 23.287440982157065 11.522561424617827 0 -1 -1
957 319 2 0.4238 15.476844743697841 24.337612391277514 6.14449952996514 1 0 1
753 251 2 0.4238 15.82200058526407 1.6208836408025336 9.43341189095126 -1 1 0
752 251 2 0.4238 17.372439538128514 1.1099838710150718 9.47602048163225 -1 1 0
261 87 2 0.4238 12.695675062109013 23.954865921714717 13.202849368101216 0 -1 -1
1398 466 2 0.4238 13.348339172252123 0.04850651999542066 9.378129390463526 1 2 0
133 45 1 -0.8476 22.045033535218383 22.50322117878493 6.569038282099903 0 0 0
1079 360 2 0.4238 19.6264980467334 0.5525589326730407 10.899443086467485 0 0 1
366 122 2 0.4238 23.15529122055743 24.93046607788276 9.81053326413373 1 -1 1
134 45 2 0.4238 21.100987545990343 22.258334582021956 6.790020723720895 0 0 0
1495 499 1 -0.8476 18.535509098130678 24.934496475283662 8.80867394700638 0 -2 0
1088 363 2 0.4238 5.783920165751301 2.2241589815664624 14.70080519955622 1 0 0
1087 363 1 -0.8476 5.332957098754859 2.9838317140887685 14.232237784464896 1 0 0
1089 363 2 0.4238 4.463990751658481 3.1855144725425135 14.684175693661993 1 0 0
1323 441 2 0.4238 3.2014131668715664 3.683815274102617 16.147414393537858 0 0 1
1321 441 1 -0.8476 2.8346268805038908 3.1693094320474597 15.372316339122563 0 0 1
1047 349 2 0.4238 3.344768580320756 2.265193677508606 12.92914699454837 1 0 1
749 250 2 0.4238 5.099633696655977 0.9586718759040241 16.56461585213485 0 0 0
1322 441 2 0.4238 2.0876949345451337 3.685447080537086 14.953126664556384 0 0 1
1045 349 1 -0.8476 3.1724770616261138 1.5423964841947682 12.259889186718995 1 0 1
750 250 2 0.4238 4.459270454881015 2.0351236268990394 17.612413920130273 0 0 0
748 250 1 -0.8476 4.481944783415131 1.072412703593415 17.342786235670783 0 0 0
559 187 1 -0.8476 3.769682087435333 4.477890976347537 17.49879275808432 2 1 0
560 187 2 0.4238 4.388372459421293 5.244407932448666 17.6711296274599 2 1 0
142 48 1 -0.8476 6.337241248228867 6.16658392217065 17.445454031696272 -1 1 0
695 232 2 0.4238 2.0837660096121384 1.4141994762114316 15.053415032786955 1 1 1
1046 349 2 0.4238 3.619300580869723 0.6988380639138638 12.55785655754916 1 0 1
696 232 2 0.4238 2.2085249622120764 24.9144804331533 15.681474001470308 1 0 1
694 232 1 -0.8476 1.5704711763557941 0.6232981970026589 15.386625624622623 1 1 1
338 113 2 0.4238 2.806551066055494 24.567826739686566 17.602620134693662 0 -1 -1
557 186 2 0.4238 22.88697086459888 2.455208515250796 18.23599586398986 0 0 1
556 186 1 -0.8476 23.655969413808908 2.993838308997969 17.8916928560251 0 0 1
143 48 2 0.4238 5.949362247255673 7.086211529904252 17.507593356758957 -1 1 0
1090 364 1 -0.8476 6.40562789469936 0.5607664773031635 15.345312754981691 1 -1 0
144 48 2 0.4238 7.254457657958248 6.217692545028899 17.050324150753873 -1 1 0
554 185 2 0.4238 8.059889221284328 4.68069042452168 14.563968102662614 1 1 0
1091 364 2 0.4238 6.950466564626702 24.789343347777013 15.022490174890052 1 -2 0
555 185 2 0.4238 8.556176991202497 3.2091968952109062 15.069042002248612 1 1 0
1092 364 2 0.4238 6.966225824993169 1.138739912611719 15.938357525116386 1 -1 0
553 185 1 -0.8476 8.597344222854648 3.872815798062652 14.322087365705796 1 1 0
1289 430 2 0.4238 9.17402185277985 4.007080303946413 12.885445189405832 0 0 0
1288 430 1 -0.8476 9.35416447551774 4.034896019421465 11.902185123724756 0 0 0
1010 337 2 0.4238 11.689161703410411 4.820045136329039 16.61438644518492 1 -1 -1
1009 337 1 -0.8476 11.75687268970527 5.53061957982691 15.914011815846141 1 -1 -1
265 89 1 -0.8476 8.281546411822662 1.9293814498629207 16.713043705840533 0 0 1
1011 337 2 0.4238 12.003498310559102 5.113839159747132 15.039085931447856 1 -1 -1
968 323 2 0.4238 10.618061304094066 0.36141274321013195 16.146689448223633 0 1 -1
266 89 2 0.4238 9.183561130046257 1.6204191054579067 17.014601490676153 0 0 1
819 273 2 0.4238 10.699095951917052 3.545339615839117 18.342627215104645 0 0 -2
818 273 2 0.4238 11.66917024988524 2.4436824355614055 17.627084442383442 0 0 -2
817 273 1 -0.8476 11.506025228612637 3.4205700768391076 17.765285808455758 0 0 -2
267 89 2 0.4238 7.668378107356829 1.9870588855476743 17.500903680197172 0 0 1
655 219 1 -0.8476 13.274136279259 1.581524246735234 14.418913274880575 -2 0 1
657 219 2 0.4238 13.476232530819281 0.6078484374690617 14.524450746491402 -2 0 1
656 219 2 0.4238 13.687899211567562 2.091482837243314 15.17308036745165 -2 0 1
967 323 1 -0.8476 11.219650700820402 0.6910355448225085 16.874332503796257 0 1 -1
1067 356 2 0.4238 12.690147517993113 5.162655865945549 12.393443596686987 -1 0 0
1491 497 2 0.4238 12.26499247757153 2.9050051334654046 13.809821820069338 0 -1 -1
1489 497 1 -0.8476 12.234987838137572 3.896186850749767 13.680655555786226 0 -1 -1
1490 497 2 0.4238 11.560793381730985 4.120358348426069 12.976926671497901 0 -1 -1
1218 406 2 0.4238 15.259308312936513 1.3298489353792948 17.47448738067276 0 0 0
1250 417 2 0.4238 15.998944003734449 4.392719070981185 16.346349940656054 0 0 -1
590 197 2 0.4238 16.526681719642735 24.752067652770325 14.956222542959692 -1 -2 1
589 197 1 -0.8476 16.37277582193648 24.969620452884733 15.920073752854565 -1 -2 1
1438 480 1 -0.8476 15.016302987285421 4.072496371146873 14.533928616532577 0 1 0
1440 480 2 0.4238 15.783137708855326 3.757659236846425 13.974582095808874 0 1 0
1439 480 2 0.4238 14.181748558269389 4.077309445566816 13.983000644201447 0 1 0
1217 406 2 0.4238 15.10884540074136 2.853604482330739 18.042135493313594 0 0 0
1136 379 2 0.4238 18.691076824308563 4.774472346968578 14.992218496581861 1 0 0
1137 379 2 0.4238 18.145603327581583 5.178746438367018 16.477383644044544 1 0 0
969 323 2 0.4238 12.092976323556694 0.20587955140507416 16.830157983714003 0 1 -1
1249 417 1 -0.8476 15.922785383921676 4.544059659664205 17.331906269959955 0 0 -1
1251 417 2 0.4238 15.481365438932709 5.425361153814729 17.50067090972917 0 0 -1
405 135 2 0.4238 17.374675871887405 3.4387762911640523 18.145788300462453 0 1 0
1080 360 2 0.4238 21.227366387638718 0.26202694331233606 10.759779717702903 0 0 1
746 249 2 0.4238 17.6447421562193 1.1587362976035263 15.681135637519239 0 0 0
222 74 2 0.4238 18.974100986921872 2.518795427428146 14.638748526903509 -1 1 -1
747 249 2 0.4238 18.453339050962068 1.9279128832528272 16.87329022595919 0 0 0
745 249 1 -0.8476 18.490569101835007 1.6371414948939649 15.917209001142085 0 0 0
1521 507 2 0.4238 20.944582709904083 5.725677365645463 13.816886454311835 0 0 -1
1519 507 1 -0.8476 21.311380265584813 5.6025451585251815 14.739016285816032 0 0 -1
1520 507 2 0.4238 20.55654502571235 5.509149380200795 15.388266911852805 0 0 -1
19 7 1 -0.8476 22.794492436529087 3.4196965856541155 15.345219309861605 -2 0 0
21 7 2 0.4238 22.188363502430732 4.1321316550496325 14.991566215608652 -2 0 0
20 7 2 0.4238 22.321735564664916 2.538760554682744 15.323342872451624 -2 0 0
118 40 1 -0.8476 21.413407481337913 0.8956027232736296 15.606448180059783 -1 1 0
908 303 2 0.4238 0.12135479783029372 24.644592492526634 13.859996091983103 1 -1 1
119 40 2 0.4238 20.417611819284463 0.9170406929269178 15.517243854859622 -1 1 0
220 74 1 -0.8476 19.28771847820154 3.143551819792946 13.923661874038096 -1 1 -1
221 74 2 0.4238 20.162424219860366 2.822444735064263 13.56061165138201 -1 1 -1
110 37 2 0.4238 22.92315797161541 4.6876638809451645 18.092989574244918 0 0 -2
120 40 2 0.4238 21.77066811806181 0.07627360325135045 15.158017168480656 -1 1 0
1135 379 1 -0.8476 18.83849097134512 5.369787729205621 15.782088465766789 1 0 0
909 303 2 0.4238 23.86820726926956 23.89957002059579 13.128574774607197 0 -1 1
907 303 1 -0.8476 24.843864468156013 24.108986675506102 13.063280570670747 0 -1 1
109 37 1 -0.8476 22.420261238152605 5.539680792346701 17.947430537729137 0 0 -2
811 271 1 -0.8476 0.7265486687811589 5.059982979337135 14.984506825287992 1 0 -1
812 271 2 0.4238 0.41081763842928787 4.470452297384158 15.728007444534672 1 0 -1
813 271 2 0.4238 0.030222422239490787 5.750250836035908 14.787817278596085 1 0 -1
558 186 2 0.4238 23.645485754313054 2.9884545231518307 16.89174960663174 0 0 1
298 100 1 -0.8476 2.2601499143120827 8.717285598082722 12.496203573025959 0 -1 0
300 100 2 0.4238 2.252035193040307 7.91121891279096 13.087994097783628 0 -1 0
394 132 1 -0.8476 3.8222404436915047 4.794017874728606 12.363229219295734 0 -1 1
396 132 2 0.4238 4.808044009188598 4.657845244640097 12.461585325880254 0 -1 1
1320 440 2 0.4238 6.030090456706026 6.777821647202654 14.158426031224653 1 -1 1
576 192 2 0.4238 3.118769500581681 10.909264510184837 15.183809390929442 0 0 -1
575 192 2 0.4238 3.1004371352428817 9.953520051589184 13.859834044032604 0 0 -1
1387 463 1 -0.8476 3.0549236892804865 6.574864124797017 14.460463864447984 0 1 -1
1388 463 2 0.4238 3.2139889128621637 7.119399783733108 15.283995626160293 0 1 -1
395 132 2 0.4238 3.4520343159007023 5.174020566583292 13.21091501742008 0 -1 1
1062 354 2 0.4238 3.611597255540778 8.222262000098848 17.11255395220742 1 0 1
1453 485 1 -0.8476 5.287140711826037 8.778317150792525 17.593648149722398 2 1 0
1060 354 1 -0.8476 2.6523019565842696 8.07742823100566 16.87006296967534 1 0 1
574 192 1 -0.8476 3.673910146807673 10.328812239740424 14.588058066911191 0 0 -1
1389 463 2 0.4238 2.2092331072704554 6.051525619112155 14.565104351834972 0 1 -1
258 86 2 0.4238 5.609438463093636 9.59985398241542 13.993661224929333 0 0 -1
18 6 2 0.4238 2.038282006314582 10.196545100530898 16.72025657328049 0 0 0
16 6 1 -0.8476 1.6780268237252505 11.103853078500018 16.503383009156416 0 0 0
1097 366 2 0.4238 0.8123977583023658 9.6493572790741 12.782049616890696 0 0 0
17 6 2 0.4238 2.214723108230437 11.798741288801374 16.982042485908323 0 0 0
165 55 2 0.4238 0.07679224200592927 11.569232574039104 15.519465180123488 0 0 -1
147 49 2 0.4238 4.980223259264919 11.205418472335031 12.413240257895753 0 0 -1
1318 440 1 -0.8476 7.021749903347221 6.774991453641878 14.287379756295199 1 -1 1
1329 443 2 0.4238 9.867313929573307 6.031402563601115 16.155504625766735 1 1 1
257 86 2 0.4238 7.1565284322453575 9.624099854627458 14.515790410790327 0 0 -1
256 86 1 -0.8476 6.556078460014885 9.790237037953496 13.733560498137285 0 0 -1
117 39 2 0.4238 7.030437416311719 8.05008955011097 11.255536544753017 0 0 -1
1319 440 2 0.4238 7.47080783043641 7.004972847836238 13.423966565023184 1 -1 1
1455 485 2 0.4238 5.73928098873746 9.435459746504515 16.99052449151253 2 1 0
865 289 1 -0.8476 8.534547973416899 7.447756120562037 12.147345816332697 -1 0 -1
867 289 2 0.4238 8.926333943811791 8.30481836379109 12.48197013624676 -1 0 -1
866 289 2 0.4238 9.012582220400063 7.165005650617726 11.315744464198799 -1 0 -1
906 302 2 0.4238 9.574136056060853 10.345063331132456 12.936250688158061 0 0 -1
954 318 2 0.4238 7.9388048526342105 10.944692106440208 16.631198629964526 0 0 -2
905 302 2 0.4238 8.028975915605761 10.026422844372773 12.514774103969211 0 0 -1
70 24 1 -0.8476 11.803877018272702 10.26219490125615 17.56935444447603 0 -1 -1
72 24 2 0.4238 11.377744314159733 9.965407316570385 18.423961620710436 0 -1 -1
71 24 2 0.4238 11.630551113465074 11.237385789434528 17.431563697073937 0 -1 -1
952 318 1 -0.8476 7.8370018515977895 10.069000672914315 16.159152805928397 0 0 -2
1327 443 1 -0.8476 9.152045937094815 6.730139250529126 16.169087193054633 1 1 1
1328 443 2 0.4238 8.53643385079723 6.59207929202154 15.39320881566583 1 1 1
953 318 2 0.4238 8.494163309375397 9.41240658277845 16.52935412387199 0 0 -2
1253 418 2 0.4238 11.375696501596948 7.386487952085585 15.62692544148701 0 -1 0
1368 456 2 0.4238 10.696818456063019 11.425649004695828 15.043233482718842 1 0 0
1366 456 1 -0.8476 10.48649144670213 10.75904277154079 14.32809400295429 1 0 0
1254 418 2 0.4238 11.444808567837834 8.825927537316623 16.394995673718974 0 -1 0
842 281 2 0.4238 13.084734737351036 7.130818778239301 12.946328150344199 0 0 -1
841 281 1 -0.8476 13.402922377568865 8.023780361671651 13.26476634980512 0 0 -1
1252 418 1 -0.8476 11.509503910887323 8.370248623623963 15.507190804135938 0 -1 0
843 281 2 0.4238 12.965985298412573 8.241517462786566 14.13752184559836 0 0 -1
1367 456 2 0.4238 10.852018417192648 9.865166115513269 14.5877110925943 1 0 0
897 299 2 0.4238 14.940662178384466 9.381566730247423 15.493492426793678 -1 2 -1
895 299 1 -0.8476 15.289723222492883 8.449349643342046 15.589168285172143 -1 2 -1
939 313 2 0.4238 14.007843181743382 9.126871619953487 12.29781159937512 0 1 1
1127 376 2 0.4238 15.009552029638744 11.231702790548562 13.440562988458717 -1 1 1
1126 376 1 -0.8476 15.315689459685672 11.095767818099366 14.382808754821022 -1 1 1
1128 376 2 0.4238 16.310096153289656 11.191685615496704 14.427314150717407 -1 1 1
858 286 2 0.4238 14.344833227489554 7.188225153071966 16.497005138844855 0 1 0
857 286 2 0.4238 13.0602584735668 6.197139837404806 16.68224095515777 0 1 0
149 50 2 0.4238 15.696798191681742 8.418257743333182 17.307375677235044 -1 1 -1
582 194 2 0.4238 14.193036176018564 11.323610534805445 15.945395688806258 -1 1 -1
580 194 1 -0.8476 14.245780389156103 11.362663178436174 16.943252771474754 -1 1 -1
1536 512 2 0.4238 18.743843614897077 11.50077088237224 16.029078059273143 -1 0 -1
856 286 1 -0.8476 13.973821146991288 6.421760075167565 17.02132131200981 0 1 0
511 171 1 -0.8476 20.59831464876478 6.133040327294842 12.221280440739637 -1 -1 1
512 171 2 0.4238 20.080191511712663 6.961163091594213 12.007300679965194 -1 -1 1
896 299 2 0.4238 15.510126303217504 8.081597853202771 14.685726545849576 -1 2 -1
755 252 2 0.4238 20.012917059845275 9.195222149987293 12.362644058854151 0 -1 0
441 147 2 0.4238 23.122227552597536 6.163225044937761 14.162428831774001 -2 1 0
1464 488 2 0.4238 23.468938095109777 10.460952737906863 11.801694808072913 0 0 -1
769 257 1 -0.8476 20.315221826466058 10.087451369791733 13.828269491583095 0 -1 1
770 257 2 0.4238 19.50471158224356 10.645413083773635 14.006531239381308 0 -1 1
771 257 2 0.4238 20.43896128088716 9.431823053003878 14.573162388455653 0 -1 1
205 69 1 -0.8476 19.69963060132449 8.198872779830175 16.373157056992504 1 1 0
206 69 2 0.4238 19.29027781010934 7.374210920554642 15.98278695498861 1 1 0
207 69 2 0.4238 20.693244825679734 8.160053776153402 16.267091719671782 1 1 0
439 147 1 -0.8476 23.83923845630488 6.72373560446401 13.748001755561718 -2 1 0
440 147 2 0.4238 23.556387308845224 7.682906111641255 13.751613679502084 -2 1 0
1271 424 2 0.4238 19.151966314195253 9.801764902401384 17.1947123413745 -1 0 -1
1400 467 2 0.4238 23.13932362823869 8.52658063167826 16.682386402786484 -1 1 -1
1399 467 1 -0.8476 22.526555885524104 9.010553501510792 16.057636874498627 -1 1 -1
1401 467 2 0.4238 22.949909567934185 9.871615889972512 15.775911506929182 -1 1 -1
1272 424 2 0.4238 20.17741393849307 11.066433699491256 17.32026773149718 -1 0 -1
1270 424 1 -0.8476 19.277446092762116 10.716096533999929 17.579781012549347 -1 0 -1
1534 512 1 -0.8476 18.37651355439049 11.582074363710639 15.102533902200527 -1 0 -1
294 98 2 0.4238 21.345058835258172 11.633846186194866 13.20186447849754 0 0 0
293 98 2 0.4238 22.751684528451182 11.966565977643352 13.96173025046853 0 0 0
164 55 2 0.4238 23.639140097975353 11.730151084990423 16.27229461720118 -1 0 -1
1096 366 1 -0.8476 24.91703959793406 10.023276924675741 13.014548483182919 -1 0 0
1098 366 2 0.4238 0.01640660829832541 10.714400614592233 13.73008742769237 0 0 0
163 55 1 -0.8476 24.103338081880363 11.357153695303024 15.468915158206418 -1 0 -1
1423 475 1 -0.8476 6.470504595039801 14.478981340279514 13.142830532707128 0 0 0
702 234 2 0.4238 0.5550906077777604 13.894394311968009 17.044618704889654 0 0 0
1333 445 1 -0.8476 2.0630280754757284 16.25790783809445 14.38357728403608 0 0 0
234 78 2 0.4238 3.233394166135686 15.939527171674868 12.609982006545133 0 0 -1
1334 445 2 0.4238 1.8081314957189392 16.989132059490608 15.016321539106274 0 0 0
40 14 1 -0.8476 5.980973201625687 13.875070618572156 16.150195222117066 0 0 -1
41 14 2 0.4238 5.873509949359991 13.345832563692785 16.99185097259721 0 0 -1
1335 445 2 0.4238 1.404460140910089 15.508960006341775 14.457005082784955 0 0 0
1465 489 1 -0.8476 0.1757530410479118 14.240295624039634 14.030453023793012 0 -1 1
1466 489 2 0.4238 0.6954992974297346 14.024676836431597 13.203774274226145 0 -1 1
232 78 1 -0.8476 4.184783468035502 16.02449216167032 12.313898788968267 0 0 -1
233 78 2 0.4238 4.781571489623751 15.570364210171602 12.975440839415795 0 0 -1
915 305 2 0.4238 6.955108295750411 16.30130307134793 13.869663850955968 0 1 0
1205 402 2 0.4238 0.2280067143302466 17.641402547186853 17.09029921444761 0 0 1
918 306 2 0.4238 5.010662778049697 15.423334726222816 15.78303934059907 1 0 0
701 234 2 0.4238 24.80520219860355 14.197481816161025 15.627318775915375 -1 0 0
700 234 1 -0.8476 24.66990320885498 14.024550876983893 16.602928572965894 -1 0 0
1449 483 2 0.4238 23.816701999588112 16.445516729171004 17.8406953285008 0 0 -1
1425 475 2 0.4238 7.063136746396177 13.824016881500148 13.611695204074554 0 0 0
1467 489 2 0.4238 24.21641213894086 14.376849926698528 13.793315172501615 -1 -1 1
1447 483 1 -0.8476 24.48253628850853 16.947384218856783 18.392799803444824 0 0 -1
916 306 1 -0.8476 4.636881901103133 16.313082589596807 15.521005022981802 1 0 0
917 306 2 0.4238 3.7772655141508023 16.181202169271614 15.027352711965595 1 0 0
1415 472 2 0.4238 5.769030560547626 18.01250094645709 17.630465859277546 0 -1 0
297 99 2 0.4238 4.244597764427564 17.255675188465414 16.746468592306652 0 -1 1
1424 475 2 0.4238 6.497416702894387 14.307271439784284 12.158037746826485 0 0 0
190 64 1 -0.8476 11.281744505928973 12.697186208177788 16.959492495870677 0 0 -2
192 64 2 0.4238 11.978779232051805 13.164187473731474 16.415362182957345 0 0 -2
42 14 2 0.4238 6.411924647811511 13.30496603955358 15.450703754236487 0 0 -1
423 141 2 0.4238 7.76544013901799 11.575340525405036 14.517122784334214 0 0 0
780 260 2 0.4238 12.177337920724854 11.932004910921762 13.200733216447292 -1 0 0
779 260 2 0.4238 12.312779801211889 13.03360034169737 12.002886348576144 -1 0 0
778 260 1 -0.8476 12.568920215044427 12.815820066295409 12.944687408985452 -1 0 0
1083 361 2 0.4238 7.521918617546735 15.05868527719163 16.556679081932476 1 0 -1
646 216 1 -0.8476 10.704568667032488 16.55594818982384 13.340058262818161 1 -1 1
647 216 2 0.4238 11.450234679154178 16.954415242345544 13.874129068093266 1 -1 1
1227 409 2 0.4238 10.565872331379024 13.622510512935404 13.05535226853905 0 0 0
421 141 1 -0.8476 7.670213963366888 12.566427868871848 14.423831813301046 0 0 0
422 141 2 0.4238 8.551238459657327 12.963134254604078 14.166061964855036 0 0 0
1226 409 2 0.4238 10.020593516458986 14.79895244423288 14.04800001815157 0 0 0
1225 409 1 -0.8476 9.928970264513183 13.83547619957684 13.796316022358257 0 0 0
61 21 1 -0.8476 11.013680469108323 16.273692871919295 16.66697293669134 0 -1 1
62 21 2 0.4238 11.729693710605808 15.877710237928294 16.092039524888936 0 -1 1
1082 361 2 0.4238 7.566561130132802 16.364256414260474 17.53656956343437 1 0 -1
491 164 2 0.4238 9.84957882094827 17.601760660334765 17.822861918724012 0 -1 0
913 305 1 -0.8476 7.083681217397802 16.969806814603903 14.60219225190581 0 1 0
914 305 2 0.4238 6.2791560030291205 16.97232928905853 15.196127835000492 0 1 0
1414 472 1 -0.8476 6.719734901222588 18.1813417191022 17.370312180466684 0 -1 0
29 10 2 0.4238 14.412025830158896 14.871394958729494 11.936955726820392 -1 0 -1
428 143 2 0.4238 12.791604212925815 13.741604816817285 14.430715361375391 0 -1 0
581 194 2 0.4238 13.341824168294766 11.184529767554547 17.332042469654535 -1 1 -1
429 143 2 0.4238 13.791612877515451 14.608701115208879 15.387178280017343 0 -1 0
427 143 1 -0.8476 12.884712731070987 14.193013207502196 15.318176644653043 0 -1 0
349 117 1 -0.8476 17.39462247252851 13.819839719943456 13.584085711891998 0 -1 1
351 117 2 0.4238 16.53161369192175 14.163714408488145 13.213962180533366 0 -1 1
362 121 2 0.4238 15.623162535593973 16.722845071252973 16.42777305024557 0 0 0
876 292 2 0.4238 17.652165927259002 15.945771110391677 15.98053599496315 -1 0 -1
759 253 2 0.4238 13.55150602127054 18.130115744690922 14.76122401983395 0 0 0
737 246 2 0.4238 15.10545376270483 12.399359100408253 17.942321406499072 0 -2 -1
757 253 1 -0.8476 12.653494709877604 17.690363516439646 14.746423725547077 0 0 0
758 253 2 0.4238 12.059177867430122 18.123219854251204 15.424249845196657 0 0 0
736 246 1 -0.8476 15.606371477888851 13.168324349512146 18.33956102835282 0 -2 -1
361 121 1 -0.8476 15.804850898540895 15.801086612347069 16.770374939688654 0 0 0
363 121 2 0.4238 16.42382644556178 15.85277501332992 17.55409872189529 0 0 0
738 246 2 0.4238 15.759471283143748 13.864422513946415 17.63811026584862 0 -2 -1
1430 477 2 0.4238 14.557952312163943 15.434942238636564 18.20940870918515 -1 1 1
875 292 2 0.4238 18.240354677617713 14.953252503509152 14.824839155093349 -1 0 -1
1535 512 2 0.4238 17.97459202544693 12.489765353760214 14.981778382864986 -1 0 -1
874 292 1 -0.8476 18.48333490013467 15.55152557791803 15.58842062357778 -1 0 -1
292 98 1 -0.8476 21.92680745688759 12.364204318882393 13.559875124197495 0 0 0
1547 516 2 0.4238 21.321365871968606 17.25210080383379 15.764468211412092 0 0 1
1548 516 2 0.4238 20.111337127492416 16.256290251583412 15.3052450321759 0 0 1
1546 516 1 -0.8476 20.962848494296672 16.693827700525212 15.016255800871258 0 0 1
523 175 1 -0.8476 22.506208879127353 14.91769834691133 13.176431984762498 -2 -1 0
524 175 2 0.4238 21.796018464598635 15.561880912359864 13.460480862146369 -2 -1 0
525 175 2 0.4238 22.11781397379316 13.998081308637897 13.117446497364151 -2 -1 0
507 169 2 0.4238 17.429720635126216 16.97841583895585 11.127873034271886 0 -1 1
352 118 1 -0.8476 21.51874249676408 11.958456225557276 17.072295798834123 -2 0 -1
353 118 2 0.4238 21.28563393067979 12.005913961121445 16.100990597530167 -2 0 -1
354 118 2 0.4238 21.60966029097668 12.88439986430336 17.438885934401675 -2 0 -1
411 137 2 0.4238 23.909440249574665 15.68370856558998 11.948177615711865 -1 1 -1
420 140 2 0.4238 20.511922139008004 17.637485279562085 13.72308460363605 -1 0 -1
418 140 1 -0.8476 20.04561052275562 18.3334850618087 13.177040370328585 -1 0 -1
419 140 2 0.4238 19.14674446101647 17.99334918010375 12.900682167577623 -1 0 -1
458 153 2 0.4238 23.00764268312915 17.00616306218047 14.739328201915374 0 0 0
46 16 1 -0.8476 1.47010669749474 18.02492482130704 11.048317524718971 0 0 1
48 16 2 0.4238 2.24468994712016 18.38579109482379 11.56776116561274 0 0 1
500 167 2 0.4238 4.682286767583687 17.681861005646205 12.422824650781811 0 0 0
535 179 1 -0.8476 3.5206268171455517 20.553820864596258 11.15601496067342 1 0 1
888 296 2 0.4238 1.0822825933666351 22.603302267770648 12.136736846750356 0 1 1
358 120 1 -0.8476 4.106457226737911 20.948634368269772 13.956257947362518 -1 0 0
359 120 2 0.4238 3.747361770372685 20.730733878788584 13.048736488455425 -1 0 0
360 120 2 0.4238 5.094204454964581 20.79310118685358 13.97005034368932 -1 0 0
1532 511 2 0.4238 3.559388331043934 20.353785594197824 15.804707181421229 1 0 1
1206 402 2 0.4238 1.105382889524969 18.89040712284904 16.50987457462756 0 0 1
1531 511 1 -0.8476 3.0593884247524965 20.180758211205184 16.6532865732873 1 0 1
1204 402 1 -0.8476 0.7156006186138536 17.99556394199429 16.292272086169987 0 0 1
1055 352 2 0.4238 1.9461030413332625 22.770258868170153 15.231250973845947 1 0 0
1236 412 2 0.4238 0.3946899497206782 21.361029588464902 16.327106796848806 1 0 1
1056 352 2 0.4238 3.402705560831543 22.31703619607506 14.648505355210965 1 0 0
1054 352 1 -0.8476 2.8838591432361445 23.069309770183704 15.054594423079395 1 0 0
1234 412 1 -0.8476 0.473634293581777 21.87696795642617 15.474111339815401 1 0 1
1533 511 2 0.4238 3.4544569458585523 20.728758783024407 17.390607134335315 1 0 1
295 99 1 -0.8476 3.9325417337999093 17.798656734418625 17.5260951009872 0 -1 1
296 99 2 0.4238 3.5436996911740257 18.65969500804919 17.19831413639695 0 -1 1
686 229 2 0.4238 11.034488241892381 21.050535164838458 13.079309346471247 0 1 -1
720 240 2 0.4238 10.454534194951126 24.563349103445862 14.27902980074955 0 0 0
648 216 2 0.4238 9.846441557891888 17.01381277415016 13.572444284562389 1 -1 1
685 229 1 -0.8476 11.420406132001668 20.915676264565633 13.991946517713714 0 1 -1
462 154 2 0.4238 8.969388176394858 18.926301477064623 16.336839795562113 0 0 -1
1412 471 2 0.4238 6.320373738956905 19.755401984952286 13.173116937719879 -1 1 -1
460 154 1 -0.8476 9.030960313496779 18.84797524374306 15.34180248130653 0 0 -1
490 164 1 -0.8476 9.78403293615423 18.58324287848168 18.002922407555804 0 -1 0
44 15 2 0.4238 6.9814230785183105 22.426798015781277 15.006047132691844 -1 0 1
614 205 2 0.4238 12.050350348253748 21.72642404644542 15.44686404637173 0 0 1
615 205 2 0.4238 11.377808746066037 21.91831577020674 16.922520186003478 0 0 1
613 205 1 -0.8476 12.225802339565009 21.985253908231645 16.396732801024733 0 0 1
461 154 2 0.4238 8.321533400669868 18.225131099091776 15.011947938545548 0 0 -1
1413 471 2 0.4238 7.430446374560004 20.047070358882717 14.334737548456093 -1 1 -1
1411 471 1 -0.8476 6.7114009770721506 20.454531598923 13.771732727407036 -1 1 -1
687 229 2 0.4238 10.733582432251296 20.496365560651178 14.585644656991393 0 1 -1
492 164 2 0.4238 10.656432956853232 19.021013945457728 17.785436497813834 0 -1 0
43 15 1 -0.8476 7.351720672894722 23.23993453804317 14.55692125458909 -1 0 1
45 15 2 0.4238 7.54926394226526 23.03088918712964 13.599162365825013 -1 0 1
1416 472 2 0.4238 7.198392314974968 18.6264478403507 18.127143307049405 0 -1 0
634 212 1 -0.8476 17.285887415944842 20.106444807501006 14.004772490296602 -1 -1 1
635 212 2 0.4238 17.49239829983183 19.9129565752112 13.045636334868327 -1 -1 1
328 110 1 -0.8476 14.063161727686825 20.559319863110982 12.71124722967952 -1 0 -2
329 110 2 0.4238 13.473898183472459 21.121582341704737 13.291466960234906 -1 0 -2
228 76 2 0.4238 14.45781213926386 22.789861585912345 14.463576948341078 -1 -1 -1
330 110 2 0.4238 15.018886695383522 20.703158640047683 12.968007101309091 -1 0 -2
340 114 1 -0.8476 12.258919715303772 19.545761397787455 17.485961930860036 0 -1 0
342 114 2 0.4238 12.98142196843347 19.472011416753414 18.1734044771491 0 -1 0
611 204 2 0.4238 15.971993288030182 20.965327955346694 15.07080984294665 1 0 0
633 211 2 0.4238 13.645151052224682 24.210341090972886 17.81808179677133 0 -1 0
661 221 1 -0.8476 15.118035337720483 18.65416880681152 15.280669700926415 0 0 -1
662 221 2 0.4238 15.183245716082805 19.151194950045905 16.145966741788474 0 0 -1
663 221 2 0.4238 15.699219318670385 19.096494282942647 14.597589003194278 0 0 -1
610 204 1 -0.8476 15.169063448212025 21.492681615590346 15.348709038177363 1 0 0
612 204 2 0.4238 14.899214365430245 21.22626392249862 16.274035582413717 1 0 0
1492 498 1 -0.8476 15.76251983274859 20.143883305736477 17.576545032595025 1 0 0
473 158 2 0.4238 18.2200956363518 23.874887270303194 13.615461752651402 -1 0 0
631 211 1 -0.8476 13.723783711109043 24.181669547616874 16.821577792110375 0 -1 0
632 211 2 0.4238 13.166978859024942 23.431566253816648 16.464732155602785 0 -1 0
341 114 2 0.4238 12.297971343823331 20.44818755062554 17.05686066981127 0 -1 0
744 248 2 0.4238 17.83264744952538 23.38813791352005 16.02910995681851 -1 -1 1
636 212 2 0.4238 18.09877529213133 19.935967018399413 14.561707534529038 -1 -1 1
128 43 2 0.4238 18.99460825593252 20.705156519777024 11.264868724511736 -1 -1 1
884 295 2 0.4238 23.77086433172687 20.319410096071717 13.2243843651057 0 0 0
304 102 1 -0.8476 21.217746114961376 20.238578863694446 11.340860079217792 0 0 -1
305 102 2 0.4238 22.13460735765199 19.999527190125644 11.660619173112483 0 0 -1
306 102 2 0.4238 20.543506541209133 19.658705118207564 11.798215358353879 0 0 -1
32 11 2 0.4238 22.687485897786875 22.081511318814968 14.522100381341556 -1 -2 0
31 11 1 -0.8476 22.548094672648922 23.07050582132774 14.571953506126919 -1 -2 0
883 295 1 -0.8476 23.286973977267323 20.441123868055072 14.091022639682224 0 0 0
885 295 2 0.4238 22.77621808349426 19.609035219227057 14.307315843138072 0 0 0
33 11 2 0.4238 23.135645916804226 23.454440912471373 15.28427560917099 -1 -2 0
457 153 1 -0.8476 23.70588048889539 17.675254279853686 14.484757413024079 0 0 0
1293 431 2 0.4238 19.97736289666584 18.878039896923188 17.717517727843585 0 -1 1
743 248 2 0.4238 19.205196745235067 23.25636749896412 15.154215980991966 -1 -1 1
1291 431 1 -0.8476 20.73143552415912 18.321828569249707 18.06684484845212 0 -1 1
1287 429 2 0.4238 18.593989861966357 21.01800762634977 16.033194346746168 0 -1 1
1285 429 1 -0.8476 18.86066829565504 20.201160690315124 16.544731138710567 0 -1 1
1286 429 2 0.4238 18.10411181895827 19.914050779000725 17.132281806068825 0 -1 1
742 248 1 -0.8476 18.694821712300836 22.890777158780963 15.932603538791415 -1 -1 1
1292 431 2 0.4238 21.395245396713232 18.91147498160769 18.526953035454923 0 -1 1
1174 392 1 -0.8476 24.24204889194435 24.457134525973444 16.110262929075688 0 -1 0
179 60 2 0.4238 20.322388205981547 24.459297124905444 12.977096891737839 -2 -1 1
1175 392 2 0.4238 24.953123690171726 0.08312488823926145 15.794994874715375 0 0 0
459 153 2 0.4238 24.50497466852176 17.564345923694855 15.075666738275423 0 0 0
1235 412 2 0.4238 24.6144051958973 21.821110148432506 14.969806814833262 0 0 1
1176 392 2 0.4238 24.370048792438766 24.27059151185418 17.08434870676063 0 -1 0
141 47 2 0.4238 3.8795929960632876 24.185203831694864 14.22479316787213 -2 -1 0
140 47 2 0.4238 5.271810233324588 0.031816416340184436 14.310977977358593 -2 0 0
139 47 1 -0.8476 4.560885827020768 24.692038587622964 13.696603793212047 -2 -1 0
719 240 2 0.4238 8.90528335492562 24.253036335822106 14.691609898356422 0 0 0
718 240 1 -0.8476 9.719603701404134 24.786967379053625 14.919262606978206 0 0 0
1563 521 2 0.4238 9.354931227989578 0.4244353705220066 19.926631037790692 0 0 0
1561 521 1 -0.8476 9.301998185708264 0.3969970867059003 18.9283969316828 0 0 0
1562 521 2 0.4238 10.208208774920006 0.5681549239997838 18.541727794676774 0 0 0
227 76 2 0.4238 15.10127767084087 23.944061442279793 13.504166221948452 -1 -1 -1
226 76 1 -0.8476 14.25463890862265 23.594195037781663 13.905192009574504 -1 -1 -1
474 158 2 0.4238 16.809546462744184 23.6986465169292 12.811730225386158 -1 0 0
472 158 1 -0.8476 17.248130185574254 24.110017921845667 13.610756690166665 -1 0 0
591 197 2 0.4238 15.523253703381728 24.54057469837955 16.227087247595755 -1 -2 1
1078 360 1 -0.8476 20.495183437532553 0.5124371467616595 11.39320569821598 0 0 1
180 60 2 0.4238 20.888529319928306 23.37278007090566 14.056753817016862 -2 -1 1
178 60 1 -0.8476 20.09985164939062 23.92928475340237 13.795381535930746 -2 -1 1
561 187 2 0.4238 3.3896676530494236 4.154889900895234 18.36555995380424 2 1 0
1343 448 2 0.4238 6.648032973814088 3.598679584095251 18.67143668344836 1 -1 1
1344 448 2 0.4238 5.940693053061987 2.417816526935501 19.550030594832666 1 -1 1
477 159 2 0.4238 0.1360300031512432 3.549465135859148 19.196115088105373 0 0 0
475 159 1 -0.8476 0.5907556792407482 3.821768970099243 20.044113065202495 0 0 0
707 236 2 0.4238 2.103888823086904 3.7443537472170307 20.078720556185715 0 1 -1
706 236 1 -0.8476 3.0901090112348824 3.742197452197548 20.244221421590396 0 1 -1
708 236 2 0.4238 3.4234453484989356 2.7995015193867276 20.25960450489647 0 1 -1
934 312 1 -0.8476 3.1687345077018945 0.5904377647694682 20.455171632976732 0 0 0
393 131 2 0.4238 3.4118142676183423 5.7337266708624695 22.594261936244372 0 1 -1
935 312 2 0.4238 2.6591019295925657 0.1569344022143701 19.71195182514825 0 0 0
1364 455 2 0.4238 4.8697110476356675 1.2506846808394183 20.703524561661094 1 1 0
1363 455 1 -0.8476 5.665370799585775 1.723670124144482 21.081989516151275 1 1 0
392 131 2 0.4238 3.7454528483606127 5.464656708800508 21.018514243494682 0 1 -1
323 108 2 0.4238 6.491728493661922 3.0477353967821545 21.615053726292327 -1 0 -1
936 312 2 0.4238 2.695745404082744 0.4300553422234217 21.321534623336852 0 0 0
1365 455 2 0.4238 6.195396382110939 1.0878271090048908 21.643061641451407 1 1 0
381 127 2 0.4238 2.2985282351442624 0.12295391423272094 23.458595292277725 0 1 -1
123 41 2 0.4238 5.487299287231568 0.013542399378502438 18.587614425836897 -1 1 0
1342 448 1 -0.8476 6.430958966796061 2.6230199530926677 18.702943157594436 1 -1 1
98 33 2 0.4238 8.700128772288863 3.070304621606142 19.892883378745275 -1 -1 1
97 33 1 -0.8476 9.352103681592332 3.673589283155748 19.433533907798974 -1 -1 1
99 33 2 0.4238 9.169356927551714 4.621708694335701 19.693723828664236 -1 -1 1
322 108 1 -0.8476 7.160448045549161 3.783535937395654 21.721998137680053 -1 0 -1
324 108 2 0.4238 7.167828806197762 4.0915582603217455 22.673361970936348 -1 0 -1
214 72 1 -0.8476 10.451825484998471 5.689914799063569 22.21226747135353 0 0 1
1543 515 1 -0.8476 8.273339034195535 6.147027157272254 20.803150051425867 0 0 -1
1544 515 2 0.4238 7.658106501276663 5.366652438882077 20.915085848180052 0 0 -1
1545 515 2 0.4238 9.055315866119741 6.045886212019426 21.418217651645808 0 0 -1
216 72 2 0.4238 11.040378341491992 6.485595109212109 22.35552865596417 0 0 1
809 270 2 0.4238 9.071745798664825 7.129989633979897 19.496207930515673 0 -1 1
1021 341 1 -0.8476 9.26397583716897 24.51664353607011 0.08397537526097341 0 -1 1
215 72 2 0.4238 11.017506074080256 4.8735253831672365 22.095909330863527 0 0 1
1162 388 1 -0.8476 12.891458570241383 1.4993308741269118 20.203292960085296 -1 1 -2
899 300 2 0.4238 10.322469805237251 24.874929864861407 21.797874939320522 0 0 0
732 244 2 0.4238 7.6980543889745165 24.788827695669617 23.55293656471437 0 -2 0
275 92 2 0.4238 12.404420163887783 1.7901364746065331 24.315956596225753 -1 0 0
1022 341 2 0.4238 9.854243358752365 24.357362412896595 24.295125691647403 0 -1 0
900 300 2 0.4238 9.920624910224129 1.3744641773557098 22.29697258106375 0 1 0
1023 341 2 0.4238 9.408405933060246 0.4426734168361804 0.4260174729856412 0 0 1
898 300 1 -0.8476 9.643807052344448 0.6031539490104573 21.723842446948527 0 1 0
274 92 1 -0.8476 11.5526921769018 2.1244606478758783 23.912456701762533 -1 0 0
1216 406 1 -0.8476 14.751113540797144 1.9215783273807574 18.10028286980346 0 0 0
1164 388 2 0.4238 13.477755799808904 1.7455378177830794 19.431500078757605 -1 1 -2
681 227 2 0.4238 15.53361370017052 0.44600840720461027 19.45941884235306 0 0 0
679 227 1 -0.8476 16.008057774341285 24.60953349388566 19.725960330004554 0 -1 0
176 59 2 0.4238 13.391222566933259 5.101723534650599 18.774242444615247 -1 0 -1
820 274 1 -0.8476 11.919501607644886 3.560435547766702 21.792223064804 0 0 0
821 274 2 0.4238 12.04793895058767 2.8322754690110177 21.11893845264161 0 0 0
822 274 2 0.4238 11.644650766223272 3.1610149914679533 22.66683479524538 0 0 0
855 285 2 0.4238 15.372206661997176 3.1224850747105517 22.207092074478695 -2 0 0
853 285 1 -0.8476 14.70292267328422 3.1243428229499637 22.950113529230777 -2 0 0
854 285 2 0.4238 13.783234104636673 3.223089017483466 22.57005103111696 -2 0 0
175 59 1 -0.8476 13.697055481478474 5.0037793366338255 19.721289788443794 -1 0 -1
177 59 2 0.4238 12.948119733387573 4.644216666776623 20.27791850859692 -1 0 -1
1032 344 2 0.4238 16.82764449939284 4.101398569241478 21.184593958293792 1 0 0
1030 344 1 -0.8476 16.73646093608119 3.1067908447527044 21.134926662206222 1 0 0
1031 344 2 0.4238 17.39220680006911 2.7446259713671557 20.472462016462757 1 0 0
680 227 2 0.4238 16.867002447279866 24.842805707067072 20.18183787488402 0 -1 0
486 162 2 0.4238 16.405473151538697 1.9817213078014133 23.515673305791967 -1 1 0
1481 494 2 0.4238 17.366146388714345 4.605084342812792 24.547824876091155 0 0 0
403 135 1 -0.8476 18.253786303754314 2.9861240280189403 18.29510725087776 0 1 0
416 139 2 0.4238 12.874545221266853 7.123520337943647 19.544991287319576 0 1 0
3 1 2 0.4238 15.094153990758665 5.442457830956673 20.409605908049095 -1 -1 -2
1 1 1 -0.8476 15.90746161596352 5.729846920377151 20.915534409510236 -1 -1 -2
467 156 2 0.4238 18.849649181109278 1.2745095841441785 21.093692628103625 0 2 1
466 156 1 -0.8476 18.572752764243646 0.8719850569619153 20.221151176812846 0 2 1
831 277 2 0.4238 19.883452029786856 1.2261924323390647 23.18200293761091 -1 0 -1
404 135 2 0.4238 18.946508475105905 3.670338776757962 18.52316774820703 0 1 0
468 156 2 0.4238 18.770302981293856 1.5139553257441616 19.48029081790968 0 2 1
240 80 2 0.4238 21.141570767189968 1.4381576005536183 17.48742889491743 -1 1 0
238 80 1 -0.8476 21.147205698399993 1.5976815121948957 18.474619732149 -1 1 0
239 80 2 0.4238 21.162985513360976 0.7201873805335889 18.953973921680788 -1 1 0
911 304 2 0.4238 20.4899942255644 2.4640299141408537 21.533774607507706 -1 0 -1
910 304 1 -0.8476 21.229382562605313 2.9554418075351445 21.073507375880176 -1 0 -1
912 304 2 0.4238 21.4769465198032 2.4738242562510733 20.23280390640392 -1 0 -1
1049 350 2 0.4238 22.73459019545835 3.5241530144986895 21.569081626966252 0 0 0
829 277 1 -0.8476 19.36156309129044 1.900317101720508 22.659304881718267 -1 0 -1
830 277 2 0.4238 18.461447133422933 2.0222397953819393 23.07757691208195 -1 0 -1
1245 415 2 0.4238 20.44233487699396 4.488454794031146 20.044355112949688 -1 0 -1
1243 415 1 -0.8476 20.161519480314173 4.556430866983152 19.08699004111683 -1 0 -1
951 317 2 0.4238 23.251143413010183 24.37290431950994 22.13489982601772 0 -2 0
111 37 2 0.4238 23.044200117055762 6.2398800871778635 17.60037635415168 0 0 -2
620 207 2 0.4238 23.825369848084073 1.6027874735335872 22.341808607467947 -1 0 1
1050 350 2 0.4238 23.770856972583573 4.266332601650749 22.589872871049476 0 0 0
1048 350 1 -0.8476 23.685917769105448 3.5740577533920024 21.87323749355721 0 0 0
619 207 1 -0.8476 23.777407163941685 0.9979431111380122 23.136722603508602 -1 0 1
83 28 2 0.4238 18.643130485129408 6.358519837544248 18.76977010682443 0 0 0
1244 415 2 0.4238 20.95546043962442 4.780771506644743 18.52187429191342 -1 0 -1
621 207 2 0.4238 24.03854760669316 1.5053814302710102 23.957903112746465 -1 0 1
476 159 2 0.4238 0.003155757489221145 3.601966740859279 20.82285482134309 0 0 0
923 308 2 0.4238 23.832259095543485 8.501019424514402 18.283214277449208 -1 1 0
1454 485 2 0.4238 5.032899973157585 9.23061786137892 18.44852305860904 2 1 0
1061 354 2 0.4238 2.122730494338198 7.896153548809561 17.69874810592351 1 0 1
182 61 2 0.4238 3.8884144190761094 12.948035689716342 18.285701155498007 1 -1 0
181 61 1 -0.8476 2.924546698245036 12.968589984711512 18.02006621497587 1 -1 0
391 131 1 -0.8476 3.9659661230221714 6.027263959050961 21.81530302737281 0 1 -1
1353 451 2 0.4238 4.2308472214533035 8.796644217910094 20.573972296072288 0 0 -2
471 157 2 0.4238 1.621054781152873 10.31531972554998 20.892535616548262 1 0 -1
1296 432 2 0.4238 4.786685861928624 7.40828510549192 22.648982611333835 0 0 0
1153 385 1 -0.8476 5.660350578351001 12.870130388104988 18.897393263497918 1 0 0
571 191 1 -0.8476 1.4586550783642458 7.862313423285712 22.428007591700663 1 1 -2
924 308 2 0.4238 24.98178614431051 7.360770006019223 18.49561238064871 -1 1 0
229 77 1 -0.8476 0.9681036184068634 6.528555294897176 19.83988120583905 -1 1 1
230 77 2 0.4238 0.8827506928211888 5.53340086070657 19.888960584765602 -1 1 1
231 77 2 0.4238 1.2682752927995236 6.881461007427143 20.726098144155767 -1 1 1
35 12 2 0.4238 0.8805063354047318 10.63886294683607 18.68951923488759 -1 0 0
34 12 1 -0.8476 0.49215185188219174 10.084555543944331 19.425691503406895 -1 0 0
157 53 1 -0.8476 4.285631533806908 12.154768841956349 21.154111172126576 -1 1 0
1351 451 1 -0.8476 4.480559894889915 9.54993399426935 19.965512161365933 0 0 -2
159 53 2 0.4238 4.809308762564584 12.503308028599301 21.931483675915704 -1 1 0
1352 451 2 0.4238 4.514550270745441 10.40246537057335 20.487107121440626 0 0 -2
158 53 2 0.4238 3.319298378623524 12.093093160807738 21.40395456894919 -1 1 0
1294 432 1 -0.8476 5.3140228562348035 8.023350646199274 23.235186900269213 0 0 0
469 157 1 -0.8476 1.8982538435230154 10.604579124550089 21.80878617220433 1 0 -1
272 91 2 0.4238 1.5883539936224476 11.72667411610566 23.31909330013887 0 -1 0
470 157 2 0.4238 2.035428550856455 9.799114997658108 22.385358833237248 1 0 -1
573 191 2 0.4238 1.609682465217904 7.799377513130129 23.414544548329605 1 1 -2
1295 432 2 0.4238 6.055768295429971 8.434423762479256 22.705226527393915 0 0 0
1154 385 2 0.4238 5.139018569464732 12.613844619324636 19.71136865871482 1 0 0
271 91 1 -0.8476 1.8968830680869522 12.544939947467038 23.804146819719698 0 -1 0
836 279 2 0.4238 9.337978673457819 8.886142378940988 23.240536377737985 1 0 1
1155 385 2 0.4238 6.525137850128222 12.368152926733496 18.883719535466525 1 0 0
808 270 1 -0.8476 9.782417596312335 7.295668633090087 18.81245187093226 0 -1 1
810 270 2 0.4238 9.442908027934452 7.034521180781533 17.90881398248765 0 -1 1
402 134 2 0.4238 9.931791983607074 11.12461553670981 20.719253312515256 -1 -1 0
12 4 2 0.4238 8.811954671492751 10.81522176954093 19.02313255482482 -1 0 0
10 4 1 -0.8476 8.456380881423717 11.472897823471667 18.35901289425925 -1 0 0
400 134 1 -0.8476 9.683143860693646 10.280795871384893 20.243681564341202 -1 -1 0
1120 374 1 -0.8476 9.967584997446377 12.252047385335413 22.75840682686527 0 0 -1
1122 374 2 0.4238 8.991666389014584 12.354802438866612 22.95089022778326 0 0 -1
1418 473 2 0.4238 6.473051497528486 9.225623480972972 20.412140556131494 0 1 0
1073 358 2 0.4238 6.7622076756617675 11.986109435299053 23.209729889403423 0 -2 0
401 134 2 0.4238 9.600761419986444 9.536514798242699 20.906467334094565 -1 -1 0
1417 473 1 -0.8476 6.830488165514097 9.23112762655446 21.34607534267045 0 1 0
1072 358 1 -0.8476 7.35607493558899 11.181538685296724 23.21333138831174 0 -2 0
417 139 2 0.4238 11.3216191676464 7.62231875738533 19.46552493391806 0 1 0
1419 473 2 0.4238 7.747580937756406 8.83250625448989 21.35433407446228 0 1 0
1074 358 2 0.4238 7.077571841424065 10.558414118698494 22.482457128819107 0 -2 0
92 31 2 0.4238 10.56889122150192 10.746722987538268 23.53151086265081 -1 0 -1
11 4 2 0.4238 8.977994588824966 12.32387201363881 18.420555315498643 -1 0 0
102 34 2 0.4238 11.713953802606014 8.591592468646214 23.108739937114084 0 1 -1
837 279 2 0.4238 9.152974146471147 7.418769349216558 22.548232938958186 1 0 1
835 279 1 -0.8476 9.131857792829337 8.405650113040963 22.38808826869675 1 0 1
415 139 1 -0.8476 12.244981823559216 7.870598744362872 19.758413718107725 0 1 0
1480 494 1 -0.8476 17.497070613349084 4.707294579503029 23.561702520888645 0 0 0
1482 494 2 0.4238 16.63672195341193 4.992142568268697 23.138988454278604 0 0 0
793 265 1 -0.8476 15.509653019942805 6.886969462686807 23.452343255429238 0 0 -1
2 1 2 0.4238 16.588530865298235 6.087288226536668 20.27646806816121 -1 -1 -2
795 265 2 0.4238 14.87530360445589 7.65915253288265 23.489219213135588 0 0 -1
903 301 2 0.4238 13.352189268098108 12.249496086880598 22.75344904797142 0 0 0
1527 509 2 0.4238 13.105470655877559 9.524049414353222 20.35257499490751 1 0 0
1525 509 1 -0.8476 13.857423299818002 10.084620924467526 20.699494227320525 1 0 0
1526 509 2 0.4238 14.661649938561998 9.96009418164298 20.118341664649705 1 0 0
794 265 2 0.4238 15.510767486703092 6.500265298842551 22.530125603830147 0 0 -1
100 34 1 -0.8476 12.097028331438775 7.747323331561028 22.733921427767655 0 1 -1
101 34 2 0.4238 12.084709881392248 7.790444174512913 21.73491480969665 0 1 -1
901 301 1 -0.8476 13.409147832389234 12.495899765614364 21.785943826306074 0 0 0
902 301 2 0.4238 13.428250413379232 11.664364892088713 21.23077694592472 0 0 0
84 28 2 0.4238 17.310927035339343 7.292711768727203 18.63115238917716 0 0 0
82 28 1 -0.8476 17.830852445767437 6.697842693406015 19.244206477652437 0 0 0
148 50 1 -0.8476 16.191333583082216 8.648218937224277 18.145575453283076 -1 1 -1
1108 370 1 -0.8476 18.477930258318107 11.970575762910677 22.056882509647863 0 1 -2
1109 370 2 0.4238 18.012355220561428 12.026636537055543 21.17363644807428 0 1 -2
584 195 2 0.4238 20.9998997780749 7.3377045619196455 20.474819643411585 -1 1 0
583 195 1 -0.8476 21.91307961671974 7.462109284072994 20.086680178206223 -1 1 0
585 195 2 0.4238 22.012366935973592 6.884534746813736 19.276386338777524 -1 1 0
290 97 2 0.4238 19.39192968189152 6.254079229410048 22.24637295004523 -1 0 0
289 97 1 -0.8476 19.50854185739127 7.003489751392327 21.594597563337082 -1 0 0
291 97 2 0.4238 18.80013876645897 6.946624681903534 20.891065282749164 -1 0 0
987 329 2 0.4238 22.337424774043278 8.941145200972828 19.61410452437154 -1 0 0
150 50 2 0.4238 16.314974518248718 9.639150430690599 18.198427528431985 -1 1 -1
529 177 1 -0.8476 22.76751643317138 10.550270354007537 22.804676040978567 -1 -1 -1
1277 426 2 0.4238 19.49824804367476 10.236633201243597 22.260071637356585 1 0 -1
617 206 2 0.4238 23.499611744142676 8.823303899724023 22.402017781262206 0 0 -1
531 177 2 0.4238 21.90649381860885 10.095531074032806 22.576909371339422 -1 -1 -1
530 177 2 0.4238 22.81204999401 11.433127874526187 22.337124158287896 -1 -1 -1
985 329 1 -0.8476 22.786988970917214 9.672969252081629 19.10190242785409 -1 0 0
986 329 2 0.4238 22.32239735827658 10.539975435202853 19.28212528736132 -1 0 0
618 206 2 0.4238 23.25648915703297 7.836563535028509 21.12376545932582 0 0 -1
1276 426 1 -0.8476 20.271654951367385 9.626482959649481 22.432073724997508 1 0 -1
1278 426 2 0.4238 20.037856052790577 8.700364874235317 22.13598309327912 1 0 -1
616 206 1 -0.8476 23.798400457748656 7.981983261780777 21.951539960141783 0 0 -1
15 5 2 0.4238 22.83766938332014 6.538671901918224 22.9865656894812 -1 0 0
197 66 2 0.4238 18.4124925058535 11.523947376299162 18.638620339962305 -1 1 -1
196 66 1 -0.8476 17.83969356401248 11.93842143730573 19.3458247096518 -1 1 -1
13 5 1 -0.8476 22.696609586773317 5.682928335303842 23.48439181617302 -1 0 0
922 308 1 -0.8476 24.200616988809074 7.6384273458589425 17.936410676196882 -1 1 0
572 191 2 0.4238 0.4768662632424025 7.906970285918619 22.24328651094095 1 1 -2
36 12 2 0.4238 24.50877165254342 9.99016156806007 19.287308027777517 -2 0 0
183 61 2 0.4238 2.453778780935057 13.6891281245414 18.52921036210963 1 -1 0
629 210 2 0.4238 0.6306949996588875 12.340190051726742 21.21640623066493 1 1 0
992 331 2 0.4238 5.000238385339904 13.209323360316624 24.026564963863827 1 1 0
991 331 1 -0.8476 5.586357522398739 13.21435112093688 23.21633910869582 1 1 0
970 324 1 -0.8476 1.8281614542693376 14.896863069476181 19.56621012046559 0 0 0
972 324 2 0.4238 1.2821768380041967 14.301617438571888 20.15579373406695 0 0 0
971 324 2 0.4238 1.4029134532066776 15.800754522526042 19.51962958700947 0 0 0
1112 371 2 0.4238 4.1986526458849465 14.67595330811913 21.430911873397008 0 0 -1
1111 371 1 -0.8476 3.486737939681012 14.851966449278285 22.110781678403185 0 0 -1
1448 483 2 0.4238 24.204212765740596 16.92445581882299 19.353026951553563 0 0 -1
1113 371 2 0.4238 2.7667286824476958 15.41272790016774 21.701930737915312 0 0 -1
273 91 2 0.4238 2.078096220729137 13.274740949418685 23.144921341014335 0 -1 0
1095 365 2 0.4238 5.28404995953837 16.14643800444848 20.495544239162978 0 0 0
1093 365 1 -0.8476 5.769624324707668 15.286598935161456 20.653406774728424 0 0 0
542 181 2 0.4238 2.998681433319666 17.66378747719371 20.37048039474226 0 0 0
1382 461 2 0.4238 0.7435511018371094 16.844041315883466 22.199192047227335 0 0 -1
375 125 2 0.4238 23.414635042114963 16.096837061223546 21.614375866194866 0 -2 0
628 210 1 -0.8476 0.44890108283551605 13.322092439595993 21.163076697854464 1 1 0
541 181 1 -0.8476 3.921788375018288 17.415279649386086 20.076979434092095 0 0 0
543 181 2 0.4238 3.977886717161672 17.46037504611202 19.07956035913235 0 0 0
845 282 2 0.4238 3.1326501339429504 15.850883445554063 23.6540537079887 0 1 -1
286 96 1 -0.8476 24.524727818146633 16.030411672840735 22.964958337136835 -2 0 0
191 64 2 0.4238 10.685978223257157 13.374895906126458 17.390534800809668 0 0 -2
63 21 2 0.4238 10.182959175589728 15.722037677498577 16.59211219659378 0 -1 1
1508 503 2 0.4238 11.259851038803193 16.2483694304127 18.71463748673254 0 0 -1
1081 361 1 -0.8476 8.049803691440996 15.533230094879329 17.261073142377807 1 0 -1
993 331 2 0.4238 6.171966509636854 14.024776806656567 23.233606277125684 1 1 0
1094 365 2 0.4238 5.748756874718488 14.734166671980253 19.82009483949494 0 0 0
1507 503 1 -0.8476 11.68854141997693 16.036333202039586 19.592869002879386 0 0 -1
1554 518 2 0.4238 9.709563215729247 14.24778855617862 19.75666289171203 0 0 1
1553 518 2 0.4238 8.967706245954465 14.507072597841097 18.32519016956828 0 0 1
1552 518 1 -0.8476 9.643110116434302 13.947217397163612 18.805208040045805 0 0 1
1121 374 2 0.4238 10.409496508549918 13.148610516432184 22.788651673332176 0 0 -1
804 268 2 0.4238 7.104136545814034 16.137103886376586 21.63458666113751 1 -1 0
1084 362 1 -0.8476 10.472335755292155 17.368220739863784 21.551259286945378 0 0 -1
802 268 1 -0.8476 8.02591691887212 16.27334978681169 21.99760712532368 1 -1 0
803 268 2 0.4238 8.051959042663722 15.989598728091227 22.956165209042307 1 -1 0
1085 362 2 0.4238 9.527749055582595 17.06420736627513 21.67518355777141 0 0 -1
1390 464 1 -0.8476 11.673231931146663 14.423805228664234 22.019375090131057 1 1 0
1086 362 2 0.4238 10.916187168037055 16.802324026272743 20.856433977272786 0 0 -1
1391 464 2 0.4238 11.689708849648492 15.026278153478325 21.22138996332835 1 1 0
1509 503 2 0.4238 12.671811542137897 15.909672973764478 19.461863264421666 0 0 -1
1158 386 2 0.4238 14.791226052663916 13.336109095635845 21.386540856822066 0 1 -1
1156 386 1 -0.8476 15.591340979624514 13.767133956959725 20.969336977631077 0 1 -1
1157 386 2 0.4238 15.521039395601223 13.707153846820463 19.973603345812368 0 1 -1
1431 477 2 0.4238 14.817478904834685 15.381835687590034 19.820780788496794 -1 1 1
1429 477 1 -0.8476 14.179684118882433 15.667408734833607 19.10545468815763 -1 1 1
1392 464 2 0.4238 12.307033124354557 13.663648876946976 21.876253570116816 1 1 0
983 328 2 0.4238 17.985654506052654 15.219085784813768 22.08942108184128 -1 -1 -1
984 328 2 0.4238 16.520876163731582 14.966272062762668 21.41325262172735 -1 -1 -1
982 328 1 -0.8476 17.258632793999606 15.629546877789736 21.538978951035677 -1 -1 -1
1380 460 2 0.4238 17.47432236749297 16.79505562760038 22.854827038863927 -1 0 -1
1110 370 2 0.4238 18.231151899423853 12.763056713530524 22.61464582755005 0 1 -2
198 66 2 0.4238 17.196332967132758 12.576174838569402 18.922288283101874 -1 1 -1
1379 460 2 0.4238 17.398580382680077 17.49767787880173 24.326995458001935 -1 0 -1
1378 460 1 -0.8476 17.451666017074064 17.667552527870225 23.342947675200335 -1 0 -1
1044 348 2 0.4238 17.39665235855881 16.262536956149663 19.975995810341107 -1 -1 0
1042 348 1 -0.8476 17.50488432664076 16.501331642151268 19.01096299992901 -1 -1 0
23 8 2 0.4238 20.655333787509626 15.164656126959072 17.678160915012025 -1 -1 0
22 8 1 -0.8476 19.961870064787615 15.735481270821769 18.117810870933432 -1 -1 0
24 8 2 0.4238 20.210240055376254 16.698886055965183 18.016870494813904 -1 -1 0
1359 453 2 0.4238 23.405560487185614 14.463688623131477 17.682525070365475 -1 0 -1
834 278 2 0.4238 19.306537102375973 14.805100658434627 23.996512556370583 0 0 -2
1357 453 1 -0.8476 22.490765740090744 14.67714813848488 18.02547199725116 -1 0 -1
1315 439 1 -0.8476 22.815018775556343 12.872966289488765 21.563417487379073 0 0 0
1316 439 2 0.4238 22.002562109640085 12.976735256106046 20.989682721047352 0 0 0
1374 458 2 0.4238 20.0599417327555 12.78472657796112 20.371755842068737 0 0 -1
1373 458 2 0.4238 20.095721684836136 14.281888435759656 19.720664111933555 0 0 -1
1179 393 2 0.4238 22.410111943390316 18.75450150507398 22.04870253041484 0 -1 0
1372 458 1 -0.8476 20.51913148600744 13.672862848193523 20.39136352673683 0 0 -1
927 309 2 0.4238 20.314489572977017 16.914352513466948 22.313354331112343 0 0 -1
1177 393 1 -0.8476 22.96476778182733 19.15585469352263 21.319800583302207 0 -1 0
925 309 1 -0.8476 21.249232052253788 17.05165619653672 22.641119147175242 0 0 -1
926 309 2 0.4238 21.253407526875797 17.06386869297671 23.641048628469704 0 0 -1
1317 439 2 0.4238 22.66811176815822 13.33789334734329 22.43650773503238 0 0 0
1358 453 2 0.4238 22.558414564546847 15.028022318402652 18.959461809133956 -1 0 -1
1241 414 2 0.4238 22.150939568371996 15.192340361822477 23.494364762353595 0 0 -1
833 278 2 0.4238 20.022802515838993 14.110926456240279 22.703538828527552 0 0 -2
832 278 1 -0.8476 19.254820333255065 14.675340240391357 23.006303161782593 0 0 -2
1240 414 1 -0.8476 22.08344175653951 14.262550821240607 23.85624999648413 0 0 -1
1043 348 2 0.4238 18.449094589238953 16.330682894946285 18.72923375666034 -1 -1 0
373 125 1 -0.8476 22.942063391701257 15.890406835603695 20.75758576557565 0 -2 0
630 210 2 0.4238 24.46414473418097 13.47671339730042 21.12517587665813 0 1 0
374 125 2 0.4238 21.96668066474242 16.086087068311066 20.859387781953227 0 -2 0
287 96 2 0.4238 24.822370843949777 15.128026426949368 23.276623011062526 -2 0 0
168 56 2 0.4238 5.137458442956524 18.429276895882392 23.299913152743418 0 -1 -1
1381 461 1 -0.8476 1.5159607612407255 17.282429509930925 21.739600381918343 0 0 -1
596 199 2 0.4238 1.9445556411222045 20.78096967091644 21.433825132819173 1 0 -1
339 113 2 0.4238 2.988332063080379 23.171267496691822 18.429223028252782 0 -1 -1
1300 434 1 -0.8476 3.6275687064653392 21.407358871298815 18.947149374024526 0 0 -1
597 199 2 0.4238 1.4962389888570673 19.313501250938618 20.875038199307884 1 0 -1
595 199 1 -0.8476 1.9412667478775014 20.176804756998095 20.636956539251123 1 0 -1
1301 434 2 0.4238 2.929931844425868 20.95595164499755 19.503530297267012 0 0 -1
326 109 2 0.4238 3.984387206768609 21.85586096007046 21.97435416704636 0 -2 1
325 109 1 -0.8476 3.296200128605014 22.00715416617469 22.68395671930008 0 -2 1
327 109 2 0.4238 2.8643201619644616 22.898306300096156 22.544839302735262 0 -2 1
788 263 2 0.4238 6.231295430657808 22.002802689098925 20.9730153324466 -1 -1 -1
787 263 1 -0.8476 5.443770638455873 21.389054603750708 21.02908147392432 -1 -1 -1
789 263 2 0.4238 5.696671791057343 20.56824349256032 21.541268461368638 -1 -1 -1
54 18 2 0.4238 0.9603829249061455 20.33649289817171 18.52851865022062 1 -1 0
1302 434 2 0.4238 4.409845267735918 21.646015254805487 19.522572615744924 0 0 -1
1360 454 1 -0.8476 5.933786005952294 18.786871876539234 21.721359747134393 -1 0 -1
1361 454 2 0.4238 5.220506424466217 18.781712058050285 21.020481020998332 -1 0 -1
52 18 1 -0.8476 0.09818142698944661 20.59766114073783 18.094439043134564 1 -1 0
53 18 2 0.4238 24.826832531963603 21.50413667674017 18.415892932385976 0 -1 0
1171 391 1 -0.8476 7.207353117535711 23.196790184476093 21.024790069705016 0 -1 1
1172 391 2 0.4238 6.916367240252997 23.63964032866192 20.176712007687257 0 -1 1
1383 461 2 0.4238 1.9373395881559337 17.94712681078839 22.356562905756874 0 0 -1
302 101 2 0.4238 0.5056054116794202 19.6846703285216 24.19039105636188 0 -1 -1
136 46 1 -0.8476 8.06058031556266 19.286401576131105 19.938073735668265 -1 -1 -1
138 46 2 0.4238 8.681200721290708 19.108929425790624 19.174294085271484 -1 -1 -1
1362 454 2 0.4238 6.8312458149715285 18.729188806272436 21.28402241656158 -1 0 -1
108 36 2 0.4238 11.327847878913497 17.929789998497164 23.14042852265454 0 0 1
106 36 1 -0.8476 11.78478340596942 17.840846292737503 24.025485041096097 0 0 1
225 75 2 0.4238 12.812640563866188 19.741972714670638 22.23122341092985 0 0 0
137 46 2 0.4238 8.347537953602547 20.117454392163776 20.414552401264412 -1 -1 -1
1478 493 2 0.4238 9.615269762108673 23.22372162001183 18.407939847916783 1 -1 0
1477 493 1 -0.8476 9.841657150255427 22.25694555330497 18.28911824942958 1 -1 0
1479 493 2 0.4238 9.504935230758441 21.73684640648522 19.074065150131364 1 -1 0
1105 369 1 -0.8476 7.942111614712646 20.591568625508316 23.96366161516195 1 1 0
637 213 1 -0.8476 9.27510476927295 21.619039419738748 20.87407450049793 0 0 0
638 213 2 0.4238 9.903532613898015 21.678324778089813 21.649696216678546 0 0 0
639 213 2 0.4238 8.577480588333477 22.330919570938256 20.955145869612956 0 0 0
540 180 2 0.4238 11.317192478697475 22.939982227907834 22.67294784907366 -1 0 -1
731 244 2 0.4238 6.134771185806341 24.397914716286984 23.817562460030103 0 -2 0
1107 369 2 0.4238 7.079504566631482 21.090774656669748 24.04568476642401 1 1 0
1190 397 2 0.4238 10.917871861754836 21.810500526628903 24.2814167052155 1 0 0
1189 397 1 -0.8476 10.462527596867377 21.562618257216023 23.42629018186964 1 0 0
1191 397 2 0.4238 9.570682212319493 21.158045471992786 23.628671270706747 1 0 0
224 75 2 0.4238 11.46505824968669 19.300197486362368 21.42156248948527 0 0 0
107 36 2 0.4238 12.713783383420116 17.497238375880006 23.88794194602035 0 0 1
1142 381 2 0.4238 11.412494128514952 23.08206789173862 19.139363642492494 -1 1 0
1141 381 1 -0.8476 12.040636064443587 23.748029078659346 19.541805323221425 -1 1 0
1494 498 2 0.4238 16.16243242915857 20.917872884862973 18.067498660768454 1 0 0
488 163 2 0.4238 16.87020073112815 21.93337022282737 20.29396590702834 -1 0 -1
487 163 1 -0.8476 16.221285902033024 22.086767714417004 19.54871149634186 -1 0 -1
489 163 2 0.4238 15.995892090365414 23.059726590411586 19.49797603574899 -1 0 -1
223 75 1 -0.8476 12.451964682003112 19.44358923874367 21.347534761285615 0 0 0
740 247 2 0.4238 13.587861988291996 19.130008093125305 19.91378423464461 0 -1 -1
1143 381 2 0.4238 12.052718321095185 23.63663948065583 20.535521862868016 -1 1 0
739 247 1 -0.8476 14.110431112179278 18.599720624517555 19.246145024342134 0 -1 -1
741 247 2 0.4238 14.164847664450416 17.647271755843626 19.545987251560256 0 -1 -1
1493 498 2 0.4238 15.183900907521483 19.617180121702848 18.199288416272946 1 0 0
1214 405 2 0.4238 12.35049849433389 19.454863010804143 24.687841419503247 0 1 0
1213 405 1 -0.8476 13.150189665413448 20.047187360350954 24.786189043371373 0 1 0
456 152 2 0.4238 15.31040607512165 23.86536057019393 22.621119852513083 0 -1 0
113 38 2 0.4238 17.99903396796946 19.25536966347213 23.22952834119095 -1 0 0
1443 481 2 0.4238 17.91517941217617 23.67695428344007 22.42929292026075 0 0 -1
1441 481 1 -0.8476 17.242363691447277 23.997192543876704 23.096220511847683 0 0 -1
1512 504 2 0.4238 19.61588595782136 21.78948762068561 17.83463561680703 0 -1 0
1511 504 2 0.4238 20.822311047365904 21.395136688955002 18.862117971140076 0 -1 0
1510 504 1 -0.8476 19.99285100946205 21.94199335692862 18.748235487832346 0 -1 0
1178 393 2 0.4238 23.849417454438054 19.437998488022895 21.691035483114398 0 -1 0
550 184 1 -0.8476 22.41001309681492 20.57473952528786 18.78217394132929 2 1 0
552 184 2 0.4238 22.49079016850473 20.07593761476977 19.645132285211822 2 1 0
112 38 1 -0.8476 18.339732018359 20.180061387985187 23.399515007536692 -1 0 0
114 38 2 0.4238 17.954196372404617 20.807027512775427 22.722535598461334 -1 0 0
551 184 2 0.4238 23.315920893926958 20.679983136780102 18.371954202378976 2 1 0
1167 389 2 0.4238 18.906812663281176 21.678314797658224 20.22374592809129 -2 0 -2
1166 389 2 0.4238 19.285812325839967 21.960267897497726 21.786933647503854 -2 0 -2
1165 389 1 -0.8476 18.535771931076297 21.877937105015185 21.13066659804527 -2 0 -2
433 145 1 -0.8476 20.29793020771387 22.993839492976953 22.893078966781847 0 0 -1
435 145 2 0.4238 20.822030535521545 23.83073501829958 23.05103759014216 0 0 -1
711 237 2 0.4238 18.742298128003235 19.741344298085203 24.991414549723373 0 0 0
709 237 1 -0.8476 19.075283000856775 19.71665995767875 0.9315339219185721 0 0 1
1279 427 1 -0.8476 23.33735936382597 21.87597525769357 24.063881920848317 1 0 -1
1281 427 2 0.4238 23.224916321277597 22.419188607059876 23.231835063669294 1 0 -1
1280 427 2 0.4238 23.796305854468866 21.015916396019414 23.84096199481207 1 0 -1
434 145 2 0.4238 20.35656298894302 22.40648121552126 23.70029522089544 0 0 -1
690 230 2 0.4238 20.651844747254525 23.552971764233863 19.43818394209941 0 0 -1
301 101 1 -0.8476 24.768845958294218 19.516311524624896 23.53833875641107 -1 -1 -1
1173 391 2 0.4238 6.93174372648846 23.757842242627657 21.805357464385107 0 -1 1
379 127 1 -0.8476 1.8562578440948854 24.571718729545335 22.753048247745475 0 0 -1
380 127 2 0.4238 0.874966005889292 24.764131839866575 22.744726351165387 0 0 -1
849 283 2 0.4238 0.5580886196804661 23.381971614694493 19.057194076284482 2 -2 0
337 113 1 -0.8476 2.402186398091781 23.970305534487668 18.29506752939445 0 -1 -1
122 41 2 0.4238 6.821834179383647 24.130787470223773 18.268194517510942 -1 0 0
730 244 1 -0.8476 6.774387933131531 24.812853023992446 23.170459062048394 0 -2 0
538 180 1 -0.8476 11.76083016478141 23.746592806049783 22.28231807194517 -1 0 -1
121 41 1 -0.8476 6.088313007683522 24.29300728867201 18.928237680416945 -1 0 0
1163 388 2 0.4238 12.580010786895677 0.5549808622349699 20.0973248908697 -1 1 -2
539 180 2 0.4238 12.751357145721812 23.670426409665925 22.396690289084876 -1 0 -1
454 152 1 -0.8476 14.516658596636315 24.473580701912375 22.613425270233563 0 -1 0
455 152 2 0.4238 14.545032256236324 0.04578640789110011 21.795543581132886 0 0 0
485 162 2 0.4238 16.99082646988128 0.5259346392799498 23.968156243366476 -1 1 0
78 26 2 0.4238 13.811275811209807 0.26307350093508935 24.195486758031745 0 1 0
689 230 2 0.4238 20.184762042424378 24.752729552401952 20.442728159453367 0 0 -1
688 230 1 -0.8476 20.95748936588469 24.359279919679338 19.94461649126528 0 0 -1
950 317 2 0.4238 22.400255408225245 23.8004623510486 20.864075408063517 0 -2 0
949 317 1 -0.8476 23.092243735060176 23.577078512730505 21.550572822260047 0 -2 0
848 283 2 0.4238 24.16331305328726 23.372696421506756 19.90231006398796 1 -2 0
847 283 1 -0.8476 24.672871404228978 22.933709985822574 19.162264942100908 1 -2 0
1459 487 1 -0.8476 0.23178321003854924 5.213662175557835 0.09192142248264656 1 0 0
1551 517 2 0.4238 3.739325964768234 1.9463530397185793 24.279595424477943 0 0 1
246 82 2 0.4238 5.713020000721363 2.2340170197769678 24.758779166862 0 0 -1
445 149 1 -0.8476 2.6478249532376434 4.961052561201093 23.84952467968771 0 0 0
447 149 2 0.4238 1.6673097555703025 5.055924588253939 24.02161373634391 0 0 0
1538 513 2 0.4238 4.793504143141328 4.292290341646643 23.49582464430503 1 0 0
1537 513 1 -0.8476 5.548247579333451 4.250870790843 24.150555318284585 1 0 0
1539 513 2 0.4238 5.834308044658321 5.179053503087164 24.38861389896089 1 0 0
1550 517 2 0.4238 2.739329252247572 3.1668805196144865 23.858865290759827 0 0 1
1549 517 1 -0.8476 2.8020429302975485 2.1824422298560346 24.023103419979723 0 0 1
276 92 2 0.4238 10.880963919228725 2.2834298818826393 24.63601409882087 -1 0 0
484 162 1 -0.8476 17.044777223489966 1.5121556202187318 24.12462629545599 -1 1 0
76 26 1 -0.8476 13.61923117428947 0.7036906333969927 0.06991124978628704 0 1 1
87 29 2 0.4238 14.237084652726566 3.5565749032499934 24.69142246417566 -1 0 -1
1341 447 2 0.4238 21.484127956269553 2.3874813287928416 1.2697771975338636 0 -1 1
1395 465 2 0.4238 22.183958821591336 0.7175856102864265 23.660353235393814 0 0 -1
1393 465 1 -0.8476 21.248015349498672 0.41748875619620457 23.84468199193661 0 0 -1
1461 487 2 0.4238 24.37244618975178 5.4257329145867 24.633681654974176 0 0 -1
91 31 1 -0.8476 10.901747268184643 9.905175540525173 23.956987234582776 -1 0 -1
93 31 2 0.4238 10.879744519924794 10.00341678566392 24.951919347306607 -1 0 -1
478 160 1 -0.8476 13.171449674995593 11.693375364647544 24.45571141758743 0 0 0
480 160 2 0.4238 12.56052127495632 10.919490906022354 24.288693158563184 0 0 0
479 160 2 0.4238 13.910361343233205 11.408936113454745 0.06405238579265236 0 0 1
605 202 2 0.4238 19.20120934238234 4.755211247080443 23.54132754441874 -1 -1 1
14 5 2 0.4238 21.716260266003033 5.518453084868358 23.59343595958547 -1 0 0
989 330 2 0.4238 23.734552539772785 10.277123796774674 24.212814726175406 0 0 -1
729 243 2 0.4238 19.738641553982855 9.389762213764852 24.417786431725578 0 0 0
990 330 2 0.4238 24.9386481537197 9.573034776700231 0.059492879501476637 0 0 0
988 330 1 -0.8476 24.290904239510798 10.334641955355817 0.0392816510069302 0 0 0
846 282 2 0.4238 3.5150929125764327 17.2389853189615 24.424511270119346 0 1 -1
844 282 1 -0.8476 2.9539446065578234 16.41211346942603 24.462206278036515 0 1 -1
279 93 2 0.4238 0.693095420242454 13.036702654661589 24.962363642508006 -1 -1 0
288 96 2 0.4238 24.260904033831807 16.58527934674942 23.753973075767764 -2 0 0
640 214 1 -0.8476 8.024263971818495 15.715179134028379 24.625680715806908 1 1 -1
642 214 2 0.4238 8.938296541157724 15.712398814866265 0.028841099143613557 1 1 0
1071 357 2 0.4238 12.499682045778764 14.795090946365427 23.84075659228259 1 -1 0
104 35 2 0.4238 7.620119469771586 17.269378498376668 24.786949739514167 0 -1 -2
641 214 2 0.4238 7.358672957149553 15.39858030955291 0.2990326518235934 1 1 0
1069 357 1 -0.8476 12.537852179646316 14.591143259807247 24.81900723367175 1 -1 0
1070 357 2 0.4238 12.890393679333224 13.664959945836165 24.952890850743984 1 -1 0
871 291 1 -0.8476 21.01205917760214 17.70148570846153 0.754668945088768 0 0 0
1242 414 2 0.4238 22.016297267300185 14.297040329064064 24.853410065175066 0 0 -1
166 56 1 -0.8476 4.744566121520736 18.369001266957433 24.217533911824024 0 -1 -1
167 56 2 0.4238 4.126859025516999 19.1410884342763 24.367015433745173 0 -1 -1
735 245 2 0.4238 4.624411445473195 22.03424580982307 24.144472015576838 0 0 1
625 209 1 -0.8476 2.5707629465875375 20.04983367220776 24.43425553408297 0 0 0
627 209 2 0.4238 2.5550156863882685 20.947708457456546 23.994257506540993 0 0 0
1106 369 2 0.4238 7.844875256654987 19.68746934464066 24.37980459803542 1 1 0
105 35 2 0.4238 6.479574783472293 18.437099521171422 24.83469457237808 0 -1 -2
733 245 1 -0.8476 5.5257656513520965 22.013655121940673 24.5770945665071 0 0 1
1442 481 2 0.4238 17.302790012411922 23.44008291241774 23.92447374900404 0 0 -1
1215 405 2 0.4238 12.862316560143512 21.004258002353218 24.751972394567 0 1 0
503 168 2 0.4238 17.964109743880723 18.42218220388164 1.3072130895192913 0 0 -1
872 291 2 0.4238 20.399399602958894 18.46513532166702 0.9584160834619303 0 0 0
710 237 2 0.4238 19.64289494698558 20.52133767229354 1.1057058728193392 0 0 1
303 101 2 0.4238 24.228056478849112 18.73214753066126 23.84273982132168 -1 -1 -1

Velocities

1556 -0.006169666030564223 0.0058839771681162825 -0.0008241584375802743
1555 -0.0020092326748557573 -0.0005926289562161976 -0.00023402719549864693
1557 -0.00073128030099494 -0.004619696274566701 -0.0038548250746033986
1406 0.0007319688241973629 0.006266751970456387 0.003958746540295742
407 -0.006581264040848547 0.01170871040873087 -0.024264087203605206
1140 0.003354045132503078 0.0023721160130700126 0.0038320772524363276
1460 -0.005707191265916553 0.0026944863245749406 -0.002706106793262085
1405 -0.0005943481977335613 0.004519477252154933 0.0003349629648493099
1407 -0.0003639881237642806 0.003952180954789881 -0.0016363143517402498
1180 -0.006561494513756134 -0.005178512783961775 0.0006254804035957457
1182 -0.003551194532341635 0.0005023338331451864 0.0009046723721571777
244 -0.0016725965855100132 0.005810808639712052 -0.004164217010210633
1185 -0.0017119820173365113 -0.006064518134294633 0.01126295113734817
446 0.02144169657775724 -0.024144362636960126 -0.005650182941695491
1181 -0.0049400380329259015 -0.005419546786433491 0.005362973938995005
1184 0.003077606283883061 -0.0022362787350333493 0.0027717136497426255
336 0.029503941257590476 -0.0036923714075662484 0.004878408904114242
1183 -0.0019708874976492466 -0.0033535037834114944 -0.0018210166810647644
66 -0.0025296250888843384 -0.0026742835511401326 -0.002344174225509049
334 0.002033876324020578 -0.003866398183205022 -0.0008516144533372039
408 -0.006659809855212788 -0.01093761397513841 -0.02023995675244191
1256 0.006156983285563543 0.00991880550861674 0.008379111376119377
1255 -0.0016042234224309562 0.003953786384075776 0.00918104354018938
321 0.01874705238836659 -0.02276426803648551 -0.007292505628862059
1504 7.575449136370638e-05 -0.00305954412187933 -0.0010259973926632826
1505 0.0034933408550906534 -0.00537089128228115 -0.001444658804244198
1506 0.014649533328140552 0.0006342596780751241 -0.013116712391344359
284 0.00366032161575411 -0.015814387965199395 0.013211890233344698
285 0.012023100228961574 -0.012774145397303382 -0.00467718553144522
283 -0.007173267234460297 -0.004205058617884174 -0.0014901119321190151
976 0.004625167893551663 -0.001210444225721645 0.005366302893114242
978 -0.015570883907181258 -0.0167334472889336 0.0009524872697338532
357 -0.01446155975835357 0.009580649540890211 -0.03772440628963748
977 0.003864912640338064 0.028343907028319786 0.005536800309476738
1237 -0.0016035430571039674 -0.0020755382421919523 0.0025328865340269076
1239 -0.0027398005742006173 -0.0027917219650824276 0.009920363232199634
1238 -0.0046544903412490315 -0.004635428818598374 -0.014562634343033268
245 0.00199527154604193 -0.0006375519493229813 -0.01271072528923211
319 0.004928893116714959 -0.0033514796458616112 -0.0016567273032700369
320 -0.008552748482287122 0.010293466599354898 -0.0024108670418132474
1161 0.0021582775484513925 0.0058395556565998446 -0.008990137181739336
1003 0.0005955626463909827 -0.0027891199837913765 0.0007890423872095744
1005 0.0223093141974735 -0.010454721866018566 0.02098970183043756
85 -0.0020970001962258393 -0.002647694178074458 -7.509469869275516e-05
1004 -0.0014174499115337425 -0.0024590474482844315 -0.00047905863128404054
86 -0.0030115362592696353 -0.008046963582499764 0.00913913232342101
784 -0.003147890086584212 0.00476860818833263 0.0031682913778599167
785 0.0009433974868517737 0.008978729410450643 0.017838456421745797
722 -0.011042487458959738 -0.006033400737366904 -0.005994145774079197
721 0.004386558432443653 0.00038110722618509257 -0.003028053061427387
1458 -0.010698149468051718 -0.0024879060805199386 -0.007377015391549235
519 -0.0029989811261456503 0.0018176700550389803 -0.01609440842922448
1262 0.00953868785021108 -0.0010479253995885215 0.008908846659806721
1456 0.0011666660692531878 -0.003295454884977775 -0.004299561378912018
1038 0.025881945337020436 0.003625032122733141 -0.011536064550515633
1037 0.011199051278308425 -0.009311187261573971 0.006074997052081656
518 0.02077690722699517 0.011040952562169934 0.004310478346767294
517 0.006080367993225935 0.0031323351137004488 -0.0009231973888475023
1299 0.00473442840165425 0.012734048963515878 -0.0023915661229798203
1261 0.0006825469529357756 -0.005890338666056149 0.012730284803819237
1160 0.007129947995134448 -0.002800521621339708 0.012231951929915883
1159 -0.005165090533503245 0.00286701075218324 -0.004832702543597373
956 0.023021735742524207 -0.0009907186138437007 0.01796753997329701
1036 0.004535535288532721 -0.006454829519427429 -0.0067027981253894526
1263 0.008324792001015545 0.003594613566311813 0.016046400238878673
77 0.012569322117451633 0.008606234067827711 -0.012462960647064189
723 0.01478621547179181 -0.01111073324355459 0.0028588280100720373
1297 0.0006061472742099732 -0.001478011807961298 -0.001996330435422434
1298 0.012815470197222694 -0.01354072544238046 -0.002674798463578054
1339 0.004980151398787439 -0.00028975406430148485 -0.0002006592289861725
1340 -0.003742753661880574 0.003268527018122577 -0.004840030191505499
606 -0.01583753529433574 -0.007036780328112128 -0.0021169662173489445
463 0.00813236758038799 -0.0073979078696926855 -0.00927323491034326
1436 -0.005049956187675736 -0.024287914221012168 0.02877953069956119
1152 0.024741871624022096 0.003632236876891009 -0.0018271263160600825
465 0.012584239284024176 -0.017173669560079985 0.0037328242840295586
1457 -0.0015874205773489041 -0.004747944446745484 -0.012884834252719512
941 0.008090440127947997 0.007141701702294133 -0.01753550959803717
940 -0.002750944924689145 0.007689656967468851 0.002643960392434979
1435 0.005933751480155221 0.005237036042264852 -0.0024383223936629062
464 -0.01670239851506449 0.011464887678028089 -0.013912268806337579
942 0.007874836196216579 0.014994332177875465 -0.013811157689457811
1034 0.01030153827038396 -0.0006262460116972045 -0.007556411283273688
1033 -0.002084336118528499 0.00152468947149364 -0.00851219773693796
1524 -0.01714595811259526 0.047142350186292356 -0.0008614903555626025
1522 -0.003971384465596106 -8.071114384095098e-05 0.005013134065443908
1138 0.0023566033471713534 0.0011288435872744314 -0.00142816446416296
1139 -0.0007067994499023849 0.001757490737296221 0.0003399497987234252
801 -0.0004578181565143884 0.002889819450373126 -0.006688513309131512
131 -0.011995062311445258 0.0003103624867780729 -0.011831832691988751
799 -0.00022304556526966162 -0.0030364354116957397 -0.0021921254738670945
130 0.004249133759594475 -0.0003712135626179752 0.01115791100853034
132 0.015456592068740142 0.0029999608884479245 0.04763773415968478
692 0.0082610283709059 0.005020179265070166 0.006033756831873272
691 0.005413699166933299 0.007768029668927756 0.001642922402600106
693 0.0008651666892333236 0.011860734053751182 -0.006255103574697522
1219 0.000712716892740494 -0.0035357544528667635 -0.0008378065009384098
1221 0.0017562237640995379 0.0012366916451001058 -0.00746278562574049
703 0.001689623167975914 -0.0006130843109415036 -0.004066172240261095
704 -0.00430706509453862 -0.010457559219106367 0.0004774632848847733
869 0.008008972206222003 -0.02654325422828893 -0.01553114724563262
870 -0.020288316273367725 -0.012406325682779959 0.0021860767351404987
868 -0.001577451249246737 -0.006528474189647536 0.0001749865575809856
792 -0.010881001085759328 0.02001838230684409 -0.01738931330341389
1065 -0.01468515627644112 -0.002851492693134489 -0.015481042711475343
1258 2.6475423455944124e-05 -0.000936948439766746 0.006260195728032162
1260 -0.0065985880460783805 0.00762858922850591 0.016367821574887677
800 0.014485229761391882 -0.012467394360223033 -0.010982728805965366
790 0.00020929929968889146 -0.009480198998656562 0.004438188433170908
1116 -0.013068950164198763 -0.005821899276704077 -0.0017818686566612781
1259 0.00019777400552643625 0.007872842755092736 0.01307132897714325
1063 -0.006408879716635405 0.00042185404022906025 -0.0018090040387308383
1115 0.00397654608280604 0.037119299154337496 -0.0049641812474567745
1257 -0.01194526431378996 0.006376027806393296 0.01155649836233563
705 -0.0041529926382270965 -0.02066090396005225 0.002044658388760958
219 0.0006408457066939638 0.015331935990633113 0.003164169431006681
7 -0.0017714673020690869 0.0025252785373116307 -0.00183571236674275
217 0.0009767788365730864 -0.0011473080838944139 -0.005934103531092627
1330 0.0020201177960379488 -0.002219379722339491 -0.0025897113169442657
1331 0.014115067244928293 -0.008705364460850589 0.011217081110051218
218 -0.000449750487892207 -0.005553353094855872 0.004096292323639666
1332 0.004220263138394395 -0.008905223640340063 -0.028748540801459152
963 -0.008189479093553593 0.00238615496850642 -0.0180500581996752
961 0.0042446502115865885 -0.001003986444418641 0.005491185581246018
592 -0.005288112692204435 0.007460605664263836 -0.0009831323290536138
8 -0.017409658148214928 0.006506346810768586 -0.021835503352123614
1402 -0.0007799131310111477 -0.0014624972425229766 -0.0015727965485649042
9 0.011008081552394827 -0.001206877215187171 0.009273535938589025
208 -0.002800961778836395 -0.0038900287072344414 0.004530811870565982
209 -0.03162868518664334 0.0015033960132076253 -0.012471162073254261
1376 0.013356582442934655 -0.003825438571783229 0.0017891633188406575
213 0.0014786489556686175 -0.004061084978814345 0.005061328967654699
212 -0.0006445911887921044 -0.005172073924732321 0.006582031902744589
211 0.0011071954513308256 -0.00172618469577164 0.00625901971829167
210 -0.004146129243151312 0.010214284158707001 -0.012466477461390806
1404 -0.002790803394107419 0.009579558538729103 -0.02383194564777275
1403 0.01257788644647727 0.010034293101062804 0.002290344645509492
68 0.002309912767677612 -0.011643148490689132 0.027759803062320426
1348 -0.003242010240376627 -0.004301800331688451 0.0014702992086800953
593 -0.010354796744818902 -0.014382726666935283 -0.021296939759706517
962 -0.00011169645823205524 0.02417726163016364 0.008609821144110966
594 0.0011900123558385917 -0.015234929999507011 0.0012885767781692591
786 -0.014277749428172306 0.014530011389410638 -0.0003434728618677055
1375 0.0005912961976767596 -0.0017068596025149013 -0.002482540604998171
67 -0.0003873384535847153 -0.005407530368619783 -0.0005696983829947558
162 -0.007804833124000456 0.01832124181661817 0.016978655572460387
161 0.02035057873433137 0.00476062135284421 -0.006107014141311925
1377 0.0036906867791699216 -0.007345914754519381 0.0051330843679363875
160 0.005379060311248182 0.00321696313280737 0.0018182596963375987
797 0.00456656341897478 0.010897947537869164 0.000592547910367823
1269 0.0040004833699903665 0.0018643451887124525 -0.0052640064178784175
1267 0.004601143110955499 0.0027055604838288412 0.00338001302545619
1268 0.007060901633315058 0.010589335705558952 -0.003626661977378722
69 0.0033213785279392572 -0.014191498471043063 0.017753997774318582
796 -0.0003874694412173359 0.009693736144591666 -0.006332589512950081
247 0.003129472166998006 0.0033590483786148993 0.000949972964810355
249 -0.014964401051193125 -0.007315943900650813 -0.026212422591703255
248 0.03238860823049564 0.00024122432627769153 -0.010335773191789513
675 -0.006543284259907668 -0.014155229722225117 -0.01724739148812493
673 -0.0013864002191719983 0.0003046202638574378 0.0009924310715527295
1349 0.019796465371628477 -0.014580684621396231 -0.0028301377401937665
1350 -0.005251351197671484 -0.017750399054383623 0.0011897917187712285
424 -0.0037165536533412848 -0.005336107416138366 -1.9854394885337796e-06
426 -0.01671271953018731 -0.004207883867263863 -0.0067449233377377266
604 -0.0006000169209494995 -0.0018384999550642676 -0.0006358257706152922
727 -0.0011097045581042 0.00021428535296041113 -0.004403930433134053
1169 -0.004530529978915749 0.001552235117725568 0.002277112694182815
1168 0.001118102041511167 -0.002270435709972491 -0.0005171564173606952
1170 0.0026382366430045445 0.009859718842070283 0.00296200918650071
728 0.006599946423214908 -0.007545284754150797 -0.010634672725917836
894 -0.014800579148733643 0.006391232623906565 0.0004943946574659825
893 -0.0024792837052145396 -0.0037073729110542585 0.002284539183617606
892 -0.0011681090121696887 -0.004518291880776308 0.0036285544624694256
521 0.007083492304278891 -0.0060372891991583785 0.008652095331040223
1209 -0.0034922943129685672 -0.0013603196540585322 -0.0021235050949433964
1208 -0.0076980811730917855 0.010783602776717343 -0.000551686046272061
520 -0.001586019274878096 -0.0054554361424099815 0.00438013415877127
50 -0.019759947141476514 -0.005407158856405198 0.004010443702983854
1306 -0.004415287658833585 -0.0023278226428076914 0.004973339505451665
1308 0.012434826764105525 -0.0070215486136214166 0.012040292861335756
1035 -0.00999378191711866 0.020981539335699673 -0.0056705164548423725
425 -0.03917658105218113 0.01366328820382918 -0.011421852579480345
1307 0.015042306225742038 0.006081714127371492 0.01161847496256461
1229 -0.00954974541162349 0.004365401630904696 0.005195684432951003
1220 -0.0007402552184648402 -0.004408951611349478 -0.0016644688711623292
683 0.0068921811803781775 -0.010546753474172525 0.00021133212673492643
682 0.004491304009651648 -0.003260266369909529 0.004187648531806351
522 -0.013165406610552873 0.012160654768631386 0.005299381540890379
791 -0.01597716738601882 0.026619600886193275 0.0015190414567186554
1064 0.007656197866857998 0.0011938338222875536 -0.005843608870125378
1114 -0.0031852600475877164 0.003672521446220103 0.003303130867986688
89 -0.00499555403733215 -0.0008037301819437061 -0.0006677612096421845
88 -0.003758721107462219 0.0004000460160653328 0.003470999395939168
1076 0.0008522644699073986 -0.003982905628752013 0.007833083414605702
1075 -0.0012688580877619213 -0.0004833522118231303 0.0059815415778932965
570 0.012148315795455538 0.014402801911012382 -0.0013324915971981363
568 -0.0011429679018970735 0.001994942176518098 0.00244406211153572
569 -0.011669258256693375 -0.029028228444040006 0.015523427774615314
1017 0.012016783235204281 -0.01811431409857123 0.023063145106266194
254 0.009219201231967584 0.0035347916500781166 -0.0038614507685193716
1077 0.01030665716689187 -0.011716599098556654 0.018355529502684532
278 -0.0035711489533801185 0.002451451348118586 0.014872833026374625
1015 -0.006879331618908409 0.0025739998365684282 -0.003001651729919576
1016 -0.012248380104417174 0.017101805470997166 0.0010398520641537806
1421 -0.014753123517605686 -0.0044280732908668205 1.6472626111537766e-06
1515 -0.0010053200022401123 0.00215847056073969 0.008067112516898312
1513 0.0010007756120422023 -0.005639497022296394 -0.008133769819441711
90 -0.010431803194380234 0.014496020403590494 0.010552349178458612
277 0.0013831664486228272 0.003113978290368544 0.0026469302326265994
1422 0.013873531442578307 0.0028342859840592106 0.005308210162205038
1420 -0.00035005638129784693 0.008454807121012077 -0.0010691634930290062
1059 0.010177776640832881 -0.01732043459985566 0.0037455981162041086
495 0.0035566365605448754 0.00863824853102975 0.009819558514310125
493 -0.000995406870701943 -0.003994988578391268 0.002742475394099062
494 0.011985610587587276 -0.014116754824395533 -0.009743850191354826
1057 -0.00026555916491623443 0.0003024335884188989 0.003517115346599157
1058 -0.004979964353756492 0.020554096394323276 0.010188877900363921
188 0.001430587304273872 0.0033087532212729195 0.001048006702334294
242 -0.02980027473455584 -0.01326679401526873 -0.015021713913935291
241 -0.009428420863032635 0.0035813495710346806 0.001500769983203756
966 -0.002877573521202417 0.015029022110925633 0.003936815449622005
103 -0.007772707921148552 -0.005721378311242339 0.003764181400934939
243 0.01976902392123034 -0.006339123119392503 0.005070946475752732
798 -0.005073010658497305 0.01677958632970381 -0.020470534524285013
237 -5.607496713974225e-05 0.0003530662057785337 0.00501256309040244
964 0.007344515108869773 0.0016188770098147464 0.0004269085582502988
774 0.018429696649021013 0.016608016680544076 -0.008844373066591568
773 0.03276384001114582 0.013209256423211378 -0.031211075059626715
772 -0.00042577793907015276 0.006747167551647057 0.0032360622024881244
674 0.01648861823300632 0.012528397631333045 -0.009181073007485824
965 0.006893266326748987 -0.006678390249280734 -0.011490962832817019
450 -0.020931500006011242 -0.009933667402347445 0.0025298431886090415
449 0.011643705827707258 0.00518776553845184 0.021724978671908615
448 -0.0062270966230617 -0.0012672058093710723 -0.0024535409157421147
1517 -0.0016494419275978635 -0.0009602725586016503 -0.005988959096225396
979 0.0008945716869109465 0.0016883267283610748 -0.0029161642336015506
235 0.000705771589755408 -0.004069407972727035 0.005396844593871916
236 0.01264654872325787 0.004000931738929165 0.010513618029497672
510 -0.013998945081999024 0.003021171762583057 -0.007698434707341631
502 0.0023099124685864634 -0.007135163613966976 0.002035905309248385
1207 -0.0011858273626787778 0.005824006528689648 -0.000445840600470511
1019 0.0032116586913303684 0.00378202492797724 0.002034622315971538
1188 -0.008185182760336474 -0.017222495329297316 -0.015226483991881715
201 -0.0008425274538333614 0.017092582247956074 0.012995024254433463
200 -0.010504961522942604 0.012195946539566127 0.010835737840189118
199 -0.007598422362814996 -0.002493710237365163 0.004261269027740065
264 0.005660425406293001 0.008008156355290383 -0.015865087760690354
1476 0.018765979025469563 -0.005307860863543244 -1.8444810663153022e-05
262 0.003171000717088408 0.01008240563991326 -0.00043864995962316304
598 -0.002191455614600273 0.00014090392915248878 0.004835058193877194
1018 0.0019303398839261429 -0.0034876432930814345 0.0013858951530702995
1020 0.013268860727265512 0.017596187790522688 0.013470372461171783
263 -0.006561781542611915 0.0006222080288731065 0.010643335792552758
1474 0.006390820222297506 0.004316561915693218 0.00215525373436463
1475 0.013143014711663629 -0.011838448629917321 0.002750364276590138
1186 -0.0006539138359778769 -0.0031719781850053828 0.0003979638847868759
1187 0.011918148178042083 0.00033143651668481153 -0.007457567663321975
599 -0.001987692353862832 0.004543192882574162 0.025472939197125948
378 -0.005957712983305453 0.00860497584016147 0.016695664083511044
873 0.015333207864567993 -0.013472324849314732 0.011997661889832093
376 -0.00419111345478035 0.0006522186221286033 0.0016333485391178439
882 -0.008205455026331264 0.015739823187950096 0.008157365823155224
851 -0.006423753086031727 0.011817665395208236 -0.0004028021358696971
881 -0.00696512323030895 -0.003011145315182729 -0.009525035053740832
880 -0.0030497747751115087 0.00024712799555269647 -0.0008537346311086135
684 -0.005005764426778464 -0.004785484928231346 0.008438807883826076
600 0.0002505017819392799 -0.01297224822166231 0.0002561834945415884
436 -0.0038087340146098713 -0.0002314832011735885 -0.0017547247317813142
438 -0.0041722940708046954 -0.005148459319909164 0.006188395320862879
653 0.0068317807875695035 -0.00021087395386986765 -0.02373954033880773
533 0.0006914768911104286 0.0023523512207086 -0.0068746911212740494
437 0.010457961476843441 0.009394096261874775 -0.0011840300413877103
1026 -0.005717549225762094 8.60468154260525e-05 -0.0067296915289402895
626 0.010123109188687002 -0.013405904146474624 0.0028496952419753666
670 -0.0005891665509710816 0.005982013093208985 -0.005122461928920607
532 0.0005493039289398554 0.0013371217088514284 0.0008736721194749382
671 -0.023749358496841858 0.02432428942281733 0.021881631625473408
1445 0.0066009690597007365 0.004590604975364942 -0.004065149003496163
672 0.002970558212649521 0.002308343976537544 -0.008665492972786954
1446 -0.0011673080425091255 -0.0038882801403822983 -0.006063460406117779
253 -0.004472609186421954 0.004133560893626878 -0.002250773982127701
1444 0.0033445584572614085 -0.0029317777867140086 -0.002923470381872194
1192 -0.0031071063538178913 0.003339091392816906 0.002150057392548665
1193 -0.0009514532404011801 0.008360982412527198 -0.004674368453336292
534 -0.0018621066328488778 0.00833843589467336 0.007896647818380207
734 0.007321724912933683 -0.012449040784500556 -0.003387188682979887
1314 -0.010649556094643754 -0.020996242195735714 0.013955182224909088
255 -0.006316820860046893 -0.0036964913395866423 -0.0007616735565999146
652 -0.00030732656394308165 -0.0018201561668126766 -0.00223627716874032
1024 -0.001661818263854343 -0.002786496860462157 -0.0007641748406929028
1025 0.002852986598148076 0.0017513676706149806 0.002837467550480617
1194 -0.004422662669897044 -0.0020106960102650056 0.008509698395719655
715 -0.002749496530995201 -0.0027353963449527115 0.0014764127513384531
332 -0.030385858660548312 -0.011053655287506705 -0.026507819378193395
825 0.0031591720513062297 0.003221759394910065 0.005293066771621339
667 -0.004440786791469205 1.801899067380059e-05 0.004501805449366011
668 0.021164400580312662 -0.006898448274323385 -0.012026012008614157
669 -0.012565696127502515 -0.026757908654369736 0.027019575161844767
824 -0.007267633470066979 0.0071586934843451905 0.00677282018487195
823 0.0022304832078576782 0.0031489864594108972 -0.001256485491487183
189 -0.02866410976059007 0.0027071467803848827 -0.0073041211227433366
717 -0.003888736046523646 -0.016338660318574675 0.00247434499700969
187 0.0007370872903119073 0.003163058394363451 0.002488495893990008
331 0.0024290038099435743 -0.0023103025350330302 -0.0032410226091924865
369 -0.0013771506396680327 0.007020761874900066 -0.0007049681372166678
333 -0.006183535712988507 0.006108061057472237 0.00830569818888458
398 -0.0050157936870952 0.025429799894344282 0.008098546165762298
397 -0.0006660090286130462 -0.003101221786487141 0.004486357705881426
716 0.0018155319684942473 -0.01150999248632426 -0.005168114247676298
95 0.008951126854296158 0.009158515636429892 -0.011982131183554514
367 -0.005854100746514466 0.0007868032279187399 -0.0029429937272942843
368 -0.013065549663626379 -0.005388871810282869 -0.008447535485354008
399 -0.001905040558125725 -0.012583747925027049 -0.0009124323503604811
623 -0.007423195940802994 -0.00788378050417443 -0.0018268997934043811
1008 -0.003882978544655956 -0.009659753445667087 -0.0028037594063288116
1518 0.0007896988418023619 -0.00869273926547076 0.027008625506644523
387 0.0036779494643198224 0.006339026627024992 0.005217664518109821
1516 -0.005000722105425884 0.002319202590872372 -0.0031287766713390852
1224 0.006527054391219444 0.006201468968195364 0.013467912469527155
1222 -0.0004224614776408014 0.0030410016103133717 -0.0015131479462606146
1223 -0.014320412879300425 0.01358381637605828 -0.0033875428849554213
659 -0.004205385380821628 -0.0006592485836890502 -0.007606611938302298
660 0.003750348868949392 -0.005753856565815544 -0.006282845673421983
658 -0.0021229591850923505 0.0028187622732119043 -0.0026519214123059643
414 -0.0005059035850373128 -0.014676671953469448 0.009335456683893352
412 0.006200944671484297 -0.002701668987543301 -0.004458408779701924
413 -8.551419764004297e-05 -0.009593873855783586 0.0054209543606407755
1197 -0.01683195226417204 0.006045171722897475 -0.012729720915351028
1472 -0.004137486053952824 -0.02058095478852656 0.004608341619039544
386 -0.010333420414572431 -0.012713537177186767 -0.002454804835100632
385 -0.00340503184214672 -0.0006430171346537199 -0.001460012533272759
1274 -0.016301189486490692 0.024842541129329737 0.005301087255326028
509 -0.002754617452767451 0.007671643408434452 0.005225092949007936
1195 -0.0013305667759940085 0.008180994317235386 -0.006171032574463128
1006 -0.004083986470334845 -0.0013650930196506684 -0.005104760404209133
1007 -0.0055635193692325155 0.0016064301133494401 0.00484317315483973
504 0.0030446336482230114 -0.008538585479318373 -0.007005369671768503
1273 0.0005356402109913843 0.0023176360848761036 -0.0030526627995065025
1275 -0.010469410071688215 -0.025917009729945647 -0.013283008073774872
1386 -0.004395857054085989 0.010350427139042398 0.0020055713568242423
1385 -0.006990020296107788 -0.005058812257366804 -0.0019482197943277502
1029 0.005586257741229028 0.018007774010416183 -0.014207121859331083
1027 0.0032487145712592844 0.0007308639332613795 -0.0050181475415867404
377 -0.006876516557225237 0.012082996091219553 0.022420730122337935
1384 -0.005579147383828872 0.005672675016203717 0.0009565465821863918
1028 -0.006017454296575059 -0.011516870763781781 -0.016828179895785406
929 -0.016434683422070138 -0.011635246250914631 0.00936506389100857
1151 0.0013025796917587248 0.004190733952230707 0.005594525099454849
343 0.001961206447186596 -0.0039061712575821556 0.0005948450359056627
344 -0.011627755393004006 -0.005716898972657938 -0.012059505305066732
345 0.029618434095889885 -0.018811816112021075 0.012992732154682508
346 -0.006056068019263237 -0.0016438376056631212 -0.007194570925693021
928 -0.0036139520445005588 0.0016263325236579487 -9.164211974422406e-05
930 -0.024936441825703017 0.01210769481840509 -0.0069615212120282795
1529 -0.004020061009387517 -0.011942321133835044 -0.003714275552635119
406 0.006196268383467857 -0.004774242566533215 -0.0006798174250412195
65 0.00013059877871467122 0.0022856116428921517 -0.004241130600131402
1312 -2.6731718643220316e-05 -0.000654466173042969 0.003045966414365796
622 0.003065146176165667 -0.00714476528079998 0.004719066738716253
624 -0.018129920650518987 -0.017671605200341438 -0.02396543965460049
1196 0.01528869537180413 0.010206537924691055 -0.02342230531447131
1150 -0.0005706479515229061 -0.0023916190861126164 -0.0015404950688617694
1394 -0.0036724959665727433 -0.0012438953729915713 -0.0073030576222262115
1523 -0.006566141068052359 0.016764111489408755 -0.02101946829613774
64 0.0005779576207091266 -0.0011582378194592707 -0.003934036704794401
194 0.004529268574536049 0.0060667669654112825 0.0002601510160405156
335 0.013203186818237329 0.0052199786868874064 -0.01281174888931679
193 -0.0013215697519377524 0.003052849234600017 -0.0007478407406529224
1371 0.0070724127964545015 0.009125860211089404 0.009741592212499381
805 -0.005822777015482085 -0.0001760717285397398 -0.0011094603472678465
725 -0.00688929081356299 0.013408084177148009 -0.018038044785251606
1369 0.0005604327690211153 0.00013485809191583311 -0.0027192767300205085
1370 -0.013481035023651026 -0.008134921598722976 -0.018150254334016732
1542 -0.0199804812571619 -0.002850086392782344 0.003542160236631903
806 0.022263293044994765 0.0018274317307879736 -0.014461014400587167
1558 -0.0016073767505325825 0.0004073955293015041 -0.0019059897355975706
1560 0.008547652594239603 0.006378335503723038 -0.0015753591829796491
726 -3.951770258216438e-05 -0.0076998404370643555 -0.004019274971405679
1559 -0.016215075540224912 -0.005943836674268206 0.0012237419011737797
1356 -0.008183291832942148 0.006900289253581273 0.006830189366098034
195 0.026859130254481934 0.0037696477714003114 0.00419955610034631
451 0.0059412353689986515 0.004317418113491159 -0.004035530535344714
270 -0.020135745519549678 -0.0008524026001089178 -0.012581245936334695
452 0.019603063919751248 8.15094288921763e-05 0.01295985021588816
1488 -0.011900914305002284 -0.018573561074507576 -0.008158249051630923
268 0.0014644297071997236 -0.0018016697404233406 0.0035137418324908422
1487 0.018374243336147695 -0.008175728370477581 -0.0006107923280929956
1486 0.004409463157762944 0.0014890986635044648 0.007856305102201977
156 -0.002031757683955284 -0.01212679967820116 0.004308960667663432
355 -0.0012411173473250115 0.0006506504982701503 0.0021536114065014707
356 0.014362863624523227 0.004655965684778435 0.013286554407801658
1468 0.0011470779549767602 -0.00563880756958698 0.0041671693549717465
807 -0.00992522949405612 0.0013600074903892321 0.007519551702344058
1470 -0.009313886309439356 0.00355113807387678 0.003492159252939308
154 0.0025141046727486255 -0.00010263788193507036 0.0030308169839017443
155 0.014087021309299997 -0.008606874401203298 -0.0035511877697418357
650 -0.0046315629448965496 0.00784806971696666 -0.007465247599169165
960 0.004310148649024934 -0.003200868719154325 -0.009956192654865892
958 0.0002922907798329447 -0.0027385207792304613 -0.004392224886943344
959 -0.0042473611703655245 0.0011225858392287188 -0.002677625186455649
563 0.006678616961109444 -2.315053282191722e-05 -0.010365283789482642
562 0.004464517775605693 0.006154716191302711 0.002570641894467849
1118 -0.02527063895560298 0.004282422154396748 -0.00023789934582439754
1265 0.010961937419993186 -0.017263325222782795 0.02363482938739085
1266 0.003589218893218209 -0.02949278660171949 -0.00012745726117985697
1119 -0.0005507257913638247 0.005910150718250139 -0.0009076012346368342
1264 0.004341703785064203 -0.004605012110781612 -0.0021650222497536674
1117 -0.0002144068865800978 0.0008039198715600376 -0.004573350747494126
1303 0.0037269440526760656 -0.0014971441702807666 0.0071661557783905035
1305 0.0030365467009644716 0.0072613320183951965 0.0021703823642200567
564 0.0033500753574779623 -0.003242049134300992 -0.022774428554077266
1304 0.014130303460551292 -0.009984586141568124 0.00655116374915819
649 -0.0035201867050377728 0.007516669921741053 -0.004746985320813281
1469 0.0005216986547385422 -0.01560056727022256 0.010761160435935889
1290 -0.022369657854687166 0.010503405876338726 0.012135452521635458
666 0.0019716409116250794 0.0006375097988914521 -0.00405352976140637
665 -0.004509174858949516 -0.020728112567027265 0.022202616442029238
955 -0.0009683598941856531 -0.0029612255955995008 0.003030640860854644
995 0.011235729350822886 -0.007022000122404604 -0.0067399144501936945
1211 0.00205669308133316 -0.001138221479204315 -0.008106310714759443
994 0.004531037364489492 0.0037985654271287085 0.00037814073340479356
996 0.0038423851807817245 0.017132362481848316 -0.004356501161182071
998 -0.005846492522102736 -0.011546992550464022 -0.0006005312789669839
997 -0.0049421850109591225 0.0036975708708100515 0.005058499007632567
999 -0.00750716456338553 -0.024531061629513823 0.018535190177459648
697 -0.0013432333427513174 0.00010869650064455961 -0.005771337900149101
699 -0.019323540360317745 0.011501182844945296 -0.005035392571051531
1125 -0.000117340145629007 -0.005791670295343718 -0.006841955444467625
1199 -0.009672706691761375 -0.01191312494364458 0.010553006308345872
1210 0.0018124035893573559 0.006369707665717467 -0.010995978330276894
751 0.0031052632726305627 -0.0032764939743788438 -0.005509464972379768
1124 -0.002295039546807375 0.016488338437224796 0.015797536891619085
1198 -0.001803429049352848 -0.003935265906579605 0.007068919663227075
698 -0.021215871240490927 -0.01265922515716991 -0.012043312349380565
861 0.023001147305203286 0.004427115001524132 -0.004456479149963846
1068 0.002656386987436971 -0.0011192692453031547 0.006259942209556615
1066 -0.0006689614601601473 -0.007327348277085643 0.0034355169573941206
370 -0.0027371943321093236 0.0016554103860642753 -0.00405703513560105
372 -0.0002812090854312333 0.004485501595332451 -0.010494526673124565
371 -0.003690517033919146 0.0009302346921134092 -0.0024572653524928116
1496 0.005499485557364496 -9.192644371455766e-05 0.0025130881935352045
1123 -0.0014689044783219682 0.006425030744952684 0.003818957093811658
862 0.004396192846911312 0.002127026518887166 -0.002529550418087871
863 -0.0042024167802137006 -0.0012525625143817252 -0.00880215237000095
174 -0.006997116344923092 -0.015279533320851319 0.01379581593431943
602 0.00011099834622489635 -0.004092415926312927 -0.013566444113358096
601 0.00048660260523898836 0.0018005817725260179 -0.006204723038927155
603 0.01016762256192455 0.009737640657652669 0.005892897970196548
308 0.0187223345480257 -0.013589016590079132 -0.00013193166331841474
1148 -0.006190065828046695 0.03061370527807112 0.008468916189696394
1149 -0.005060251069886198 0.015430122422374386 0.0023307167206248693
1147 -0.0008826456818192738 -0.0007287413950477159 -0.005572095106851108
172 0.0005447750435500843 -0.0036812341051197218 -0.00517423242630312
173 -0.0032424809958824636 -0.007908477642139098 -0.009003407335203157
864 -0.006422466649953463 0.003489251488658101 -0.012127859503006422
309 -0.010532989418028244 0.01171583558272347 -0.0022888865132672715
513 0.006807429868699917 0.0019395838328044462 -0.003662739956482125
1355 -0.0006010163501917649 -0.0069592031757627106 0.01142547002514174
1200 0.0047070042841194214 0.00519150557330089 -0.0021250560445212896
307 -0.0068953597836591265 -0.0026482061278742457 -0.0006124930793408804
1437 0.013873362648492092 0.009933951004709578 -0.016075574380474127
1354 -0.0032386520897037057 -0.00767211156414615 0.003149059888417627
453 -0.007043722196840873 0.025930512895094716 0.02494154385069694
269 -0.010854212317188859 -0.012569284156390727 0.0015765268759769962
586 -0.00443084915170315 -0.002404420268957448 -0.0012291489203883348
1541 -0.001336178146574598 0.02789504740906707 0.004659553426820001
678 0.009795277690091947 0.003189441754692922 0.01106116073895925
879 0.009299471015114129 0.012259297288641871 0.015499097162948755
877 -0.001074980588523967 -0.002982147806443855 -0.004241762484182369
587 0.001333253096039242 0.008301252291623519 -0.0010682961368406092
299 0.004316525738623178 -0.012052430611913113 0.0012946948972721432
1540 -0.002357060217698845 0.003433064295967872 0.0018605644564254537
878 0.011280432145520882 0.0034755949676141262 0.009364798729955373
777 0.007595353982121037 0.014554426059884886 -0.01246038205708202
775 -0.005259725380563411 -0.004466267730628087 0.0020963240177028016
1144 -0.003071988297790509 0.005824743794389196 0.002629631277661248
1145 0.0016396696816070836 0.011126621566944894 0.001039232533174913
776 -0.005355733422737118 -0.0004985118394292059 0.015711460314240776
497 0.006340763133354132 -0.012838019879704496 -0.015535726489077077
498 -0.004913550552198661 0.006040504897238975 -0.0022916454087063285
496 0.00220850875421373 0.0007912663549438811 -0.0011222340378932243
676 -0.00040786231637207274 -0.002726477887326717 -0.0006659834668532117
948 0.006447884997066548 0.005031331515679404 -0.028374207853567306
115 0.0028281050157556074 -0.003949545963592016 0.005943901243367779
27 0.0023855261757465564 0.0026259982230084303 0.0013780894292726663
677 0.003847322378849934 -0.007079306025944174 0.00735707995370498
1146 -0.003157860341471799 0.00833757615516711 -0.001451136128507231
315 0.008163878514423649 -0.0006640587585703241 0.002074996106364851
313 0.007490758537288378 -0.0011055924364733827 0.0016217439537004558
314 0.012538579487766204 0.0018501118115432824 0.005811716562677796
946 0.0035157286082035722 -0.004263841157087013 -0.0049744938750569305
947 -0.0004098133780497805 -0.006199959853620716 -0.00251912504306476
1248 -0.014863397249484597 0.0028670241667434417 0.0024002856034510615
1246 0.0006151427865524774 0.008378097109019544 0.004390213861722004
1247 0.006219818987926286 0.019197087940231776 -0.011083883461637908
1410 -0.0008950894255108371 0.017816965199855553 -0.023596988074933642
1408 0.0017610680960613641 0.0035818940914855903 -0.004305880060524533
116 0.03781038398706849 0.008871526276912439 -0.01929894408118284
1409 -0.01757984377729433 -0.004380630483710562 -0.009625927638568708
944 0.002294844605359452 -0.005601361058390589 -0.01134281758042521
430 0.002420151597543372 -0.002914040118960262 0.00039675269535764646
431 -0.0040786774544905105 -0.0041197682026245215 0.013073828811545866
125 -0.0004585897984297552 -0.002671161368601304 -0.014498209306199149
124 -0.002209081829347455 0.00381589083911441 0.003960915205379754
126 -0.007329966501472373 0.019809298840515167 -9.655836564220578e-05
1311 -0.008229564391566484 0.00723305007036166 0.005551096947280415
664 0.0008111402430398398 -0.002594684291701038 0.0011899266037178062
904 0.00422994677752198 0.004988884390586281 -0.006176078939259137
282 -0.006578075006489002 0.009619931727637759 0.013101379601905423
1212 -0.03551130958850812 -0.013293081404447155 0.0035980845047125093
860 0.007139483428314774 -0.02277052789778812 -0.008216036079241356
859 0.0020176003067274833 -0.0030928150291033136 -0.0042763252653106295
827 0.006492800276589619 -0.004550027659070603 0.0018268562260403214
826 0.00028247888230738206 -0.00020101057874677173 0.004783994794461929
281 0.005400762599435601 -0.008026158417888335 0.010584071154558256
514 -0.005040923355026463 -0.008057510882669348 -0.0022993629972540425
515 0.016273800298527905 -0.0075324882406917655 0.0049783636091384476
280 -0.0065903660737906405 0.0004912682389266858 0.0023184821112378125
516 -0.006885379098328466 0.00624525794102001 -0.02267603852127459
1324 0.0012292906348948507 0.0006943515548901493 0.001584307344249403
1325 0.003083465105430198 -0.003590363024217247 0.0014091104525703357
252 -0.005274190102171254 0.0018952517324344372 0.004158050005313048
250 -0.0013745536689927281 0.004559804990836069 -0.001170226362442956
251 0.008714579033787818 0.0015990408087472145 0.01451869802572061
943 0.0029184830767389367 -8.302992008018281e-05 0.004043369678311188
945 0.011311244862035956 0.000997308220513332 0.0018593025806907888
1326 -0.005135681949426497 0.01409053068704586 0.002322268805648293
56 0.0056824425606996345 -0.007714172675674655 0.0007968229696830013
828 -0.00830670002327103 0.0068802352968962 0.006717884417700721
938 -0.002843045710880071 -0.0034074473600985166 -0.0036157607762621856
937 -0.0009673074991500504 0.0010040883706808705 -0.0035923523786243906
443 0.00033068007798694023 0.010688164782235172 -0.003706519127644809
169 0.0023806530610701827 0.001157392872647792 -0.002255732220969036
49 0.0031885782073921127 -0.005952441359347472 0.008302685429658696
444 -0.0015146633529363291 0.02494317639521508 -0.0028615970355930654
442 -0.0012475832933948158 0.006556480027421659 -0.0029754628467258226
1228 -0.0017821576342998103 -0.0020543849160805185 0.005002658757849933
1230 -0.010793874718976859 -0.0012171820562263723 0.003416480867927557
1462 -0.00039951781600798005 0.000720380216897729 0.0012752703076249494
1463 -0.00548904942909388 -0.002375884874324211 0.007691158668867505
714 0.0072105695238839675 0.0004955272742735746 0.0032852496377558634
713 -0.015562189709870174 -7.125340563198348e-05 -0.011023825960969038
1129 0.008056213942393718 0.004640114049089007 0.0031666810398558566
1130 0.005569015036786351 0.02074236203663369 0.024024580059596016
712 -0.009430578813268082 -0.00044841164765102484 -0.007594133266553964
51 0.01591769811745023 -0.005807593095719498 -0.013692566294971637
311 0.023007618335783186 0.004274634013033483 0.013115238450409253
310 0.00317619745240245 0.00542895863247307 0.0025499253550625603
81 0.006005701280762201 0.0033983855406460005 -0.006933803532716822
80 -0.01230306273329082 -0.02491154584868786 -0.0025494426842825424
79 0.0011438070188561661 -0.002886642711888428 -0.0026987409070479474
756 -0.0005210736759674937 -0.0029827289327001155 -0.0038191316600600872
754 -0.000977746260936772 0.0012021205203331144 0.004373213789732277
171 0.0030358992702572514 -0.0048317174629970115 -0.006412166152621317
312 -0.006521150594261511 0.018540431353182535 0.001135679762485153
170 0.0013098833518428348 -0.0036236587889424215 -0.0019272110809233152
1131 0.014046816488740173 -0.007704214713224646 -0.010485687727036426
26 -0.0007114230618695077 -0.00551298905135769 0.002991264098666182
25 -0.0010626596762168684 0.0002836020747078616 0.0040691905864766184
588 -0.004362548145762866 -0.0022838664882265684 -0.001267293696993282
1514 -0.0061607211788577785 -0.01363744929969559 -0.00686025486028827
482 -0.001725261282872412 0.009374098506645943 -0.0014130171297694132
547 0.0047539260404192065 -0.00661304174310915 0.005344438477507809
548 -0.004556685322729954 0.010746269378845126 0.015350659511020569
1336 -0.0002536457548283546 0.0056401822148973765 0.0016742841972783734
1337 0.0017957878593186317 0.010956348595361024 -0.0031153929518524873
549 -0.0007696566982602647 0.0022224716645558706 -0.01788332229916716
6 0.006201571973961908 -0.005610019816511251 1.1706717995898518e-05
4 0.006189743707110346 0.003468531043583329 0.0007307262228329552
5 0.01272046137947812 -0.014417903978095696 0.017532048407255207
383 -0.004780139989831044 -0.005219498147147645 0.006350409203270324
384 -0.002496741691052363 -0.0052451975086032065 0.0034816813729592823
1338 0.029901509321958706 0.01619779027587501 -0.007325632440233561
145 -0.005341278756114644 -0.001810042187979818 -0.002665979866942731
146 -0.019417633400147044 0.008551993808306095 -0.012571930906515105
1052 0.005919243070180085 0.014606908253189818 0.008095038175776989
1051 0.002563227032950884 -0.005614158619523064 -0.00528918530994112
783 0.0003425187789135371 -0.008371620428803855 -0.0076431361497646105
781 -0.0004964050830556838 0.0007651116457933654 -0.006116909169672554
782 -0.007250072715748008 0.0013965764457951064 -0.012536869514895547
1053 0.015217923269220411 -0.005966556086210695 0.0008320811542412592
481 0.010295430158085926 0.004820194909773943 -0.003121264597449585
382 0.0008473021818395589 0.00016363064364104574 0.0024390140885221165
973 0.005647510126174559 0.0015207505038070106 0.00031886290975034857
432 -0.00031574114887125443 -0.0026183579175681347 0.003918300295572872
975 0.02011408158153973 0.0013739010780710534 -0.0006240560852102088
1013 -0.001224722079863375 -0.017710858138462893 -0.010184205286075897
1310 -0.002410211600321914 -0.001599799456116088 0.018040861182308642
1012 -0.0027304124708806493 -0.003089751427633149 0.0035457941206201503
1014 0.018085417844832922 -0.003987738830922701 -0.0025081641236509022
815 -0.01574106204464294 0.006746025978906886 0.021138636260687807
814 -0.0005639410601728276 -0.00542286091266333 -0.0015264766980277874
816 0.022165949451360138 -0.00012623905885152036 0.005256102434114666
202 0.0019685607456282417 -0.00019706162885846788 -0.0020915882944554766
204 -0.0033760583780631523 0.0017814761108735017 -0.024839495204303674
839 -0.040812734913323094 0.014189559906791174 0.02657257595275744
838 -0.0015444620711443301 -0.005549069872732613 0.006892927066633326
889 0.001873753224926857 -0.0010079572470716956 -0.002850699086634613
890 -0.002014665217885068 -0.009783570076097054 -0.0011650727767083108
1309 -0.00017158813039948963 -0.0009868143015098576 0.006056399949455335
840 -0.01421659467011192 0.008829569497161488 0.01982209277483697
891 0.002638352921828077 0.006822013170830653 -0.000939650926918318
579 -0.045864699414674207 0.005576537911721598 0.0005243432573713478
577 -0.0022816903302083943 -0.002130359318221756 -0.00129646325897109
203 0.00415674275784222 -0.0014822155591443975 0.010784049285881964
974 -0.008959045326715959 -0.005183125285005334 0.0020770141967397676
1231 0.004142205091193859 -0.0018148850947688297 -0.0019344823309850865
1232 0.0035516380089029146 0.0033235574731104015 -0.0007580881422908258
980 0.01911029669171057 -0.02164060406979853 -0.020860517164552513
1233 0.0103518866905291 -0.01578068793628929 -0.006383548507972944
981 -0.0036964355832925623 0.009549860136198686 0.0037774624615385254
566 0.0028088158744721667 0.004068684181002524 0.0069265206016740095
565 0.002916527375316606 0.0011929522206240806 0.00435500075978047
578 0.015928031337660985 0.004846927949545758 0.037679427227287454
1432 -0.0007254478181005741 -0.00892939556555322 0.0015635043106552908
1433 0.009341399526444387 -0.0028247902233345477 -0.0036962923566023153
567 -0.002870584090536953 -0.008071298158044285 0.006742743035119211
1434 -0.004403216311217496 -0.0016224403476175582 0.010468988080099285
1483 -0.0016842826592475364 -0.0011229316241262069 -0.003785541297860872
1485 -0.016437551296963927 -0.005548480225555545 0.0005747622409278744
1345 0.0014758709113619633 0.004158655799999722 0.0017587322332161203
55 -0.0034819887036721866 -0.0027858342878426877 0.0037071613550905846
1484 0.011364323280085763 0.018644634850105986 0.01166281830609536
350 -0.0023644919514705315 -0.027316401623590163 0.018801378699209708
30 -0.015326069987167458 0.022166887893188866 0.004355157868627281
28 -0.0024848032827084533 -0.0014000992283235115 -0.00599792574960109
60 -0.0024620863974037697 -0.01081731479312322 0.008098630268332054
57 0.008331809358192797 -0.0026419272319309363 0.02660052342228241
1347 0.010879695620055016 0.012652309891464387 -0.003331790624769348
1346 0.006469282488746112 -0.00822544224172569 0.0014342906282808494
58 -0.005001588980672994 -0.005293764279820834 0.0027059803400963944
643 -0.001418530191296502 0.001289376227019446 -0.0016019829845200539
645 0.00013525015385469348 -0.010220686646409082 -0.04629680225236642
644 -0.010429885507161007 0.006288050970529986 0.001567874337700175
932 0.01666150869204102 0.021026738938813575 0.00607087738033254
59 -0.0018211106050726536 -0.0032723596393445724 0.003268130202046585
1039 0.00884869007288675 0.006297297527775056 -0.007111514080434911
1041 -0.011883293829388082 0.008521913994368736 -0.002662356894389885
1040 0.013889244306540371 -0.014714394980937193 -0.006772028207077426
1283 -0.0005228243725743289 0.010176970231979164 -0.01688201254574969
1282 0.004521173144520531 0.0010180810089353424 -0.0031998179744432424
931 -0.0055857901471943585 0.009540934476885811 -0.00352696669350103
921 0.019428474333271075 -0.005912565335715447 -0.009019968602471883
505 0.0032184064299908915 0.002316743541999498 0.005530563119818537
850 -0.0026367696605795947 0.0006840829005688679 -0.0025812264956848823
933 -0.03125901939224093 -0.0022160924361747116 0.01561969667030958
1284 0.0037345893529634223 0.00010587112252517748 0.014494092168135147
506 -0.004743256000476239 -0.022208770635617287 0.021545577520652608
409 0.00011670781326811823 0.0033199052784201443 -0.0013317934223546933
410 0.014543261564680122 -0.019070319918829428 0.012408315594209093
852 -0.0021395552520660503 0.03329942973045092 -0.002556785674451451
348 -0.006826960485609033 0.000685997059651404 -0.0047755778796971975
654 -0.017398091122175025 -0.015676972185287564 -0.0028480471217484085
483 0.007069373381608437 0.005083814622997213 0.002883348938835268
47 0.0035295016983214575 -0.002534612619617891 0.001693188310759914
318 0.003997976548745305 -0.0029736421158919877 -0.0003547256598178976
317 -0.0017711912735766666 0.0004856905131481577 0.0034575098918785767
316 0.0031433913476856604 -0.001499396075363477 0.0014921592587689577
185 0.0067253044990794025 0.005052178466611298 -0.008987565313639983
184 -0.0009289252984603521 0.003466681186467167 -0.004912765934197997
537 0.007334226703079073 -0.011478201348950973 -0.0023768919426297302
186 0.002221304720169772 -0.012297463894648393 0.007429835085679828
763 0.004501975935277395 0.0005735073304944915 0.0037447820447191545
765 0.010314445575171242 -0.005705370094558219 -0.0035238685092711906
607 0.008051722281832855 -0.0030418511834860045 0.00200468249136299
764 0.00588632957654903 -0.00011820982192287577 0.01955272022456669
886 0.007107983352753144 0.003950404324067811 -0.00217587181177014
499 0.0027632025378959966 -0.0008435521115021215 0.0030857466217803
501 0.004669564022210531 -0.0012972620136838492 -0.001648907729051754
536 -0.002791912070708365 -0.0049256292481775574 -0.018554938502421927
887 0.004857964386813174 0.007627579815650548 0.00024074100970470285
768 -0.0066668691565469835 -0.00043076461785390924 -0.003415787130510248
766 0.005483602954310091 0.005456360978274986 -0.0015809185756473383
767 0.007869417087273057 0.020416727956264737 -0.005049194396675927
546 0.007602878753131319 0.0012433386265881844 0.021294561448302583
1202 0.004737721954359563 -0.0035039785220439823 -0.002486576113920897
1201 0.0014074326880999578 0.004564800524308124 0.004498148202984053
544 0.0027773519475287204 0.0010862786167216642 0.006677802912291954
1203 -0.00338175036711487 0.01368187979811615 0.000333882757221835
94 -0.0016396663617322513 -0.003080577829231339 0.005290412261975154
96 0.0001471045674110083 -0.007977062864626771 0.0025503431752029655
152 0.008894484405767874 0.011613353871687675 0.004058729422775159
1498 -0.0016267078067784928 0.004058925902437208 0.007743039419895202
1499 0.0029659618655023283 0.01641377014684683 -0.020834647904575912
545 0.012030553034199937 -0.0040115951277705205 -0.008374835294331829
1500 -0.0025583371946151477 0.004390113376861311 0.008689301048980304
1099 -0.005839403705409372 1.1849818414089831e-05 -0.001602406960962465
1101 0.005487641043732168 -5.1880582769666825e-05 -0.019866602628109752
74 -0.01730806533065888 0.006604227684562188 0.01156227599662934
1473 0.0057484247325054645 -0.0001715301912582008 0.0026063552963984694
1471 0.005114419883854855 0.0008083688894956797 -0.0015987439470339273
1100 -0.0005023743029395406 -0.006181654247530321 0.006475024459036514
151 -0.0016040564283772533 0.00725744003065074 -0.0020305585980816996
153 -0.003159093570201479 0.011868286973765279 -0.014578713073221037
1452 0.015292636898845406 -0.008436142695544956 0.009563518522604057
762 -0.01471146088346692 -0.004277026778307187 -0.007533718241349381
760 0.0005154250802035688 -0.0034054665869184147 0.006508896269517652
1396 -0.002926780953768737 0.0012904051223437214 -0.0004668142872671229
39 0.002199324130455829 -0.013748772820576818 0.003718436643693726
761 0.008590860493414143 0.01529711899183459 0.006121178678958066
1001 -0.007416329344778586 0.009119300900671878 0.006405653629128403
1002 -0.0035243706657013545 0.0011330725504079984 -0.001505929572878859
1451 0.02479599863242478 -0.016902477425066873 0.03192618365458229
1450 -0.00299118764305003 0.0018676518644363507 -0.0003055555791595178
1000 0.0018898594109365775 0.004859882078433048 0.005279477565334195
1397 -0.01208820629949552 -0.015929648437427533 0.0005986148698312785
528 0.010768338296582863 0.00573188203974532 0.005317886789558533
526 0.005020505055327351 9.770146486123481e-06 0.006178926270500787
527 -0.00042692624400012045 -0.007684561964072237 0.010026972135300799
508 -0.0008292549816548287 0.0018628331015042882 -0.0021288062035574747
347 -0.022971359477009613 0.015373534074806482 -0.010225039430460953
135 -0.010194943037731595 -0.004420000158495999 0.005262705658797619
920 -0.011627756425944373 0.015436408159039343 -0.02010668457654013
919 -0.0006968174893770611 0.0026071963731125383 -0.0017254220906858014
127 0.0023553373982034696 -0.0006499899238516433 -0.002584869512152527
37 0.00488329186556786 -0.00294351175389408 -0.00631409187277513
129 -0.018764663091617777 0.0030970694830295617 -0.002722778604773148
38 0.005098870897925943 0.0033743082846628717 -0.011476858044692548
1133 -0.007651172954916834 0.021529840740164802 -0.008128680571295859
1428 0.010638956584468956 -0.002073689115156225 -0.010872916313066599
364 -0.006862395437097705 0.002641365545689467 0.00730270002342334
1426 0.005303627078813751 -0.0024550713999304096 0.0010018467388669152
1427 -0.007891271023931924 0.010448841552494117 0.010474559973377286
365 0.004617441592884511 -0.005914855421512835 0.0077218637066122035
1134 -0.015624766552129207 -0.0005571079418466391 -0.0007505462175840195
1132 -0.00462162995142712 0.008157660597918216 -0.00042290402986898434
389 0.0031576424866395945 0.003077471122621081 0.021099888151690133
388 -0.002978705641820654 -0.0049873548209891415 -0.0026127001577773627
390 0.016650311114771162 0.0005916039727611198 -0.010490023205437408
1102 -0.005797645946237264 0.003416416303487318 0.0018712677312415845
1497 -0.006239394892931334 0.0017268759786124477 0.0014273991692364066
1104 -0.018355196076455593 0.018173342752567087 0.004427094713100841
1103 0.012198722103341567 0.007705354660214364 -0.0170285195429262
1530 0.010852721745732857 0.01444737732797279 0.002136869810104102
1313 -0.002339877210978208 0.010928094069260519 0.01837883780444136
724 -0.0016314268968101182 -0.004190751809609484 -0.0040086318609061705
608 0.0076322398606390495 -0.010580968075127355 -0.0060889306926092185
609 0.004769225516347636 0.006857573662442953 -0.00027446247343657315
1528 0.0035444151813712956 0.0018439741422225033 0.0003917611645992883
260 0.0167844306205746 0.008055306677601294 0.00804470632096471
651 -0.0034009181255300813 0.00592232038021207 -0.009957482526036471
1502 -0.010749368959544064 -0.007925449867327357 0.005699821145890971
73 -0.0038786969598935133 -0.0006375143373482204 9.609511631425512e-05
75 -0.007475844678882706 0.007211318545539795 0.0048487152971202685
259 -0.0038350297870890526 0.003036719710542982 -0.00045887364865611455
1501 -0.0031878024206531503 0.00036068637110534717 -0.002030612125856873
1503 -0.00565033949123475 -0.0037635647644152772 0.006708317478957849
957 0.006522440145507813 -0.005966586084595403 0.003175982023057153
753 0.005904470538467448 -0.013673729970176232 -0.005765297506962573
752 0.011667554542261614 0.0038486863781174102 -0.005885508043146365
261 -0.00914802365147106 -0.019513171135104677 0.0021431969781272454
1398 0.012953147418029786 -0.0012797166782950562 0.011386320240793337
133 -0.005162463490386579 -0.0046604522330866895 -0.0009966393387471528
1079 -0.0008299146392961158 0.0021800278892525364 0.003163515209007382
366 -0.005405172731474897 -0.0044292011964622464 -0.011531194583236315
134 -0.0072744952735851924 -0.001909708217976552 -0.007026343214288823
1495 -0.0015921557314740415 0.0026438532349597767 -0.000653927374856671
1088 0.005545010249273542 0.00933551461135091 0.0034905015118381574
1087 -0.0025097818834613848 0.0036045729460868424 0.001976366322427235
1089 0.0008451335892517699 0.0029363226742690454 0.008697650167169363
1323 0.012288829364194268 -0.0012932506410920613 0.0034786747039813114
1321 0.0014559276747057967 0.006010689567197574 0.003776294273761773
1047 -0.04304598223689335 -0.0010438425301300372 0.010783926574910667
749 0.005029344631045331 -0.02088121068392525 0.004669852623056399
1322 0.017366464161686603 0.02499119283513027 -0.001176869857755883
1045 -0.0013958448308827405 -0.0014201008546461732 0.00045478663904137303
750 0.010448334824335645 -0.0018135525748392454 -0.011657881712999458
748 0.00021432207242295617 -0.00487180731429226 -0.0015213012065515882
559 0.004463613367564568 0.003555756565659585 -0.0022917298565497722
560 -0.013540748746083174 0.016655504739321043 0.004190456696978791
142 -0.005102537835015308 -0.001275337271378207 -0.0013558801868166386
695 0.0029026652823705263 0.009027948035856444 0.011678756490777502
1046 0.004991942717718608 0.006701924850271315 0.01376669955923822
696 0.0064457014013327135 0.004387837494329995 -0.00023811257715526194
694 0.004760910013533491 0.003716693193112354 0.0018370233403813307
338 -0.002344098078782726 -0.02419693571298533 -0.012526083263903252
557 0.0020357532965214115 0.005574952590436388 -0.0033440498208107666
556 -0.00105400432861993 0.00904311526158596 -0.004784104238932141
143 0.0023254232479992657 0.0020958538704250206 -0.005075762380340029
1090 -0.00521332152740631 -0.004165439800120982 0.007374285458568177
144 -0.0022265695851864708 -0.009627179901909748 0.004265431971804301
554 -0.009158212167344653 0.0005400120003391239 -0.01037275303770799
1091 -0.017188842564267056 -0.013893375857111522 0.010625167421056741
555 -0.001171476128541076 0.0071031631928924754 0.0008110049012091896
1092 0.009832612457451418 0.0009532881720528702 -0.011925493728071813
553 0.002141408856507795 0.0051933962628808415 -0.0006878804076992068
1289 -0.01222626477349917 -0.007292648935377042 0.0018442268378774823
1288 0.0018223774025848763 0.0021764773316768674 0.0047072485937451275
1010 -0.012472997790941947 -0.010074159521859962 -0.004919981071954823
1009 -0.0029462962447131306 -0.004370735117757847 0.00180392108817652
265 0.0065742275840918575 -0.006422722484416629 -0.00555565312791118
1011 0.005506207399704083 0.0023404151989794295 0.001004517063270552
968 0.0004579063331127559 0.026562893680453947 -0.014535944646381877
266 0.006318504732022052 -0.018260960121441076 -0.016999316784853537
819 -0.01229563112263379 0.007598241516572455 -0.010605003800696811
818 -0.01369827289128985 0.002591648690889214 -0.004765307735362525
817 -0.002744934040386395 0.003201472301462925 0.00369760422728125
267 0.012265778936690667 -0.015788092397540615 -0.0004509602024870376
655 0.0006002873274678086 6.419783876892527e-05 -0.0006413781652875505
657 0.01718631701154705 5.912725801868552e-05 -0.03260245962827539
656 0.006529447073374631 -0.015619465392898836 0.006702735527904235
967 -0.002278796484038453 0.0025953519509092104 -0.001444794341191752
1067 0.00861678617059623 -0.006084908622580599 0.008609473192980176
1491 0.0007437648216080132 -0.002037180427713756 0.014639477766642707
1489 0.007920880813585116 -0.0032031099058532804 0.004114938057415923
1490 0.020722831035003296 -0.006879919408551371 -0.009330650258485595
1218 0.004023511616221365 -0.0027060267482278077 0.005503150296610752
1250 -0.007537322658304377 0.0007629959021593745 -0.00353020142622249
590 -0.006210771703071401 0.007417775530726561 -0.0024218740560114204
589 0.005532021063088125 -0.0007351521351231466 0.001306161729384038
1438 -0.007296334666425536 -0.005061595224134659 0.0011384470801225205
1440 0.004985521894814772 0.01888103379354922 0.004474429330830133
1439 -0.003412172110691546 -0.022962318689840402 -0.004887700877186221
1217 -0.014914205245798895 0.0008222053708937323 -0.009066424900071705
1136 0.016887011514612686 0.002932477749958333 -0.0029220075724444975
1137 -0.008801052047112913 0.0035127753875991465 -0.012553345642164872
969 -0.012430785472578535 -0.016117885742698176 0.003518069052658373
1249 0.0024439456586342824 0.0007334146340457324 -0.002793869189563267
1251 -0.006848221129294262 -0.004839432361701617 0.0017568773204257424
405 -0.0012626777432731542 -0.011784185051129133 0.0034746087731981315
1080 0.0014750575565512403 0.020341619730523206 -0.007842167818900755
746 -0.007050271574769165 -0.0013085476786091504 0.018548723726878782
222 0.004706558465017456 -0.011480033342123427 -0.0028656466650723873
747 0.02697205433303635 -0.019822283778322573 0.00739543298131564
745 -0.0005793626900869586 -0.004483077244954137 0.0016811590840848502
1521 -0.002231612704478592 -0.01358482090196564 0.005046622511955106
1519 -0.0018386622320355711 -0.0005471494209185764 0.0066283745190147784
1520 -0.001489552577512167 -0.001447847374088622 0.006885981153222398
19 0.0012263525684309275 -0.004664779589757981 -0.0073716664098642465
21 -0.0023250128362247166 0.0032327102765820825 0.014726833682329403
20 -0.007243410055432144 -0.0002770244952363854 -0.0003199731186947854
118 -0.0009511645596827254 0.001626186535791337 0.0035696320089091517
908 -0.004281379403280456 0.009765150302217697 -0.005608782101874155
119 -0.0042607273231178395 -0.004934638983823912 0.0391346536909062
220 -0.0008265693036456422 -0.003472785787258588 0.001720420709445842
221 0.013363524933380156 0.01967846399186888 0.015456186846548953
110 0.011312467312395767 0.00866152393819523 0.018729807036905185
120 -0.010312757797871587 0.011231251658426571 -0.021435010207737568
1135 0.006405130968171354 -0.00042090062923007645 0.0015366013254903051
909 0.0027711698746711996 -0.002051418497868496 -0.005636831031360269
907 0.0014090554708426513 0.004668265689596118 -0.004174567094557546
109 -0.002648846588631336 -0.002159662578394095 0.003547758673283807
811 -0.0007404854326306091 0.0024531026901951623 0.004129446777001487
812 0.017387989604741756 -0.013154154821626934 -0.0005331423281639377
813 -0.022262051839704526 -0.017854631644487428 0.009081666058637066
558 0.0014405229347399162 0.002763208699058588 -0.0047720796081105535
298 -0.0024815281612711516 -0.004136284053787766 -0.003745153762818379
300 0.01414171351085092 0.006358927214917116 0.010721545989255246
394 0.003030743552278675 -0.004194593835061104 0.0030551505833276136
396 0.0024314804520028203 -0.009108557519820454 0.0021063655863315833
1320 0.0037967471003027076 -0.008936330766419354 0.0006547732306882326
576 -0.002788670243893646 -0.03635635607495208 0.02486893963874844
575 -0.0025290396691951276 -0.0031667362004207254 0.0009218472474234078
1387 0.0010969984095557082 -0.0007656632037061501 0.002062516226075781
1388 0.0055448651392639966 0.0023628422562995896 -0.0008830048474619389
395 0.006132160997165511 -0.00019900648267691062 0.002594619789025391
1062 0.0018064513991653407 -0.017245453924493868 0.006600309667001962
1453 -0.0013556208159457301 0.004381673882609532 0.002522744154918195
1060 0.002300916894064017 -0.004632185507736829 -0.0028503952208380643
574 0.0011089316435844798 -0.00723580379210623 0.00014147509339892017
1389 0.016896848371116078 -0.02261092320190362 0.020428094194828078
258 0.003762246349787068 -0.0029112264157353583 0.010279793485050611
18 0.003667370479739043 -0.002968720524114205 -0.00987461015319121
16 0.003203794324978927 0.000240819431180557 0.00440595765778484
1097 -0.0038032503146244664 -0.004905721037444514 -0.004543339707885287
17 -0.0018658861106877218 -0.007486471831013603 0.021252000348652652
165 0.004681437981645716 -0.004440260830050221 -0.004590182912277374
147 0.012271118824355099 0.0044258463225310555 -0.009327574137399909
1318 0.004289162857295287 -0.00464487500156759 -0.0031272437658978946
1329 -0.010242350373481689 -0.013882459396207397 -0.010258694071224999
257 0.004235031080321545 0.03253965984121099 0.007215697669057383
256 0.0017194184536714458 -0.005235711675933585 0.0011839305714978472
117 -0.001690408267317495 -0.005112296169403104 0.009191215109384155
1319 -0.00016202235899121677 0.0026473655579038746 -0.0034819581945109207
1455 -0.014059775920046976 0.010728387157373778 -7.32144880679735e-05
865 -0.0002597284105226238 -0.007063782483531961 -0.0014163782744843793
867 -0.02825677632539074 0.004568313621384742 0.0015268057019559185
866 0.021670227095192784 0.0014810531667539335 0.008327029702805694
906 -0.005176525876335163 -0.029949072235668395 0.009654422582417953
954 -0.011199815087417696 0.006904466404041164 -0.0008747871826806074
905 0.0004454035588113512 -0.013077659344228996 -0.023636089585985957
70 -0.005429100664722332 0.004678955839459482 0.0015799670699555017
72 -0.013563745552433962 0.00717613380191036 -0.0016231286641847909
71 0.011657773787509176 0.008420471765161471 0.006375273654601666
952 -0.003051212343099198 0.004115999005339886 0.002556737495947943
1327 0.0016660992891772025 -0.001966860958980395 0.0023387580744284424
1328 -0.019461929943932105 0.002850838177529446 0.018263640194038384
953 -0.008560928202192192 0.006681293374142417 0.01687188653864497
1253 0.004773340705016659 0.004179442463687128 0.0056104820353844505
1368 -0.009598149846471733 -0.001933507618221252 0.011065580085157163
1366 0.004073656631174396 0.002483374592992633 0.002963423698981318
1254 0.005923712484367682 0.00885650415587043 -0.0033147620241074645
842 -0.00650231819143298 0.005407108551985699 -0.020544651967104758
841 -0.0015403528812130934 -0.003067749159801814 -0.0019129141209681235
1252 0.001922614584471684 0.0037507792499762447 -0.0009638832257260727
843 -0.029580350050347433 -0.001619101336775036 -0.016368868850355225
1367 -0.0010093836113467146 0.0008638129642373389 0.004487160529906701
897 0.029418816734050196 0.009424146667347281 0.007419248861139425
895 -0.0026023178887708766 -0.0030114680733579107 0.002508250979956519
939 0.0068475414273514385 -0.011860978480187223 -0.007962488176086047
1127 -0.003971508184997966 0.009024677032483256 -1.0743829972426065e-05
1126 -0.0040471626511457215 -0.005959448354767624 -0.0021459332739846965
1128 -0.0025674094494802127 -0.021021887035693545 -0.0030893474101382204
858 -0.0043833327771309345 0.0008828877056646816 -0.0002039235860378721
857 -0.005664589569830539 0.004285454350946717 0.008982959573144716
149 0.0028241654054184284 -0.0070199407131266624 0.00014574351306528382
582 0.01157542095445031 0.02966996582703679 0.0007435548263947737
580 0.0018407013421635832 -0.003846900459548412 0.0025454537194887703
1536 -0.004273645594511194 -0.020389963117172328 0.0018826321964364775
856 -0.0028053538070832214 0.002124090793356106 0.002702068711865585
511 0.002186260276074418 0.00239437932559633 -0.003070145136201611
512 -0.005920553884985134 -0.0020580076434490026 -0.0006554379778515898
896 -0.008307704195288288 -0.00317068279287154 0.0011945919359406482
755 0.007018534275383795 0.02063847274025754 -0.008216311375090712
441 0.013955106835556657 0.006792635277982405 0.013310445309487754
1464 0.018976217725608736 0.009860592521076067 -0.006738076911878809
769 -0.0035296624126423515 0.0034655036926628177 -0.004873710831488228
770 -0.018369021123433908 -0.021516024632086014 0.005796825884380371
771 0.009059571009987666 -0.013149345432405585 -0.02162250527801794
205 0.001397572044159935 0.005312944580157419 -0.0006633511533334725
206 -0.010210455946802342 0.0019361789975497867 0.018685086222198617
207 -0.000753643646434751 -0.0016166170151690228 -0.018251818261834366
439 0.0028535326989210523 0.0062230730444559 -0.006683842228082201
440 0.006266765334608079 0.007164736514367121 0.006605957044029632
1271 0.006424242674523859 -0.00520325522096158 -0.0012941413162375027
1400 -0.013834730286021453 0.007915047376692443 0.018204300174259204
1399 0.001588461837738386 0.0024906979258212934 -0.001126822337411416
1401 0.005347668124497292 0.003527157384977524 0.007729540999917439
1272 -0.00024904034434227514 0.0005363206944269116 -0.004845219543192378
1270 0.0016099687194554065 -0.00348733487111886 -0.003855353755547719
1534 0.001348249044600456 -0.0007273762263864558 0.0014099118623513074
294 -0.017607673173698754 0.0030634360248115483 0.021036233856405143
293 -0.012101900141449748 0.0025148383310044163 0.011025796121578741
164 0.014081495989814731 0.0023890444357122175 0.011912993032818548
1096 -0.0013891456002654847 0.0011318192441027292 -0.005005420923263539
1098 0.0005077403652607343 -0.014241492749847276 0.009522611655041067
163 0.0027374656241669604 0.002154179222918683 0.005475198137045895
1423 0.005525931944066053 0.0020290204422930697 0.0031016458366624317
702 -0.006058859987027549 0.008824779297313278 0.005065025446028928
1333 -0.005608904125028921 0.0021287656129899903 0.0024043072684296267
234 -0.007764514791782888 0.005367037393693245 -0.00456932322939003
1334 0.016508975997727698 -0.0008184410635402507 0.014743832380222997
40 0.0021455495947941806 -0.001968624058066179 0.0012633345116225022
41 0.004211612587902056 -0.01249013398598456 -0.005101410891839813
1335 -0.017460489178287363 0.012683748106140858 0.003562278433854486
1465 0.0032388324709912257 -0.00040149204335338125 -0.0017870674349169935
1466 0.005217542347560886 0.02236815631488925 -0.006495833390360127
232 -0.005022676414352429 -0.005553518332446398 0.001131249117661976
233 -0.01394673836118009 -0.009680252182155184 0.006332401380748173
915 0.006967656621435389 -0.029633881154424644 0.01956323262573937
1205 -0.007946219312166738 -0.005443151586780648 -0.007537477925814426
918 0.003504513482989376 0.0007615287891972718 0.0007343692150810483
701 -0.0037468179555189747 0.0011753299522221231 0.0022314235002879696
700 -0.00595060736782357 -0.004769241585263698 0.000866434585352465
1449 -0.017147023605581988 0.006492946910476516 0.014603703516389566
1425 -0.021665674366086088 -0.016941723283825174 0.010779770197453792
1467 -0.0002891908027183237 -0.016806721172601836 0.0031020257780316435
1447 -0.004191895898297769 -0.0014935800980312016 0.00621120318524639
916 0.006837141752806294 0.0003978340436235946 -0.005222469017679054
917 0.003140868179555728 0.0005813155101281384 0.0011917651057440188
1415 -0.0012722462645136188 0.024200904094761194 0.0028700776029908755
297 0.01094845750186162 -0.004862728403744176 -0.000914805957285603
1424 0.000827079841333288 -0.008612603593837307 0.004850536769750944
190 -0.007950015470449025 -0.005157635717101617 0.000968845852700497
192 -0.004234227625492547 -0.005470246061406919 0.005479323448837773
42 -0.017047301025256447 0.0008736466358872278 -0.012865418972787935
423 0.01788145200107331 0.00497203886469669 0.03208923093315994
780 -0.012275318014042677 0.005145097510414777 0.007457014683447832
779 0.02561947224399429 -0.019373915933575906 -0.01076523077803794
778 -0.00015709421964235564 -0.0023553812694231072 0.0001614658283089021
1083 -0.01705939048461791 0.016254367510852026 0.0024717409117449227
646 -0.0015663165366725479 0.0031127132107704697 0.004542018812368749
647 -0.0070703581652795805 0.015098183538561514 0.0032699635728778084
1227 -0.010645105591039318 0.008135061550726286 -0.00559517351866531
421 -0.0032835519761599445 -0.00012105755817598521 -0.0005881509363110521
422 -0.007063784986441379 0.012502726791100802 0.005971062490377139
1226 -0.021115004541778688 0.007362901736157617 -0.010465413584919933
1225 -0.0009652155659234173 0.0015303730320825723 0.004613246237092617
61 0.006740570495515888 0.0052560539147298675 0.0033081881757543135
62 0.007338720666570097 0.012386841732504652 -0.000832390770452919
1082 0.021943512652418524 0.009059880130956032 0.010223928163419532
491 0.004252233188733635 0.0009341605858965081 0.02014717379882341
913 -0.0019523251902170584 0.0008278143497742723 -0.00675828113414386
914 -0.008077589410889496 0.023708604567993837 -0.01519052355022288
1414 0.0039011920257041076 -0.0018536374742976912 0.005007265693603433
29 0.014816433416076793 0.005921600016442544 -0.010984699565054662
428 0.004369508280170618 0.002654881781896708 -0.002548025850558955
581 -0.00444528192789925 -0.004997462792698393 -0.012671140319149073
429 -0.0022240676790955542 -0.0027391325902317606 0.009203814588829747
427 -0.0012561187387056059 -0.003489813963684928 0.0011518408368395728
349 0.00011954197436704259 -0.0018765830594364855 -0.0016980691565328442
351 0.0031305151612176013 -0.008541200415477844 -0.014885491830254862
362 0.01807143450465078 0.005468294520121352 -0.009339819980888503
876 -0.0011284226484306798 -0.004369997204618655 0.005990679769326678
759 0.0036334074693369425 -0.010814755423966224 0.02306999306915672
737 0.0005274123303338641 0.009765174720558831 -0.007011591486417338
757 -5.52342333599505e-05 -0.002652190550823645 0.006626167923636738
758 -0.011404796682216865 0.008813522275867972 -0.010622648096438283
736 0.006933638413920142 0.0026596129015665215 -0.0013625882994782333
361 -0.0015827170862042202 0.0033421690697554695 -0.004611625138300829
363 -0.014344813243112084 -0.004537528814969844 0.005985448853505854
738 -0.014022786857505956 0.020050469450015256 0.011337820777412052
1430 0.020049002089364446 0.024723938165667956 0.00017887303696116063
875 0.0030577467499079145 -0.025453155736180344 0.026245489555095605
1535 -0.0038385959738584108 -0.0005032534216726463 0.020369903145930835
874 0.0015270405446381674 0.0022463410153041865 0.005004710033513203
292 -0.0033169489352747085 0.0044073059829081215 -0.005083018183630717
1547 -0.006054475156573132 0.00306728112648345 -0.0023630431243803723
1548 -0.013310899442081919 0.014333833304838478 -0.007615614158167041
1546 -0.0032491120554542447 -0.0007932137761663707 -0.000803994631150673
523 -0.0020716495058954814 -0.0015450233025798474 -0.003139586980555464
524 0.014764408109207776 0.014628830458665826 0.0022182522870268537
525 -0.017857474235033657 0.003528956159518781 0.022283509683325882
507 -0.001405893305791586 -0.0036715759913329743 0.015082270230346667
352 -0.00715691870825123 0.006574425687144059 -0.0006888472313391502
353 -0.00019872285650347836 0.04002950459204523 -0.0006913098902127005
354 0.007084437306621294 -0.006144497317911912 0.027811996340538006
411 -0.010142569062371843 0.0004791539932752266 -0.009564564340787677
420 -0.0048769606247815595 -0.0037488668233419424 0.0067860758362537745
418 -0.003234370282567816 -0.00627747734701918 0.002197523286952194
419 0.0033967860282000757 -0.013080536225401857 -0.010873150466061916
458 -0.0017652176922233547 0.005685089437920525 -0.010067862341978068
46 0.0031251272767102113 0.002430387249585495 0.0042824165917531975
48 -0.0034648176266214195 0.012827518801981417 0.006868703810514416
500 0.0042163288363846595 -0.003057735333683343 -0.007921102106416222
535 0.0006598141486530429 -0.0031247714998514143 -0.0029974215326085615
888 0.01747251841556812 0.003108264977733649 0.00044193046683696995
358 0.006740902901612641 -0.0033838472261482227 -0.008228307784635078
359 -0.01968045498318865 -0.011399039750562577 0.00415728404686953
360 0.004516724469021088 -0.01946509291373301 -0.030706807701577948
1532 0.02144879759047309 0.0017980931589181093 0.005789827728432561
1206 -0.008775969379782003 0.00111693627689918 0.0053550187181927635
1531 0.004726072558000194 0.009497169387759892 -0.0024732479553113
1204 0.0009162037261841718 -0.001683234828310126 -0.00045272103688771126
1055 -0.007387096447763778 0.014095577353545705 -0.021134411447247516
1236 0.004070091418262601 0.0062991234998615855 -0.0013396307564135098
1056 -0.01255151944562279 0.002515191431876428 -0.024980227959361837
1054 0.0020302428834659326 -0.001887381864536465 0.0018194594117060614
1234 0.00867412661938121 -0.0008577944567051351 -0.005233043562848528
1533 0.022305779934426992 -0.02178886161873319 0.011389498433758052
295 -1.6967761065574672e-05 -0.0005694977366502124 -0.008294922657850807
296 -0.00030824246565443273 -0.00473047280953522 -0.01883987086978542
686 0.006626774776931407 0.002978146057152827 -0.002587366605723898
720 -0.0016767286214806212 -0.03278690126424539 0.009057731179910954
648 -0.006970474284500327 -0.004219576569464936 -0.0010003891027148863
685 0.002029078080072459 0.002789436526071875 -0.0006877242793719056
462 0.0008203035725831538 0.007846355490330668 -0.0005038206758093747
1412 0.02117245579496556 -0.004760403659986903 -0.01800308036227029
460 -0.006636123038600266 0.0060581296750236895 -0.0008024394914477585
490 -0.001281072034156308 0.004775391968019343 -0.002823680371123434
44 -0.03247355815630405 0.01616787668265302 -0.004095385127421322
614 -0.020986581487642934 -0.0009322509855993255 0.006670794999781839
615 0.008349534640492779 0.0041148560733611644 0.019366691997891743
613 -0.0017284048945801892 0.000602791014771164 0.0026826169970323704
461 -0.006560794240720991 0.00238752477295046 0.006030054610093862
1413 0.01068987338198283 0.006846734610467834 -0.010931383195935436
1411 -0.0022334807696379804 -0.004741774985104572 -0.0027724296314720937
687 -0.0007092613178513718 0.002005855560212658 -0.004436950560246078
492 0.005236947979482697 0.00020074758155338253 0.014252418193716341
43 0.0037843344611753387 0.0054269036673209 0.006396877879908073
45 -0.016745739323306575 0.012409888342505523 0.0006605287419778085
1416 0.004929857016735311 0.017964939390285727 -0.007328204561279449
634 -0.001690341915364468 -0.003724966637017742 -0.00139305352629204
635 0.006231983371702419 -0.007778456071527633 0.0011390450150261242
328 0.0019865115131323012 -0.003308920010377703 0.0013197260425931484
329 0.004667925023239729 -0.002973019463124525 0.003697556461366475
228 0.006328937049532761 -0.012542082868972446 -0.017188787358213845
330 0.0018215416224052405 -0.018723076525826384 0.010517955457650828
340 -0.002750671747196324 0.00921505967940214 -0.0009184732129262672
342 -0.0033020342833197775 0.0031536510023114847 -0.0010235279920189687
611 -0.0051713762247208184 -0.009892895064829904 0.01787338246881986
633 -0.0008803835277327198 0.008570971750653548 0.0032108311316898226
661 -0.0021392488132209175 -0.003852477825056926 -0.004131049355575901
662 -0.013407450080835968 -0.025127187104761542 0.008929985390789446
663 -0.010760133756651939 0.02621924910457153 0.008001211910492098
610 -0.002423990794005139 0.0032753618420235243 0.0008418967735852697
612 -0.024098711884179752 0.01044343100205525 -0.0034096179852681993
1492 0.006066632680151029 0.004380659533974906 0.002412435325412157
473 0.0029792210236595502 0.011115900623304075 -0.003092620614121878
631 0.003625304695603884 0.00554433575498747 0.0036621557825513252
632 -0.008513532326012046 0.015303223824593322 0.002051599179039271
341 0.006624731235123327 0.007791461959462754 -0.0029946822724917135
744 -0.003736768900355931 -0.0026742402209589595 -0.010216659182887947
636 -0.006833218741730256 -0.0031312075638862524 0.006274132574502515
128 0.0064139171684478614 -0.01592390066159696 -0.014357377674860637
884 0.008643150103949112 -0.01304247011538343 0.0022140605137762896
304 -0.0004873049707299797 -0.004057091500551222 0.0027798062013681614
305 0.00042354692907504076 0.010987397993158846 0.01135812580861824
306 0.0032177470943250755 -0.0022646442061930038 0.010469475199827438
32 -0.019432896190429483 -0.004091197243005645 0.037379665884254745
31 -0.0037967155712463167 -0.00043350376860656025 0.008654984644662413
883 0.0034091272867882148 -0.0018917852154673224 -0.0022948045980413566
885 -0.005016530271176381 0.004110249585856933 0.0009147844915205105
33 -0.00728588547640147 0.009137154042787247 0.00635444394693795
457 -0.0023450085529888214 0.00812917537952602 -0.005179147160741266
1293 0.009854281001131622 0.014505565162334418 0.004467981552527171
743 0.012864456608199818 0.02037564585068888 0.012394077342577777
1291 0.003600271356394755 0.00229622831089265 -0.0015080725023196792
1287 0.0009471105066888299 -0.00014527498134579234 -0.009853843634667734
1285 0.000574185047421692 0.0028505795152754315 -0.00487738473269983
1286 -0.002251875211407606 0.002385156689729088 -0.008770263146974818
742 0.0019707257040348387 0.005576789087465076 -0.0017425482930536152
1292 0.021865981340606824 -0.007236618437255231 -0.01571983076588193
1174 -0.0033521931339704453 -0.0003732672671600845 -0.0029238755443124686
179 0.007743106736503195 -0.0024779766623974743 0.00057253995919021
1175 -0.017536959045321144 0.01862991835292487 0.0029196993639367145
459 -0.003206440817469118 0.006077626267154334 -0.004417130543226092
1235 0.01087406529363494 -0.0037454863005390005 -0.00863523868417037
1176 -0.011285680265496714 0.009623568226810644 3.0069048220259108e-05
141 -0.011624003934286094 0.002909419488794692 -0.005398955660450928
140 -0.002998879871075512 -0.012550006150000606 0.007279583709258325
139 -0.0012289324169343226 -0.0045880443389109335 0.0008206212008007908
719 -0.005570182444184983 -0.0003067289122554989 0.01878977150235167
718 0.0011024246639139402 -0.0033572697724962007 0.0019502959181166173
1563 -0.005318600677304999 -0.0025977404774217222 0.0036935372691743553
1561 0.004820323218187639 0.0036506446329060776 0.0029903759512070346
1562 0.00918010859944724 0.0038221757251202765 0.013311268090029102
227 0.0008459361105310445 0.003612781449930187 -0.0014097118368426133
226 0.002701781494723775 -0.005071168231515706 -0.005102930359395883
474 0.003352916349243892 0.007412452083155345 -0.0028860303283195945
472 0.0006777746053454691 0.001588242435693873 0.0015567229000199865
591 -0.007284702372447693 0.023244973419498067 -0.0006739089125723083
1078 0.0013771381702726128 0.001974875485899441 -0.0007598579525974241
180 0.000347687549854194 -0.008071917966283083 -0.0011997684747707326
178 0.003405975164753637 -0.0039151496316823155 -0.0015515585458030015
561 -0.018813485353311052 0.013127046927079404 -0.008944013131442146
1343 0.00526743928761597 -0.0025813093495908983 -0.0019100074190047953
1344 0.007574793565957268 -0.0007280991834498822 0.0023921974882124743
477 -0.013203147742769344 0.00475163096655186 0.005255117495519091
475 -0.00391742432274774 -0.003544952211957358 0.0029218021738215056
707 0.003408692422844043 0.01900032284752075 -0.007548999976061002
706 0.002288530836880268 0.0010487283385849603 -0.0011525162636321074
708 -0.012439475282901524 -0.004367340166712278 -0.01432415164543986
934 0.006548616691128261 -0.0072099844930152935 0.004141051744229571
393 0.00565679742750096 0.003862247504593371 0.008973585774411921
935 0.0004240392099760664 0.006298452055905902 0.0004498615176691285
1364 0.007904754447700568 0.019831728538345837 -0.02682980353286287
1363 -0.00012201859741929479 0.0081743951938829 0.0046517144117861784
392 -0.009647707205422702 0.0008216537233354453 0.0062624275269209185
323 -0.015305263299233866 0.02106833381318844 9.883876042082157e-05
936 -0.00022218311140934901 -0.0007473435339863106 0.0016373066946241408
1365 -0.0098211487209228 -0.010220029927211051 -0.007028251956478348
381 -0.0022973903957216398 0.010359725224864723 -0.010463548772255181
123 -0.018000630434430346 -0.008579238426707356 0.010128568893112146
1342 0.0018043899209828627 -0.0017751691726585657 -0.0011692402168702793
98 -0.007512624769335143 0.012656919624377466 0.0018645115086210796
97 0.0009726220374328756 -0.0015821686342253694 -0.004778412318242822
99 0.022510492019901875 0.002659046756447006 -0.0051610734917343914
322 0.006916144685492996 0.000602894788665392 0.0020206793812189553
324 0.0005727266413459529 0.01277383890538583 -0.0018773481824080772
214 0.0022804910384457604 0.00666746791710418 -0.0019844439764723203
1543 -0.002320508053754602 -0.0035184095606776763 0.003453575500838702
1544 -0.006911280588773676 -0.001984275489491695 -0.011153573405437439
1545 -0.00240041170718684 -0.020158388714829646 0.0007758921220641247
216 -0.005934998135172639 0.019921788286893997 -0.04151608726504877
809 0.008274304951741607 0.010022613402578727 0.0061741568752763775
1021 -0.0033437843262830187 -0.007310130754792906 -0.002071557220749474
215 0.012244864292485318 0.015943954655618972 -0.018535350644171195
1162 0.000473082341621602 -0.00041522658634666256 -9.466163613200484e-05
899 0.002650224305747226 0.006795604490371614 0.016725180972281362
732 0.002626555490340855 -0.0033141903023771726 -0.007322427085303107
275 0.006742062628742218 0.02398698874988438 0.00497690491603898
1022 -0.01397569271664144 -0.01304154880637295 -0.008841647185910687
900 -0.027000897913257518 0.0038275872479171837 0.0016720497659980353
1023 -0.0043154859659518575 -0.0022353865710912804 -0.01544709356064821
898 -0.00454768191653011 -0.0017734578153288847 -0.0016015556039418496
274 -0.00452066460449745 -0.007783765813353759 0.002349964081993357
1216 -0.004278764075305366 -0.002741735859811405 -0.0012166930023956146
1164 0.006394754719291838 -0.019201885041641952 -0.001583647452384784
681 0.018241826179299172 0.008300846063052248 -0.013445230161111942
679 -0.0008350988592559996 0.0013486246081235765 -0.001467042987681241
176 0.0067564078634405195 0.008781293154541401 0.0012544658007567692
820 0.007801466506430087 0.0015579224578079992 0.0024200295244179676
821 0.02450340423909146 -0.002105529866644839 0.009603055474266667
822 -0.020551384490591292 0.006857066964229144 -0.004051994409594529
855 0.0027642101084641817 -0.012527500093544437 -0.0021005664221105764
853 0.0024823829487880455 -0.002667900253762501 -0.0023969597049613356
854 0.0027373455719777976 -0.006519463009427179 -0.003979226308311326
175 0.003199423581460709 0.003943815612097486 0.0018927870928928394
177 0.006818277900010046 -0.01629699302709208 -0.006377675837681854
1032 0.008057669013784019 0.00022030356510588714 0.014424795809513447
1030 -0.003910481085217221 0.0019264972251303077 0.0021916822366021558
1031 -0.008402838278679338 0.0022111711776066816 -0.0023888838750071076
680 0.00557274042961603 -0.011747594784229643 -0.006895672361312013
486 0.0003070401580212193 -0.010418916693780474 -0.007067869662466664
1481 -0.008107415815855532 -0.0019000047916531593 -0.0021236126497181443
403 0.00475132162691564 -0.0025035625267793423 -0.0037924457236383938
416 0.0236762976906561 0.01941579315581865 0.016911301295045995
3 -0.005345614136195568 0.023196168767562888 -0.00693117581177012
1 0.0018140819547063309 -0.0021030565756373523 -0.004092724923444663
467 -0.0008719481546748997 0.014140860645865956 -0.00785677702851437
466 0.004324042887242645 0.0054519078251118605 -0.005475850765277682
831 -0.010576671173532066 0.010853100510594179 0.013416836532775693
404 -0.001276722644791445 0.004483249949196156 -0.0064529485238123355
468 -0.005152760948639695 0.004157475103929641 -0.009103981610217388
240 0.0029212023776630735 -0.003291228453167489 -0.0007922585829777439
238 -0.0014584446578186424 0.0037792710716571826 -0.0019197433709555864
239 -0.00465292855506644 0.00721059978309446 0.00443607175595533
911 0.0011474903732055536 0.01552683521713771 0.02011565753196602
910 -0.0016510765792953045 9.290173060913586e-05 -0.0007277033798913391
912 -0.02441622041177622 -0.013848073230704616 0.0006373577206311812
1049 -0.0027831378074608436 -0.008175758493329587 0.017070626237618177
829 -0.002542654828686596 0.003164062447540897 -0.004483226467932814
830 -0.014343703741107126 -0.0013986557213572504 -0.028496859869473916
1245 -0.006134826944702683 -0.01173224209283756 -0.0025219913313358783
1243 -0.003054804906423694 -0.004434789489026784 -0.002882467437249456
951 0.011398804796767407 -0.00023339365045508715 -0.004767211932743685
111 -0.00896338832449851 0.00891653716552475 0.01460781926830364
620 -0.006206332787279002 -0.0005340884981914059 0.001662026558265258
1050 0.010392541992049172 0.0027183614789308974 -0.0042653362095013275
1048 0.003246002087321907 0.0030321851854564754 -0.0037121988104382485
619 0.010753388521739989 -0.003777283883490144 0.00018996061412848705
83 0.0028911444005818654 0.014003877382245539 -0.004177374463680712
1244 -0.0025179910977807364 0.00651023216783062 0.0022463461751491363
621 0.008233907969979479 -0.0016300111334438447 -0.00034410587050922036
476 0.0014832486804313056 -0.004418421039126822 0.006736975375173165
923 0.018896324477616293 0.02085150745913765 -0.029485729808120534
1454 -0.02140503474800487 0.006012867384948704 -0.004324451948407561
1061 -0.007893044790215121 0.00032824055737665496 -0.008292076053628418
182 -0.0023553003326165847 -0.007276397810428138 0.009124443227301141
181 0.0008865075392006138 -0.0020909629715086336 -0.0022219005307790793
391 4.207744250803439e-05 0.0005706178018666448 0.003749119078076212
1353 -0.01572815875511078 0.010571528430962967 0.013811714630538095
471 0.03608262924426896 0.019436893529626565 -0.01917468242522984
1296 -0.01187193542530546 0.018449872951672185 -0.01110185531994102
1153 0.0015548748465626892 -0.003414287200999746 0.0041038982176294855
571 -0.00024266469316025084 -0.00016611681899095815 0.0036442332829914968
924 0.0023099007330927004 0.00964281212282304 -4.835925302184417e-05
229 -0.0019689371039024513 0.0004780409671408956 -0.004243069964940884
230 -0.018950304903176132 0.0017919017203426998 -0.00750756910135486
231 -0.021714108705211153 -0.004951504360199242 0.004598206512453839
35 -0.0036619122254200856 0.0011983336810169906 -0.009001902540089304
34 0.0019769920243241455 0.00411474894508376 -0.003855321357644094
157 0.003287542324541795 0.007293011136326056 0.002054923052508788
1351 0.0030808023872993433 -0.004933736175883125 0.0023713103346682217
159 0.015743134583230154 -0.007880285681914163 0.00047333608709988176
1352 0.005901439637240727 0.005206035431973524 -0.014418693108678304
158 0.005217522747580539 0.015978933374579743 0.01164016005756716
1294 0.0016280606744910379 0.0003681828983100446 -0.004294941593221858
469 -0.00793785143769213 -0.004494489447729344 0.001711812245539713
272 -0.0010356425753893362 0.006266117050402403 -0.013095632440741132
470 -0.004160755605900337 -0.020773353212097414 -0.021949869713089078
573 -0.01218545888258531 -0.012488374674507514 0.004677949608766875
1295 -0.005224123489988828 0.009952601701737892 -0.006396612238862364
1154 -0.0045574500974756545 -0.0017574066489611437 0.0006982342761438726
271 -0.0016014948232519325 -0.0014598716586932921 0.0002571279205760459
836 -0.0223821002038063 -0.024299745118418606 0.02000620303513516
1155 -0.012026767160891379 -0.026570793148056198 -0.004408785404347303
808 0.0036393925478212527 0.007411572353485348 0.0007393200623253065
810 0.006282015038701952 -0.01932125368467948 0.007461216303465563
402 0.020917672793254183 -0.01023489221069258 -0.010633573673695764
12 0.01152958279435002 0.006559375359004383 -0.008615716081937692
10 0.006743302256854027 0.006259824952411084 -0.006327257478095409
400 -0.005141555341645238 -0.006153790553328451 -0.004227977465210492
1120 0.0022210321386719155 0.005010770700805642 0.0030501830722336194
1122 -0.002694897404484139 0.0045838191207828215 -0.02168909038718851
1418 -0.0007535425756331495 -0.010956179894673531 -0.0030808421468032825
1073 -0.013927599591387214 -0.012789943812778773 -0.007074188484067397
401 -0.009704914074799802 -0.002689137655202013 -0.0009213228465512108
1417 0.002933747809581365 0.000559189656973917 -0.004578344400755797
1072 0.0006023232156042767 -0.0020045168669030177 -0.002792121211494403
417 0.01017284175001194 -0.029229373835287127 -0.02395154596325413
1419 -0.004580723141503436 -0.01658301198648143 -0.00029045183999732197
1074 0.0028393121090857293 -0.017555835708119215 0.009661268012592365
92 -0.008681933860180905 0.004615689981918949 0.011877617985304168
11 -0.006108153127246406 0.013395662379345804 0.0037108164135536844
102 0.0013832058606473461 -0.0036663060066434165 0.012903664545854739
837 -0.032886549618690135 -0.0038603402919416222 -0.0204869729834363
835 8.359644619805212e-05 0.00026293975714084434 0.0007075593601745666
415 -0.004715266160698279 0.0011177697140720797 -0.002835706110916444
1480 7.436040611463285e-05 -0.002895737330141774 -0.001123161527018757
1482 0.0031671753663718005 -0.004961025912562212 -0.008774911416267654
793 -0.0012836788208685041 0.00036541573316532355 0.0024350686155583524
2 -0.002776325022548653 0.019253169236963068 0.003008279158848539
795 -0.010454570649650934 -0.00884323211885816 0.037292442145097054
903 0.01668062698226195 -0.008192941666245367 0.0029086340995647833
1527 -0.0018305086475614231 0.007636420829388621 0.004491715513078649
1525 0.007360900007308449 -0.005224923580304475 0.005369402942095424
1526 -0.0017369328328688941 0.00031675521880946214 -0.008414767430045296
794 -0.023568594232132055 0.019516266935394835 -0.005616527712533551
100 0.0023399593215424983 0.0026506614401133337 -0.0002935260147924236
101 0.0026630306031766656 0.01842966689120306 0.0004156339606008397
901 0.004718756830463365 0.0013338243824973647 0.0046464992804455115
902 0.005607402666868979 0.006713666163505866 -0.00336168297230476
84 -0.01554163897928436 -0.011386719012839107 0.0019603180043058182
82 -0.0007356617066619503 -0.0005168172820885912 -4.463962796149457e-05
148 0.00012950579041147529 0.001977027998129583 -0.0007459655976146927
1108 -8.761590698997039e-05 0.0017097641939138278 -0.0030256169828327215
1109 -0.007841097589615192 0.0050507120864699525 0.0012836425441544335
584 -0.003056746583163829 0.0016632952056517011 -0.003994727420887189
583 -0.002773494671225273 -0.0005172883265203897 -0.00399816430571435
585 -0.010530732689871949 0.012943537341239065 -0.014544816523849024
290 -0.0032372294562015404 0.0024298729744675054 0.0029382672746198803
289 0.006476419227027347 -0.002043690733885681 -0.0004456881872058733
291 0.005564053156727014 0.004142296822706541 -7.995603740622792e-06
987 -0.011070865337150433 0.0012656736254417975 -0.008413524334153268
150 -0.010940432593233176 0.003571112835500932 -0.0048491579824118895
529 -0.0014813619976481029 0.0006223892972364832 -0.004876111708119294
1277 0.009555015875518743 0.007300920162794145 -8.851305636580739e-05
617 -0.008453171180731576 0.000781596600099369 0.003010548437208148
531 0.0031164816416648666 -0.014431145720806789 0.0078173945944692
530 -0.015089893050189342 -0.007327466466023993 -0.02118040723779986
985 -0.0035884877707641773 0.0044754460914902495 0.0027990669762985167
986 -0.015249888042863735 0.000859901381467162 -0.010071017380355098
618 -0.018191986204064408 -0.018794186311840967 0.02004607600968441
1276 0.003693310007463687 -0.0005565276857419088 -0.00172996110227832
1278 -0.0017093224410579526 0.004416635586954287 -0.012954879643980411
616 0.0005537502802611074 0.0035633335662689893 0.0038064781274954676
15 0.009933149105406562 -0.02512183350521213 -0.027295350894552615
197 -0.018477952804768258 -0.005603815384253444 -0.01164462413215891
196 -0.00018167555486876369 0.0020988578451712242 -0.0013835409417291317
13 0.007428026115981014 -0.005812596076679596 0.00506179952425396
922 -0.002039822900664551 -0.00040758430387437613 0.0010312894323731827
572 0.0019435147905681952 0.00020877712991899413 -0.007788484965933333
36 0.00322880792116696 -0.008674313329720611 -0.003943325511741644
183 -0.0038011765507232303 -0.007439887924462874 0.0009965389514884169
629 0.0084273651230719 0.0038103833752756496 0.02644507207723037
992 -0.016528388095092307 0.0073230790829817765 -0.007189153574496576
991 -0.00038469897900066775 0.0012647172143717827 0.004467005611638538
970 -0.0038488347142121124 -0.004751285352365278 -0.0008510389889487553
972 0.00010781055699542462 -0.012802091052753713 -0.005328342623465938
971 -0.018914285502796283 -0.01218867166732265 -0.007434996875365687
1112 0.009731140211769003 -0.008100816266625408 0.013256502099794005
1111 -0.0020138338838718312 -0.000724904301945981 -0.0010134395181984194
1448 0.012656066402893403 -0.006219551106268804 0.010976124632404799
1113 0.0043227433769392 -0.006523424180123626 -0.020030970373747365
273 -0.005503720562605749 0.010517635996201587 0.012464082363870277
1095 -0.001101084773327855 -0.0015209128965539478 -0.0046081515003321295
1093 0.003111442274934314 0.0018888523920734584 0.0008964856203757455
542 0.0044553393944141255 -0.019855648847657344 0.014038986038847671
1382 -0.016216952012406215 0.006987241573056301 -0.015815526284365552
375 -0.0095166345583848 0.020495051973777448 -0.0004206140292114784
628 -0.002952666729282627 0.00031003751735600053 0.001260707637600249
541 0.003490805757821965 -0.007431270457451655 0.0006052824196248709
543 -0.007435321616308586 0.007934889216011843 0.0007136339574243224
845 -0.005534072391266627 0.002335680405050757 0.0025641906040886294
286 0.0012555829577591644 0.0011319361407994809 0.002571134422713175
191 -0.025152621706541943 -0.005487584602554319 -0.022218053485047226
63 0.0094470390431997 0.0013527090402709898 0.0021923070585311596
1508 -0.011141065331545652 -0.01067671154340503 0.003890408539830372
1081 0.002389021524291342 0.0019213334361065538 -0.0024713456543763624
993 0.013710262142796477 -0.009244439279903602 0.02043319537150362
1094 -0.005334455062759053 -0.009124518196471351 0.008424176936043856
1507 -0.0022427693152699247 0.0022887789939284794 0.0026638940809293513
1554 0.017097944652716714 0.0020120973974532452 -0.0022993478949273703
1553 -0.012770026823870703 -0.0063079676524037485 0.01170135429695706
1552 0.001614120086409752 0.00042185289327997545 -0.0006880481840068868
1121 -0.002306588118390223 0.007461294852853619 -0.004085198078228141
804 -0.008876331811334555 0.016320519669844796 0.018151887830872546
1084 -0.0011384090088617177 0.002238971757555029 -0.004209847892472032
802 0.00076547826301282 0.0014018568843483675 -0.00070660745480777
803 0.01611657714842189 -0.00018345367083755202 -0.0016003012424328036
1085 0.0018507796480590206 -0.004413592420491272 0.002146245602812283
1390 -0.006174872063204488 0.0024299901213150287 -0.0012540276235425863
1086 0.004787561359500311 -0.008809640946491896 0.008561869981573043
1391 -0.011210473506542269 -0.004391674198276287 -0.006493008099360369
1509 0.002282346452236166 0.0391345262701656 0.001070419980926085
1158 -0.005551277056642989 0.00704767113221236 -0.01533152004341979
1156 0.0019373786426021505 0.001121129672293223 -0.007086304328856288
1157 0.020568939604633386 -0.014349076133827039 -0.0073866316690494455
1431 0.004501262753706484 0.009873878402707738 0.0021676041797492993
1429 -0.001783135168762428 -0.009887670855749826 -9.946673678964022e-05
1392 -0.005456754610811295 0.002400283691786028 0.0021658433160682412
983 0.010956839494204756 0.009885526583893025 -0.0012864434771532424
984 0.013249121044445951 -0.01115986661561159 0.001683215947109465
982 0.006415359426811533 -0.0024244916427010195 -0.004445194998559387
1380 0.011394918350581961 -0.004278699656320158 0.011594695958581492
1110 -0.005325080753232123 -0.007027071062787902 0.007057275189564722
198 -0.021280808227839627 -0.013844872926499618 0.006789144392658255
1379 0.004449939263564412 0.007840168580675433 0.0054520077383409075
1378 0.013477623036089867 -0.00028788093477387605 0.0045460376257902505
1044 0.00862904810587711 -0.017192272936989054 -0.005080886640380649
1042 -0.005289735685832032 0.0022546798948144594 -0.0018311645190678242
23 0.02644694008641204 0.00948776527908681 0.006394576466114792
22 0.0018934698230560626 -0.0074807349539976085 -0.010404139608062178
24 -0.031142784694886426 -0.0004258521397357239 -0.024506659974392744
1359 0.005246429891897755 0.011270483073163086 0.0056966628487847455
834 0.01001298914867165 0.00590419988804545 -0.0011687039409169044
1357 -0.001419973951119887 0.0037726863145312772 -0.007402048757905249
1315 2.6315946501039947e-06 -0.0015875034034351172 -0.000972932616700648
1316 -0.009171100896000577 -0.0003091564532638253 0.012248136683430434
1374 0.01572180870973443 -0.009789813494809322 -0.026350967961626393
1373 0.0012936136915583383 0.006980719806947603 0.011416845468623394
1179 0.0045310127300734766 -0.01532784055065769 -0.004417810758159151
1372 0.0008973385196798958 -0.002739814737202755 0.002809390332593294
927 0.002318504962347855 -0.008049673353530679 -0.0001042261176886753
1177 -0.0011054631561953259 -0.0021886061566300957 -0.0014373354066241453
925 -0.0009464886054854483 0.0010909930007267446 0.005344684338572639
926 -0.007041206641832446 0.0020159389087021965 0.005343019368825138
1317 0.008092043282935241 -0.016490988362214066 0.008312029465084624
1358 -0.016344064056756927 0.018905936455606 -0.011992826513793228
1241 -0.013571217219396742 0.011532831687103149 0.017258450841780983
833 -0.012359024380209745 -0.0016041258410826348 -0.009498195733704598
832 -0.0035932393678444947 0.005411836283165644 -0.0003733802783034261
1240 0.00169116736642868 0.004251759465988467 0.0013336645886626588
1043 -0.012883349623854175 -0.005376792233071421 -0.02256867617232812
373 -0.0003077912189537177 -0.0024512966598817937 2.372462740851327e-05
630 -0.0048935201669851785 -0.011828266783912288 0.0028063763530765027
374 -0.006285502637071662 -0.029079049411781802 -0.00594816110716859
287 -0.0032807501203742304 -0.0017318976039433804 -0.0014381085396041574
168 -0.012726081486493806 -0.020283359365680032 -0.011193519087977064
1381 -0.0010923907207537038 -0.009594557996045073 -0.006183155940668609
596 0.016330121628062404 -0.00039381738484620116 0.005294057540819599
339 -0.01202399146446277 -0.010058058560124228 0.013469776084742287
1300 0.0014210433141037873 -0.002626522786487717 0.0004603024106998459
597 -0.001085273048323265 0.0046952614667967 0.005984968774633074
595 -0.004585528605347488 0.00516595621494611 0.0011921279994330765
1301 -0.0027767296745960235 0.004633306707335075 0.0010768592611470362
326 -0.009819578797578212 -0.013437603748367943 -0.004819370981410832
325 -0.0027524480267020627 0.0026399110593675183 -0.0013993827341299344
327 0.01303983864593718 0.01004171441784724 -0.0028855544482501074
788 -0.007497403345339712 0.01738034554206172 0.008325759023065593
787 0.009147568677189742 -0.004314067120072463 0.00398306356561203
789 0.026516149885675046 0.006484235289600099 0.01268396509914074
54 0.007495047849690086 0.009140480639538857 -0.008083696992169875
1302 0.00789808774140125 -0.01823980134686638 -0.001928148480085887
1360 -0.009822108207709037 -0.0018180517068009507 0.001997615601171785
1361 -0.01307388598899493 0.008416281541628838 0.005222434228347749
52 -0.002520227229838876 -0.0007922686037314138 0.005841530670043388
53 -0.004240690669960566 -0.0010338016715852466 0.005022167491092937
1171 -0.002371341019595001 0.0040227300924113455 -0.0014840855392376125
1172 0.0035909758391110035 -0.0016068416016555857 -0.006465738128072613
1383 -0.006448904745058914 -0.004787238136874205 -0.007715806272886115
302 -0.00272829853177593 0.018440009935983492 -0.006155664278777838
136 0.00600501271912678 0.002791318839858428 0.00827589262127194
138 0.0013529859546150276 -0.0026243225009630294 0.005768808305909797
1362 -0.011786495226761198 0.006573174834243473 -0.0031166779854454895
108 -0.001983388486605113 -0.001938694268290511 -0.00022732077703969792
106 -0.0016805057370017599 -0.002304575881570454 -0.0004341500595729614
225 0.00337230592646173 -0.015602340888097992 0.0060485233232838035
137 0.001817997015252465 0.012848553919211698 -0.006731656422853112
1478 0.009910340491900716 0.0010262290439312155 0.00843878774370866
1477 -0.002868101194669645 -0.0008968242984524427 -0.00030292870095063813
1479 -0.0013772319455842915 -0.002135676071284223 -0.0005011422583009199
1105 0.000969731102470528 -0.0024213185716062922 0.004006168097027685
637 -0.007357392542092223 -0.0005597769251462701 -0.0044201157506322634
638 0.023028379557875428 0.01876138414048148 -0.030428688184433117
639 -0.003304507886725553 0.0023796162850044673 0.004497660276571584
540 0.0064823600616197765 0.0076929519501563156 0.025367615872095323
731 0.011777891015697284 -0.04175518478907159 -0.010139939582810417
1107 -0.0005114174154998117 -0.004765007944901938 0.0025558576244940085
1190 0.004248224416628144 -0.008310790575175288 0.010158289564421398
1189 0.00172375386065978 -0.0019870792985244943 0.009687234929246991
1191 -0.0019905595481622897 0.005856532984841277 0.008934572304463902
224 -0.001726808072476024 0.008371970704383275 0.001462452953693552
107 -0.005346432767331421 -0.012323279431947751 -2.1800006857667965e-05
1142 -0.01113076495611417 0.01297971106997133 -0.004384327949201564
1141 0.000726978120522877 -0.0033915572247923275 0.004182588412554271
1494 -0.006307568023621917 0.016962094764567847 -0.007383860936938935
488 -0.018801996980046403 0.007727498206661943 0.014375771398344063
487 -0.0019511842720102016 -0.0008986344484596941 -0.0020846156818236468
489 -0.012406417465434482 -0.0036786981649861573 -0.008770854761945359
223 -0.0012327657224008956 0.0047262348085029965 0.001084685097485677
740 0.017773191087660997 0.011341066549982235 0.00893326859385904
1143 0.0060632987420219595 -0.02279336067804135 0.0019317622171188553
739 -0.0038792647557020538 0.001613544454166997 -0.00027446652270593654
741 0.025984651665034542 0.010855664321405471 0.023761510303452058
1493 -0.005252604934880192 0.017217888376738273 0.0027682133626169276
1214 0.011916212296602462 -0.00203142569396202 -0.02572293431954198
1213 0.002993775125770081 0.0057748882122168645 -0.00026629466455171746
456 0.005674824238958609 0.011044376416165598 -0.0018424842649576772
113 -0.034989585099850076 0.00099481766828746 -0.00729456715704035
1443 -0.0091148737752115 0.025679109223889295 -0.022915153282330607
1441 0.0013529262850023405 0.0014731040317061937 -0.0007472276554405774
1512 0.002135681347478909 0.012903727477467666 0.0008354063990168087
1511 -0.003225860998188776 0.0020973680716264405 0.0029549359854732253
1510 -0.006659371962969544 -0.0023138872228907438 0.00697541507608829
1178 -0.003364487358360574 0.003365978056870649 -0.0003123147104507154
550 -0.0030342197945519085 -0.004102027397521904 0.005755713683370032
552 0.0084957313735398 0.0157239233647682 0.01608698845657773
112 -0.00970193754884348 -0.00957984877585743 -0.00045446618483591
114 -0.006068809968545993 0.008979515067301515 0.014655561459155345
551 -0.005566958082586261 0.0076987572551429715 0.0032210171197682544
1167 0.0041978074641583225 0.002512883057386293 -0.003566162333383173
1166 0.0061008366531597955 -0.010889735273411954 -0.0016278881322702287
1165 0.0054463633951820556 -0.0029053189752604185 -0.0018860515492138642
433 0.005151448346768492 0.002029871924316179 0.002256941676635867
435 0.0005264683885643973 0.00720442039214551 -0.009904677315107292
711 -0.011350251645594072 -0.0020205326770869362 0.011542181539782238
709 0.0009245966070524425 0.001416701302708134 0.007292057562544769
1279 -0.004284558955393239 -0.0033171839697663788 -0.004416072775572626
1281 0.001847027161782238 -0.009677798196792813 -0.009381840476654716
1280 0.01089599181694295 0.0015887538018616433 0.008019706974254233
434 0.028305641651219026 0.0033733426151887867 0.0015493884412323617
690 -0.004201436943138635 0.013957503658706101 -0.017100349094545414
301 0.0013561954634722481 0.0037288564363163043 -0.006968743773660622
1173 -0.008069052971526212 0.009078583288964248 -0.007135504919199842
379 -0.0010910965536068001 0.0008186238719268713 -0.0037064954283161297
380 -0.00391629237653836 -0.013347503889929878 0.004855812063910308
849 -0.010899981069135688 0.025065314520299437 -0.013747838588977051
337 -0.0029569510593877284 -0.005087266108872784 0.0036011381234617433
122 -0.016369691782248206 -0.0014689057904954115 -0.0026341435940751227
730 -0.0019774374821630337 0.0017382769937200216 0.004156024859340773
538 0.004656890014900382 -0.00037318790331530263 0.006693496342543056
121 -0.013297741358656882 -0.008276266810841605 0.0024290306767598495
1163 -0.0017895261290415572 -0.0017585607118256745 0.018545859982665287
539 0.005347343208688975 0.0008790896396942258 0.0014797466988066385
454 -0.002445958544900123 0.00041216156471754267 -0.000406096278923987
455 -0.004477008079467498 0.010223044202241861 0.006440908026477444
485 0.009862113526680392 -0.004333614685745403 0.00010905389281574763
78 -0.0043335758166122154 0.024198144860417676 -0.009272169858038637
689 0.007949856767234125 -0.019838703067379133 0.028922109769213167
688 -0.0010308910284090773 0.004842094377680978 -0.004517217354034539
950 0.022574728427410092 0.009173289170347295 -0.016481686659861685
949 0.007128362174026563 -2.7496909487112394e-05 -0.0038666702238671683
848 0.00040794536828360673 -0.007590783990670006 0.004490523054418187
847 0.002797354286588746 0.001379340632235638 0.0008487170997831282
1459 0.00010026493672522385 0.004735568447023625 -0.004767823088192968
1551 0.0005783487408413198 0.0009291385915240602 0.025155243064025293
246 -0.0057455278974534825 0.012381475308188812 0.006281406094774176
445 0.005385956218153544 -0.004030156434118137 -0.0001495584272900232
447 0.008799626433180448 -0.0055958477234479284 0.02012579120369322
1538 0.0012289673889589402 0.012213624997964906 -0.004409966709395667
1537 0.0019368760070265026 0.003115001366199025 -0.005830543543189901
1539 0.007894308335946723 -0.00028320436899850857 0.00017470573511260286
1550 0.005825996531923849 -0.004609637660965837 -0.0032658939603740673
1549 0.00578089489141899 -0.0037344011825361386 0.0019031896386216992
276 -0.006887843604425369 -0.0161514075204336 0.0019678259746942375
484 -0.0030187264874519423 -0.0038686821331832197 0.00147910506631645
76 -0.0011348143481852387 -0.0017296963831351729 0.0044160460399143954
87 0.004772657865962034 0.0002918587324903523 -0.001026534940518878
1341 0.0048333743631194985 0.0024061729481190566 0.010050986869455813
1395 0.00019258440644670272 0.00771471369576448 -0.00033976046425968786
1393 0.0018286525164839971 -0.0012491552884957527 -0.0066530997565360265
1461 -0.01391902707550939 -0.02040080416528297 0.009961997289284399
91 -0.00502334673324654 0.00017642519012879294 0.00021015939064946592
93 -0.0046655557607325725 -0.01340880717297796 0.0015482492653677263
478 -0.009850310591496651 0.001476448586340616 0.000681189207571883
480 0.010160256250381937 -0.014531207155175238 0.0017035127916530772
479 0.006073659869924492 0.017213836292043594 -0.011233238517307283
605 0.005644440911068842 0.0027489558272396778 -0.022007567542295114
14 0.006850480019375381 -0.0038240566321212296 0.0027589961124196293
989 -0.023363530543075762 -0.008273842566244532 0.01631727773746213
729 0.01548491123493532 -0.009191719693614047 -0.0020622537596386714
990 -0.0034602674355007504 0.002579871492431818 -0.002996756628706624
988 -0.00046428865124240623 0.005193987468063724 2.078892661666067e-05
846 -0.011951043788398055 0.011159288340911021 -0.010182055804448392
844 -0.0038643951589118685 0.0061456470150839364 0.0002712291146012329
279 -0.004246420388097348 0.004820455790450741 -0.012167099292512352
288 0.025261545176622664 0.0065531747366830905 0.006791787933819294
640 0.004245886449728943 -0.003291512517355506 -0.009143764588197377
642 0.001298201669806475 -0.010720439205399468 -0.0026035551280307496
1071 -0.024869393107455555 -0.025620228072007544 -0.0073671023676738
104 -0.012005195262338836 -0.006676919682331994 0.0058498196622758045
641 -0.005154413810488994 0.01609883036570856 -0.009325430475846861
1069 -0.0003521972059156773 -0.006446682677496846 -0.004369949447521356
1070 -0.015749979077598165 -0.011046761833225179 0.004208724614997654
871 0.00033463445125849254 -0.0019374219436429534 -0.00443130786643569
1242 -0.0017515209596209215 -0.013796291113793052 0.0017035585191238637
166 -0.006379116077615953 -0.0026686947536600967 -0.007317624474168461
167 0.014597970250172733 0.014320444861493798 -0.008376835416707739
735 -0.0063664524426818875 0.03217865596019061 0.014678891390946898
625 0.0002236085027456218 0.0019721462183681904 -0.0028853866994749742
627 -0.00024396688786587826 0.010496622438636586 0.014520519518609339
1106 0.001538310815503523 -0.004146478249727029 0.0003517422910603215
105 -0.0052556084005627975 0.0006654665100186803 -0.012557053091222825
733 0.0003288704943374395 -0.0020921660500212436 -0.0008849594555967802
1442 0.03661997792899168 -0.007672624218920881 -0.009478463097587214
1215 -0.005004495880312865 0.0029491673670030533 -0.012231111439822627
503 0.002817265923102306 -0.00817723884726761 -0.003929013221788844
872 -0.009359857166492564 -0.01607663716735386 0.01937633444279274
710 -0.000652597401993083 0.004453823694778271 -0.0016217838318391428
303 0.00144824941076559 0.008584027264567098 0.005616907059803143

Bonds

1 1 1555 1556
2 1 1555 1557
3 1 1405 1406
4 1 1405 1407
5 1 1180 1181
6 1 1180 1182
7 1 244 245
8 1 244 246
9 1 1183 1184
10 1 1183 1185
11 1 334 335
12 1 334 336
13 1 1255 1256
14 1 1255 1257
15 1 1504 1505
16 1 1504 1506
17 1 283 284
18 1 283 285
19 1 976 977
20 1 976 978
21 1 1237 1238
22 1 1237 1239
23 1 319 320
24 1 319 321
25 1 1003 1004
26 1 1003 1005
27 1 85 86
28 1 85 87
29 1 784 785
30 1 784 786
31 1 721 722
32 1 721 723
33 1 1456 1457
34 1 1456 1458
35 1 517 518
36 1 517 519
37 1 1261 1262
38 1 1261 1263
39 1 1159 1160
40 1 1159 1161
41 1 1036 1037
42 1 1036 1038
43 1 1297 1298
44 1 1297 1299
45 1 1339 1340
46 1 1339 1341
47 1 463 464
48 1 463 465
49 1 940 941
50 1 940 942
51 1 1435 1436
52 1 1435 1437
53 1 1033 1034
54 1 1033 1035
55 1 1522 1523
56 1 1522 1524
57 1 1138 1139
58 1 1138 1140
59 1 799 800
60 1 799 801
61 1 130 131
62 1 130 132
63 1 691 692
64 1 691 693
65 1 1219 1220
66 1 1219 1221
67 1 703 704
68 1 703 705
69 1 868 869
70 1 868 870
71 1 1258 1259
72 1 1258 1260
73 1 790 791
74 1 790 792
75 1 1063 1064
76 1 1063 1065
77 1 7 8
78 1 7 9
79 1 217 218
80 1 217 219
81 1 1330 1331
82 1 1330 1332
83 1 961 962
84 1 961 963
85 1 592 593
86 1 592 594
87 1 1402 1403
88 1 1402 1404
89 1 208 209
90 1 208 210
91 1 211 212
92 1 211 213
93 1 1348 1349
94 1 1348 1350
95 1 1375 1376
96 1 1375 1377
97 1 67 68
98 1 67 69
99 1 160 161
100 1 160 162
101 1 1267 1268
102 1 1267 1269
103 1 796 797
104 1 796 798
105 1 247 248
106 1 247 249
107 1 673 674
108 1 673 675
109 1 424 425
110 1 424 426
111 1 604 605
112 1 604 606
113 1 727 728
114 1 727 729
115 1 1168 1169
116 1 1168 1170
117 1 892 893
118 1 892 894
119 1 520 521
120 1 520 522
121 1 1306 1307
122 1 1306 1308
123 1 682 683
124 1 682 684
125 1 1114 1115
126 1 1114 1116
127 1 88 89
128 1 88 90
129 1 1075 1076
130 1 1075 1077
131 1 568 569
132 1 568 570
133 1 1015 1016
134 1 1015 1017
135 1 1513 1514
136 1 1513 1515
137 1 277 278
138 1 277 279
139 1 1420 1421
140 1 1420 1422
141 1 493 494
142 1 493 495
143 1 1057 1058
144 1 1057 1059
145 1 241 242
146 1 241 243
147 1 103 104
148 1 103 105
149 1 964 965
150 1 964 966
151 1 772 773
152 1 772 774
153 1 448 449
154 1 448 450
155 1 979 980
156 1 979 981
157 1 235 236
158 1 235 237
159 1 502 503
160 1 502 504
161 1 1207 1208
162 1 1207 1209
163 1 199 200
164 1 199 201
165 1 262 263
166 1 262 264
167 1 598 599
168 1 598 600
169 1 1018 1019
170 1 1018 1020
171 1 1474 1475
172 1 1474 1476
173 1 1186 1187
174 1 1186 1188
175 1 376 377
176 1 376 378
177 1 880 881
178 1 880 882
179 1 436 437
180 1 436 438
181 1 670 671
182 1 670 672
183 1 532 533
184 1 532 534
185 1 253 254
186 1 253 255
187 1 1444 1445
188 1 1444 1446
189 1 1192 1193
190 1 1192 1194
191 1 652 653
192 1 652 654
193 1 1024 1025
194 1 1024 1026
195 1 715 716
196 1 715 717
197 1 667 668
198 1 667 669
199 1 823 824
200 1 823 825
201 1 187 188
202 1 187 189
203 1 331 332
204 1 331 333
205 1 397 398
206 1 397 399
207 1 367 368
208 1 367 369
209 1 1516 1517
210 1 1516 1518
211 1 1222 1223
212 1 1222 1224
213 1 658 659
214 1 658 660
215 1 412 413
216 1 412 414
217 1 385 386
218 1 385 387
219 1 1195 1196
220 1 1195 1197
221 1 1006 1007
222 1 1006 1008
223 1 1273 1274
224 1 1273 1275
225 1 1027 1028
226 1 1027 1029
227 1 1384 1385
228 1 1384 1386
229 1 343 344
230 1 343 345
231 1 346 347
232 1 346 348
233 1 928 929
234 1 928 930
235 1 406 407
236 1 406 408
237 1 1312 1313
238 1 1312 1314
239 1 622 623
240 1 622 624
241 1 1150 1151
242 1 1150 1152
243 1 64 65
244 1 64 66
245 1 193 194
246 1 193 195
247 1 805 806
248 1 805 807
249 1 1369 1370
250 1 1369 1371
251 1 1558 1559
252 1 1558 1560
253 1 451 452
254 1 451 453
255 1 268 269
256 1 268 270
257 1 1486 1487
258 1 1486 1488
259 1 355 356
260 1 355 357
261 1 1468 1469
262 1 1468 1470
263 1 154 155
264 1 154 156
265 1 958 959
266 1 958 960
267 1 562 563
268 1 562 564
269 1 1264 1265
270 1 1264 1266
271 1 1117 1118
272 1 1117 1119
273 1 1303 1304
274 1 1303 1305
275 1 649 650
276 1 649 651
277 1 955 956
278 1 955 957
279 1 994 995
280 1 994 996
281 1 997 998
282 1 997 999
283 1 697 698
284 1 697 699
285 1 1210 1211
286 1 1210 1212
287 1 751 752
288 1 751 753
289 1 1198 1199
290 1 1198 1200
291 1 1066 1067
292 1 1066 1068
293 1 370 371
294 1 370 372
295 1 1123 1124
296 1 1123 1125
297 1 862 863
298 1 862 864
299 1 601 602
300 1 601 603
301 1 1147 1148
302 1 1147 1149
303 1 172 173
304 1 172 174
305 1 307 308
306 1 307 309
307 1 1354 1355
308 1 1354 1356
309 1 586 587
310 1 586 588
311 1 877 878
312 1 877 879
313 1 1540 1541
314 1 1540 1542
315 1 775 776
316 1 775 777
317 1 1144 1145
318 1 1144 1146
319 1 496 497
320 1 496 498
321 1 676 677
322 1 676 678
323 1 115 116
324 1 115 117
325 1 313 314
326 1 313 315
327 1 946 947
328 1 946 948
329 1 1246 1247
330 1 1246 1248
331 1 1408 1409
332 1 1408 1410
333 1 430 431
334 1 430 432
335 1 124 125
336 1 124 126
337 1 664 665
338 1 664 666
339 1 904 905
340 1 904 906
341 1 859 860
342 1 859 861
343 1 826 827
344 1 826 828
345 1 514 515
346 1 514 516
347 1 280 281
348 1 280 282
349 1 1324 1325
350 1 1324 1326
351 1 250 251
352 1 250 252
353 1 943 944
354 1 943 945
355 1 937 938
356 1 937 939
357 1 169 170
358 1 169 171
359 1 49 50
360 1 49 51
361 1 442 443
362 1 442 444
363 1 1228 1229
364 1 1228 1230
365 1 1462 1463
366 1 1462 1464
367 1 1129 1130
368 1 1129 1131
369 1 712 713
370 1 712 714
371 1 310 311
372 1 310 312
373 1 79 80
374 1 79 81
375 1 754 755
376 1 754 756
377 1 25 26
378 1 25 27
379 1 547 548
380 1 547 549
381 1 1336 1337
382 1 1336 1338
383 1 4 5
384 1 4 6
385 1 145 146
386 1 145 147
387 1 1051 1052
388 1 1051 1053
389 1 781 782
390 1 781 783
391 1 481 482
392 1 481 483
393 1 382 383
394 1 382 384
395 1 973 974
396 1 973 975
397 1 1012 1013
398 1 1012 1014
399 1 814 815
400 1 814 816
401 1 202 203
402 1 202 204
403 1 838 839
404 1 838 840
405 1 889 890
406 1 889 891
407 1 1309 1310
408 1 1309 1311
409 1 577 578
410 1 577 579
411 1 1231 1232
412 1 1231 1233
413 1 565 566
414 1 565 567
415 1 1432 1433
416 1 1432 1434
417 1 1483 1484
418 1 1483 1485
419 1 1345 1346
420 1 1345 1347
421 1 55 56
422 1 55 57
423 1 28 29
424 1 28 30
425 1 58 59
426 1 58 60
427 1 643 644
428 1 643 645
429 1 1039 1040
430 1 1039 1041
431 1 1282 1283
432 1 1282 1284
433 1 931 932
434 1 931 933
435 1 505 506
436 1 505 507
437 1 850 851
438 1 850 852
439 1 409 410
440 1 409 411
441 1 316 317
442 1 316 318
443 1 184 185
444 1 184 186
445 1 763 764
446 1 763 765
447 1 607 608
448 1 607 609
449 1 886 887
450 1 886 888
451 1 499 500
452 1 499 501
453 1 766 767
454 1 766 768
455 1 1201 1202
456 1 1201 1203
457 1 544 545
458 1 544 546
459 1 94 95
460 1 94 96
461 1 1498 1499
462 1 1498 1500
463 1 1099 1100
464 1 1099 1101
465 1 1471 1472
466 1 1471 1473
467 1 151 152
468 1 151 153
469 1 760 761
470 1 760 762
471 1 1396 1397
472 1 1396 1398
473 1 1450 1451
474 1 1450 1452
475 1 1000 1001
476 1 1000 1002
477 1 526 527
478 1 526 528
479 1 508 509
480 1 508 510
481 1 919 920
482 1 919 921
483 1 127 128
484 1 127 129
485 1 37 38
486 1 37 39
487 1 364 365
488 1 364 366
489 1 1426 1427
490 1 1426 1428
491 1 1132 1133
492 1 1132 1134
493 1 388 389
494 1 388 390
495 1 1102 1103
496 1 1102 1104
497 1 724 725
498 1 724 726
499 1 1528 1529
500 1 1528 1530
501 1 73 74
502 1 73 75
503 1 259 260
504 1 259 261
505 1 1501 1502
506 1 1501 1503
507 1 133 134
508 1 133 135
509 1 1495 1496
510 1 1495 1497
511 1 1087 1088
512 1 1087 1089
513 1 1321 1322
514 1 1321 1323
515 1 1045 1046
516 1 1045 1047
517 1 748 749
518 1 748 750
519 1 559 560
520 1 559 561
521 1 142 143
522 1 142 144
523 1 694 695
524 1 694 696
525 1 556 557
526 1 556 558
527 1 1090 1091
528 1 1090 1092
529 1 553 554
530 1 553 555
531 1 1288 1289
532 1 1288 1290
533 1 1009 1010
534 1 1009 1011
535 1 265 266
536 1 265 267
537 1 817 818
538 1 817 819
539 1 655 656
540 1 655 657
541 1 967 968
542 1 967 969
543 1 1489 1490
544 1 1489 1491
545 1 589 590
546 1 589 591
547 1 1438 1439
548 1 1438 1440
549 1 1249 1250
550 1 1249 1251
551 1 745 746
552 1 745 747
553 1 1519 1520
554 1 1519 1521
555 1 19 20
556 1 19 21
557 1 118 119
558 1 118 120
559 1 220 221
560 1 220 222
561 1 1135 1136
562 1 1135 1137
563 1 907 908
564 1 907 909
565 1 109 110
566 1 109 111
567 1 811 812
568 1 811 813
569 1 298 299
570 1 298 300
571 1 394 395
572 1 394 396
573 1 1387 1388
574 1 1387 1389
575 1 1453 1454
576 1 1453 1455
577 1 1060 1061
578 1 1060 1062
579 1 574 575
580 1 574 576
581 1 16 17
582 1 16 18
583 1 1318 1319
584 1 1318 1320
585 1 256 257
586 1 256 258
587 1 865 866
588 1 865 867
589 1 70 71
590 1 70 72
591 1 952 953
592 1 952 954
593 1 1327 1328
594 1 1327 1329
595 1 1366 1367
596 1 1366 1368
597 1 841 842
598 1 841 843
599 1 1252 1253
600 1 1252 1254
601 1 895 896
602 1 895 897
603 1 1126 1127
604 1 1126 1128
605 1 580 581
606 1 580 582
607 1 856 857
608 1 856 858
609 1 511 512
610 1 511 513
611 1 769 770
612 1 769 771
613 1 205 206
614 1 205 207
615 1 439 440
616 1 439 441
617 1 1399 1400
618 1 1399 1401
619 1 1270 1271
620 1 1270 1272
621 1 1534 1535
622 1 1534 1536
623 1 1096 1097
624 1 1096 1098
625 1 163 164
626 1 163 165
627 1 1423 1424
628 1 1423 1425
629 1 1333 1334
630 1 1333 1335
631 1 40 41
632 1 40 42
633 1 1465 1466
634 1 1465 1467
635 1 232 233
636 1 232 234
637 1 700 701
638 1 700 702
639 1 1447 1448
640 1 1447 1449
641 1 916 917
642 1 916 918
643 1 190 191
644 1 190 192
645 1 778 779
646 1 778 780
647 1 646 647
648 1 646 648
649 1 421 422
650 1 421 423
651 1 1225 1226
652 1 1225 1227
653 1 61 62
654 1 61 63
655 1 913 914
656 1 913 915
657 1 1414 1415
658 1 1414 1416
659 1 427 428
660 1 427 429
661 1 349 350
662 1 349 351
663 1 757 758
664 1 757 759
665 1 736 737
666 1 736 738
667 1 361 362
668 1 361 363
669 1 874 875
670 1 874 876
671 1 292 293
672 1 292 294
673 1 1546 1547
674 1 1546 1548
675 1 523 524
676 1 523 525
677 1 352 353
678 1 352 354
679 1 418 419
680 1 418 420
681 1 46 47
682 1 46 48
683 1 535 536
684 1 535 537
685 1 358 359
686 1 358 360
687 1 1531 1532
688 1 1531 1533
689 1 1204 1205
690 1 1204 1206
691 1 1054 1055
692 1 1054 1056
693 1 1234 1235
694 1 1234 1236
695 1 295 296
696 1 295 297
697 1 685 686
698 1 685 687
699 1 460 461
700 1 460 462
701 1 490 491
702 1 490 492
703 1 613 614
704 1 613 615
705 1 1411 1412
706 1 1411 1413
707 1 43 44
708 1 43 45
709 1 634 635
710 1 634 636
711 1 328 329
712 1 328 330
713 1 340 341
714 1 340 342
715 1 661 662
716 1 661 663
717 1 610 611
718 1 610 612
719 1 1492 1493
720 1 1492 1494
721 1 631 632
722 1 631 633
723 1 304 305
724 1 304 306
725 1 31 32
726 1 31 33
727 1 883 884
728 1 883 885
729 1 457 458
730 1 457 459
731 1 1291 1292
732 1 1291 1293
733 1 1285 1286
734 1 1285 1287
735 1 742 743
736 1 742 744
737 1 1174 1175
738 1 1174 1176
739 1 139 140
740 1 139 141
741 1 718 719
742 1 718 720
743 1 1561 1562
744 1 1561 1563
745 1 226 227
746 1 226 228
747 1 472 473
748 1 472 474
749 1 1078 1079
750 1 1078 1080
751 1 178 179
752 1 178 180
753 1 475 476
754 1 475 477
755 1 706 707
756 1 706 708
757 1 934 935
758 1 934 936
759 1 1363 1364
760 1 1363 1365
761 1 1342 1343
762 1 1342 1344
763 1 97 98
764 1 97 99
765 1 322 323
766 1 322 324
767 1 214 215
768 1 214 216
769 1 1543 1544
770 1 1543 1545
771 1 1021 1022
772 1 1021 1023
773 1 1162 1163
774 1 1162 1164
775 1 898 899
776 1 898 900
777 1 274 275
778 1 274 276
779 1 1216 1217
780 1 1216 1218
781 1 679 680
782 1 679 681
783 1 820 821
784 1 820 822
785 1 853 854
786 1 853 855
787 1 175 176
788 1 175 177
789 1 1030 1031
790 1 1030 1032
791 1 403 404
792 1 403 405
793 1 1 2
794 1 1 3
795 1 466 467
796 1 466 468
797 1 238 239
798 1 238 240
799 1 910 911
800 1 910 912
801 1 829 830
802 1 829 831
803 1 1243 1244
804 1 1243 1245
805 1 1048 1049
806 1 1048 1050
807 1 619 620
808 1 619 621
809 1 181 182
810 1 181 183
811 1 391 392
812 1 391 393
813 1 1153 1154
814 1 1153 1155
815 1 571 572
816 1 571 573
817 1 229 230
818 1 229 231
819 1 34 35
820 1 34 36
821 1 157 158
822 1 157 159
823 1 1351 1352
824 1 1351 1353
825 1 1294 1295
826 1 1294 1296
827 1 469 470
828 1 469 471
829 1 271 272
830 1 271 273
831 1 808 809
832 1 808 810
833 1 10 11
834 1 10 12
835 1 400 401
836 1 400 402
837 1 1120 1121
838 1 1120 1122
839 1 1417 1418
840 1 1417 1419
841 1 1072 1073
842 1 1072 1074
843 1 835 836
844 1 835 837
845 1 415 416
846 1 415 417
847 1 1480 1481
848 1 1480 1482
849 1 793 794
850 1 793 795
851 1 1525 1526
852 1 1525 1527
853 1 100 101
854 1 100 102
855 1 901 902
856 1 901 903
857 1 82 83
858 1 82 84
859 1 148 149
860 1 148 150
861 1 1108 1109
862 1 1108 1110
863 1 583 584
864 1 583 585
865 1 289 290
866 1 289 291
867 1 529 530
868 1 529 531
869 1 985 986
870 1 985 987
871 1 1276 1277
872 1 1276 1278
873 1 616 617
874 1 616 618
875 1 196 197
876 1 196 198
877 1 13 14
878 1 13 15
879 1 922 923
880 1 922 924
881 1 991 992
882 1 991 993
883 1 970 971
884 1 970 972
885 1 1111 1112
886 1 1111 1113
887 1 1093 1094
888 1 1093 1095
889 1 628 629
890 1 628 630
891 1 541 542
892 1 541 543
893 1 286 287
894 1 286 288
895 1 1081 1082
896 1 1081 1083
897 1 1507 1508
898 1 1507 1509
899 1 1552 1553
900 1 1552 1554
901 1 1084 1085
902 1 1084 1086
903 1 802 803
904 1 802 804
905 1 1390 1391
906 1 1390 1392
907 1 1156 1157
908 1 1156 1158
909 1 1429 1430
910 1 1429 1431
911 1 982 983
912 1 982 984
913 1 1378 1379
914 1 1378 1380
915 1 1042 1043
916 1 1042 1044
917 1 22 23
918 1 22 24
919 1 1357 1358
920 1 1357 1359
921 1 1315 1316
922 1 1315 1317
923 1 1372 1373
924 1 1372 1374
925 1 1177 1178
926 1 1177 1179
927 1 925 926
928 1 925 927
929 1 832 833
930 1 832 834
931 1 1240 1241
932 1 1240 1242
933 1 373 374
934 1 373 375
935 1 1381 1382
936 1 1381 1383
937 1 1300 1301
938 1 1300 1302
939 1 595 596
940 1 595 597
941 1 325 326
942 1 325 327
943 1 787 788
944 1 787 789
945 1 1360 1361
946 1 1360 1362
947 1 52 53
948 1 52 54
949 1 1171 1172
950 1 1171 1173
951 1 136 137
952 1 136 138
953 1 106 107
954 1 106 108
955 1 1477 1478
956 1 1477 1479
957 1 1105 1106
958 1 1105 1107
959 1 637 638
960 1 637 639
961 1 1189 1190
962 1 1189 1191
963 1 1141 1142
964 1 1141 1143
965 1 487 488
966 1 487 489
967 1 223 224
968 1 223 225
969 1 739 740
970 1 739 741
971 1 1213 1214
972 1 1213 1215
973 1 1441 1442
974 1 1441 1443
975 1 1510 1511
976 1 1510 1512
977 1 550 551
978 1 550 552
979 1 112 113
980 1 112 114
981 1 1165 1166
982 1 1165 1167
983 1 433 434
984 1 433 435
985 1 709 710
986 1 709 711
987 1 1279 1280
988 1 1279 1281
989 1 301 302
990 1 301 303
991 1 379 380
992 1 379 381
993 1 337 338
994 1 337 339
995 1 730 731
996 1 730 732
997 1 538 539
998 1 538 540
999 1 121 122
1000 1 121 123
1001 1 454 455
1002 1 454 456
1003 1 688 689
1004 1 688 690
1005 1 949 950
1006 1 949 951
1007 1 847 848
1008 1 847 849
1009 1 1459 1460
1010 1 1459 1461
1011 1 445 446
1012 1 445 447
1013 1 1537 1538
1014 1 1537 1539
1015 1 1549 1550
1016 1 1549 1551
1017 1 484 485
1018 1 484 486
1019 1 76 77
1020 1 76 78
1021 1 1393 1394
1022 1 1393 1395
1023 1 91 92
1024 1 91 93
1025 1 478 479
1026 1 478 480
1027 1 988 989
1028 1 988 990
1029 1 844 845
1030 1 844 846
1031 1 640 641
1032 1 640 642
1033 1 1069 1070
1034 1 1069 1071
1035 1 871 872
1036 1 871 873
1037 1 166 167
1038 1 166 168
1039 1 625 626
1040 1 625 627
1041 1 733 734
1042 1 733 735

Angles

1 1 1556 1555 1557
2 1 1406 1405 1407
3 1 1181 1180 1182
4 1 245 244 246
5 1 1184 1183 1185
6 1 335 334 336
7 1 1256 1255 1257
8 1 1505 1504 1506
9 1 284 283 285
10 1 977 976 978
11 1 1238 1237 1239
12 1 320 319 321
13 1 1004 1003 1005
14 1 86 85 87
15 1 785 784 786
16 1 722 721 723
17 1 1457 1456 1458
18 1 518 517 519
19 1 1262 1261 1263
20 1 1160 1159 1161
21 1 1037 1036 1038
22 1 1298 1297 1299
23 1 1340 1339 1341
24 1 464 463 465
25 1 941 940 942
26 1 1436 1435 1437
27 1 1034 1033 1035
28 1 1523 1522 1524
29 1 1139 1138 1140
30 1 800 799 801
31 1 131 130 132
32 1 692 691 693
33 1 1220 1219 1221
34 1 704 703 705
35 1 869 868 870
36 1 1259 1258 1260
37 1 791 790 792
38 1 1064 1063 1065
39 1 8 7 9
40 1 218 217 219
41 1 1331 1330 1332
42 1 962 961 963
43 1 593 592 594
44 1 1403 1402 1404
45 1 209 208 210
46 1 212 211 213
47 1 1349 1348 1350
48 1 1376 1375 1377
49 1 68 67 69
50 1 161 160 162
51 1 1268 1267 1269
52 1 797 796 798
53 1 248 247 249
54 1 674 673 675
55 1 425 424 426
56 1 605 604 606
57 1 728 727 729
58 1 1169 1168 1170
59 1 893 892 894
60 1 521 520 522
61 1 1307 1306 1308
62 1 683 682 684
63 1 1115 1114 1116
64 1 89 88 90
65 1 1076 1075 1077
66 1 569 568 570
67 1 1016 1015 1017
68 1 1514 1513 1515
69 1 278 277 279
70 1 1421 1420 1422
71 1 494 493 495
72 1 1058 1057 1059
73 1 242 241 243
74 1 104 103 105
75 1 965 964 966
76 1 773 772 774
77 1 449 448 450
78 1 980 979 981
79 1 236 235 237
80 1 503 502 504
81 1 1208 1207 1209
82 1 200 199 201
83 1 263 262 264
84 1 599 598 600
85 1 1019 1018 1020
86 1 1475 1474 1476
87 1 1187 1186 1188
88 1 377 376 378
89 1 881 880 882
90 1 437 436 438
91 1 671 670 672
92 1 533 532 534
93 1 254 253 255
94 1 1445 1444 1446
95 1 1193 1192 1194
96 1 653 652 654
97 1 1025 1024 1026
98 1 716 715 717
99 1 668 667 669
100 1 824 823 825
101 1 188 187 189
102 1 332 331 333
103 1 398 397 399
104 1 368 367 369
105 1 1517 1516 1518
106 1 1223 1222 1224
107 1 659 658 660
108 1 413 412 414
109 1 386 385 387
110 1 1196 1195 1197
111 1 1007 1006 1008
112 1 1274 1273 1275
113 1 1028 1027 1029
114 1 1385 1384 1386
115 1 344 343 345
116 1 347 346 348
117 1 929 928 930
118 1 407 406 408
119 1 1313 1312 1314
120 1 623 622 624
121 1 1151 1150 1152
122 1 65 64 66
123 1 194 193 195
124 1 806 805 807
125 1 1370 1369 1371
126 1 1559 1558 1560
127 1 452 451 453
128 1 269 268 270
129 1 1487 1486 1488
130 1 356 355 357
131 1 1469 1468 1470
132 1 155 154 156
133 1 959 958 960
134 1 563 562 564
135 1 1265 1264 1266
136 1 1118 1117 1119
137 1 1304 1303 1305
138 1 650 649 651
139 1 956 955 957
140 1 995 994 996
141 1 998 997 999
142 1 698 697 699
143 1 1211 1210 1212
144 1 752 751 753
145 1 1199 1198 1200
146 1 1067 1066 1068
147 1 371 370 372
148 1 1124 1123 1125
149 1 863 862 864
150 1 602 601 603
151 1 1148 1147 1149
152 1 173 172 174
153 1 308 307 309
154 1 1355 1354 1356
155 1 587 586 588
156 1 878 877 879
157 1 1541 1540 1542
158 1 776 775 777
159 1 1145 1144 1146
160 1 497 496 498
161 1 677 676 678
162 1 116 115 117
163 1 314 313 315
164 1 947 946 948
165 1 1247 1246 1248
166 1 1409 1408 1410
167 1 431 430 432
168 1 125 124 126
169 1 665 664 666
170 1 905 904 906
171 1 860 859 861
172 1 827 826 828
173 1 515 514 516
174 1 281 280 282
175 1 1325 1324 1326
176 1 251 250 252
177 1 944 943 945
178 1 938 937 939
179 1 170 169 171
180 1 50 49 51
181 1 443 442 444
182 1 1229 1228 1230
183 1 1463 1462 1464
184 1 1130 1129 1131
185 1 713 712 714
186 1 311 310 312
187 1 80 79 81
188 1 755 754 756
189 1 26 25 27
190 1 548 547 549
191 1 1337 1336 1338
192 1 5 4 6
193 1 146 145 147
194 1 1052 1051 1053
195 1 782 781 783
196 1 482 481 483
197 1 383 382 384
198 1 974 973 975
199 1 1013 1012 1014
200 1 815 814 816
201 1 203 202 204
202 1 839 838 840
203 1 890 889 891
204 1 1310 1309 1311
205 1 578 577 579
206 1 1232 1231 1233
207 1 566 565 567
208 1 1433 1432 1434
209 1 1484 1483 1485
210 1 1346 1345 1347
211 1 56 55 57
212 1 29 28 30
213 1 59 58 60
214 1 644 643 645
215 1 1040 1039 1041
216 1 1283 1282 1284
217 1 932 931 933
218 1 506 505 507
219 1 851 850 852
220 1 410 409 411
221 1 317 316 318
222 1 185 184 186
223 1 764 763 765
224 1 608 607 609
225 1 887 886 888
226 1 500 499 501
227 1 767 766 768
228 1 1202 1201 1203
229 1 545 544 546
230 1 95 94 96
231 1 1499 1498 1500
232 1 1100 1099 1101
233 1 1472 1471 1473
234 1 152 151 153
235 1 761 760 762
236 1 1397 1396 1398
237 1 1451 1450 1452
238 1 1001 1000 1002
239 1 527 526 528
240 1 509 508 510
241 1 920 919 921
242 1 128 127 129
243 1 38 37 39
244 1 365 364 366
245 1 1427 1426 1428
246 1 1133 1132 1134
247 1 389 388 390
248 1 1103 1102 1104
249 1 725 724 726
250 1 1529 1528 1530
251 1 74 73 75
252 1 260 259 261
253 1 1502 1501 1503
254 1 134 133 135
255 1 1496 1495 1497
256 1 1088 1087 1089
257 1 1322 1321 1323
258 1 1046 1045 1047
259 1 749 748 750
260 1 560 559 561
261 1 143 142 144
262 1 695 694 696
263 1 557 556 558
264 1 1091 1090 1092
265 1 554 553 555
266 1 1289 1288 1290
267 1 1010 1009 1011
268 1 266 265 267
269 1 818 817 819
270 1 656 655 657
271 1 968 967 969
272 1 1490 1489 1491
273 1 590 589 591
274 1 1439 1438 1440
275 1 1250 1249 1251
276 1 746 745 747
277 1 1520 1519 1521
278 1 20 19 21
279 1 119 118 120
280 1 221 220 222
281 1 1136 1135 1137
282 1 908 907 909
283 1 110 109 111
284 1 812 811 813
285 1 299 298 300
286 1 395 394 396
287 1 1388 1387 1389
288 1 1454 1453 1455
289 1 1061 1060 1062
290 1 575 574 576
291 1 17 16 18
292 1 1319 1318 1320
293 1 257 256 258
294 1 866 865 867
295 1 71 70 72
296 1 953 952 954
297 1 1328 1327 1329
298 1 1367 1366 1368
299 1 842 841 843
300 1 1253 1252 1254
301 1 896 895 897
302 1 1127 1126 1128
303 1 581 580 582
304 1 857 856 858
305 1 512 511 513
306 1 770 769 771
307 1 206 205 207
308 1 440 439 441
309 1 1400 1399 1401
310 1 1271 1270 1272
311 1 1535 1534 1536
312 1 1097 1096 1098
313 1 164 163 165
314 1 1424 1423 1425
315 1 1334 1333 1335
316 1 41 40 42
317 1 1466 1465 1467
318 1 233 232 234
319 1 701 700 702
320 1 1448 1447 1449
321 1 917 916 918
322 1 191 190 192
323 1 779 778 780
324 1 647 646 648
325 1 422 421 423
326 1 1226 1225 1227
327 1 62 61 63
328 1 914 913 915
329 1 1415 1414 1416
330 1 428 427 429
331 1 350 349 351
332 1 758 757 759
333 1 737 736 738
334 1 362 361 363
335 1 875 874 876
336 1 293 292 294
337 1 1547 1546 1548
338 1 524 523 525
339 1 353 352 354
340 1 419 418 420
341 1 47 46 48
342 1 536 535 537
343 1 359 358 360
344 1 1532 1531 1533
345 1 1205 1204 1206
346 1 1055 1054 1056
347 1 1235 1234 1236
348 1 296 295 297
349 1 686 685 687
350 1 461 460 462
351 1 491 490 492
352 1 614 613 615
353 1 1412 1411 1413
354 1 44 43 45
355 1 635 634 636
356 1 329 328 330
357 1 341 340 342
358 1 662 661 663
359 1 611 610 612
360 1 1493 1492 1494
361 1 632 631 633
362 1 305 304 306
363 1 32 31 33
364 1 884 883 885
365 1 458 457 459
366 1 1292 1291 1293
367 1 1286 1285 1287
368 1 743 742 744
369 1 1175 1174 1176
370 1 140 139 141
371 1 719 718 720
372 1 1562 1561 1563
373 1 227 226 228
374 1 473 472 474
375 1 1079 1078 1080
376 1 179 178 180
377 1 476 475 477
378 1 707 706 708
379 1 935 934 936
380 1 1364 1363 1365
381 1 1343 1342 1344
382 1 98 97 99
383 1 323 322 324
384 1 215 214 216
385 1 1544 1543 1545
386 1 1022 1021 1023
387 1 1163 1162 1164
388 1 899 898 900
389 1 275 274 276
390 1 1217 1216 1218
391 1 680 679 681
392 1 821 820 822
393 1 854 853 855
394 1 176 175 177
395 1 1031 1030 1032
396 1 404 403 405
397 1 2 1 3
398 1 467 466 468
399 1 239 238 240
400 1 911 910 912
401 1 830 829 831
402 1 1244 1243 1245
403 1 1049 1048 1050
404 1 620 619 621
405 1 182 181 183
406 1 392 391 393
407 1 1154 1153 1155
408 1 572 571 573
409 1 230 229 231
410 1 35 34 36
411 1 158 157 159
412 1 1352 1351 1353
413 1 1295 1294 1296
414 1 470 469 471
415 1 272 271 273
416 1 809 808 810
417 1 11 10 12
418 1 401 400 402
419 1 1121 1120 1122
420 1 1418 1417 1419
421 1 1073 1072 1074
422 1 836 835 837
423 1 416 415 417
424 1 1481 1480 1482
425 1 794 793 795
426 1 1526 1525 1527
427 1 101 100 102
428 1 902 901 903
429 1 83 82 84
430 1 149 148 150
431 1 1109 1108 1110
432 1 584 583 585
433 1 290 289 291
434 1 530 529 531
435 1 986 985 987
436 1 1277 1276 1278
437 1 617 616 618
438 1 197 196 198
439 1 14 13 15
440 1 923 922 924
441 1 992 991 993
442 1 971 970 972
443 1 1112 1111 1113
444 1 1094 1093 1095
445 1 629 628 630
446 1 542 541 543
447 1 287 286 288
448 1 1082 1081 1083
449 1 1508 1507 1509
450 1 1553 1552 1554
451 1 1085 1084 1086
452 1 803 802 804
453 1 1391 1390 1392
454 1 1157 1156 1158
455 1 1430 1429 1431
456 1 983 982 984
457 1 1379 1378 1380
458 1 1043 1042 1044
459 1 23 22 24
460 1 1358 1357 1359
461 1 1316 1315 1317
462 1 1373 1372 1374
463 1 1178 1177 1179
464 1 926 925 927
465 1 833 832 834
466 1 1241 1240 1242
467 1 374 373 375
468 1 1382 1381 1383
469 1 1301 1300 1302
470 1 596 595 597
471 1 326 325 327
472 1 788 787 789
473 1 1361 1360 1362
474 1 53 52 54
475 1 1172 1171 1173
476 1 137 136 138
477 1 107 106 108
478 1 1478 1477 1479
479 1 1106 1105 1107
480 1 638 637 639
481 1 1190 1189 1191
482 1 1142 1141 1143
483 1 488 487 489
484 1 224 223 225
485 1 740 739 741
486 1 1214 1213 1215
487 1 1442 1441 1443
488 1 1511 1510 1512
489 1 551 550 552
490 1 113 112 114
491 1 1166 1165 1167
492 1 434 433 435
493 1 710 709 711
494 1 1280 1279 1281
495 1 302 301 303
496 1 380 379 381
497 1 338 337 339
498 1 731 730 732
499 1 539 538 540
500 1 122 121 123
501 1 455 454 456
502 1 689 688 690
503 1 950 949 951
504 1 848 847 849
505 1 1460 1459 1461
506 1 446 445 447
507 1 1538 1537 1539
508 1 1550 1549 1551
509 1 485 484 486
510 1 77 76 78
511 1 1394 1393 1395
512 1 92 91 93
513 1 479 478 480
514 1 989 988 990
515 1 845 844 846
516 1 641 640 642
517 1 1070 1069 1071
518 1 872 871 873
519 1 167 166 168
520 1 626 625 627
521 1 734 733 735
