LAMMPS (22 Jul 2025 - Update 5)
OMP_NUM_THREADS environment is not set. Defaulting to 1 thread.
  using 1 OpenMP thread(s) per MPI task
# iteration 3
# generated by aemwater -- do not edit; edit the template instead

units           real
atom_style      full
boundary        p p p

pair_style      lj/cut/coul/long 10.0 10.0
# GAFF2 is a Lorentz-Berthelot force field. The LAMMPS default for lj/cut is
# GEOMETRIC mixing, which silently changes every cross interaction.
pair_modify     mix arithmetic tail yes
kspace_style    pppm 0.0001
bond_style      harmonic
angle_style     harmonic
dihedral_style  charmm
improper_style  cvff
# Amber 1-4 scaling: LJ/2 and Coulomb/1.2. Applied here, so every CHARMM
# dihedral weight in the data file is 0.
special_bonds   lj 0.0 0.0 0.5 coul 0.0 0.0 0.8333333333

read_data       start.data
Reading data file ...
  orthogonal box = (0 0 0) to (38.912618 38.912618 38.912618)
  1 by 1 by 1 MPI processor grid
  reading atoms ...
  5424 atoms
  scanning bonds ...
  4 = max bonds/atom
  scanning angles ...
  6 = max angles/atom
  scanning dihedrals ...
  33 = max dihedrals/atom
  scanning impropers ...
  2 = max impropers/atom
  orthogonal box = (0 0 0) to (38.912618 38.912618 38.912618)
  1 by 1 by 1 MPI processor grid
  reading bonds ...
  5336 bonds
  reading angles ...
  9776 angles
  reading dihedrals ...
  15264 dihedrals
  reading impropers ...
  960 impropers
Finding 1-2 1-3 1-4 neighbors ...
  special bond factors lj:    0        0        0.5     
  special bond factors coul:  0        0        0.8333333333
     4 = max # of 1-2 neighbors
    12 = max # of 1-3 neighbors
    18 = max # of 1-4 neighbors
    22 = max # of special neighbors
  special bonds CPU = 0.002 seconds
  read_data CPU = 0.070 seconds
neighbor        2.0 bin
neigh_modify    delay 0 every 1 check yes
# The ghost-atom cutoff defaults to the pair cutoff + skin. Bonded partners must
# also be within it, and a stretched bond in a freshly packed cell can exceed it,
# which LAMMPS reports as a communication-cutoff warning before losing atoms.
comm_modify     cutoff 12.0

# Molecule IDs are assigned by the data writer in packing order: polymer chains
# first, then counterions, then any water added later. `<>` is LAMMPS's inclusive
# range operator.
group           polymer molecule <> 1 8
5024 atoms in group polymer
group           ions molecule <> 9 168
160 atoms in group ions
group           water type 8 9
240 atoms in group water

thermo          500
thermo_style    custom step temp press vol density etotal ke pe ebond eangle edihed evdwl ecoul elong
thermo_modify   flush yes

fix             shake_all all shake 0.0001 20 0 b 8 a 14
Finding SHAKE clusters ...
       0 = # of size 2 clusters
       0 = # of size 3 clusters
       0 = # of size 4 clusters
      80 = # of frozen angles
  find clusters CPU = 0.001 seconds

timestep        1.0
dump            traj all custom 1000 iter.lammpstrj id mol type q x y z
dump_modify     traj sort id

# ---------------------------------------------------------------- relax -------
# The newly inserted waters were placed in geometric voids, which is not the same
# as an energetically relaxed position. A short NVE/limit run absorbs the initial
# strain without letting any atom move far enough to cross a chain.
fix             nve_settle all nve/limit 0.05
fix             temp_settle all temp/rescale 10 300.0 300.0 10.0 1.0
run             5000
PPPM initialization ...
  using 12-bit tables for long-range coulomb
  G vector (1/distance) = 0.23790346
  grid = 15 15 15
  stencil order = 5
  estimated absolute RMS force accuracy = 0.021044186
  estimated relative force accuracy = 6.3373941e-05
  using double precision FFTW3
  3d grid and FFT values/proc = 8000 3375
Generated 36 of 36 mixed pair_coeff terms from arithmetic mixing rule
WARNING: Should not use fix nve/limit with fix shake or fix rattle (src/fix_nve_limit.cpp:76)
Neighbor list info ...
  update: every = 1 steps, delay = 0 steps, check = yes
  max neighbors/atom: 2000, page size: 100000
  master list distance cutoff = 12
  ghost atom cutoff = 12
  binsize = 6, bins = 7 7 7
  1 neighbor lists, perpetual/occasional/extra = 1 0 0
  (1) pair lj/cut/coul/long, perpetual
      attributes: half, newton on
      pair build: half/bin/newton
      stencil: half/bin/3d
      bin: standard
Per MPI rank memory allocation (min/avg/max) = 51.13 | 51.13 | 51.13 Mbytes
   Step          Temp          Press          Volume        Density         TotEng         KinEng         PotEng         E_bond        E_angle        E_dihed         E_vdwl         E_coul         E_long    
         0   0             -3431.2336      58921.169      1.0021119     -2098.3327      0             -2098.3327      1762.3834      2400.9507      1500.1426     -1096.8861      9262.5879     -15964.47     
       500   300.24063     -536.94519      58921.169      1.0021119      2405.8413      4781.7728     -2375.9316      1557.6184      2434.3096      1480.9121     -1126.4856      9217.5677     -15976.192    
      1000   303.34266      596.80686      58921.169      1.0021119      2510.9751      4831.1772     -2320.2021      1563.8864      2348.8863      1532.9102     -1072.908       9245.8613     -15977.746    
      1500   293.51755      652.11986      58921.169      1.0021119      2265.3521      4674.6979     -2409.3458      1545.5633      2299.3486      1556.3087     -1089.731       9220.9271     -15976.705    
      2000   293.98472      21.15574       58921.169      1.0021119      2273.7653      4682.1382     -2408.3729      1542.468       2235.5658      1559.7069     -1005.3921      9190.1632     -15969.219    
      2500   300            45.910887      58921.169      1.0021119      2374.7402      4777.9404     -2403.2002      1518.8361      2263.8828      1538.3095     -1019.7677      9229.8845     -15971.978    
      3000   295.44688      2513.8888      58921.169      1.0021119      2349.1987      4705.4253     -2356.2265      1486.1149      2253.066       1555.3374     -915.79533      9194.6221     -15963.649    
      3500   295.80072      551.15329      58921.169      1.0021119      2249.2956      4711.0607     -2461.765       1421.1786      2228.0887      1579.4414     -1014.4012      9244.6572     -15959.009    
      4000   300            1812.2517      58921.169      1.0021119      2389.7394      4777.9404     -2388.201       1435.2812      2219.5406      1578.9324     -984.91582      9293.4605     -15968.565    
      4500   300            1806.4664      58921.169      1.0021119      2334.8981      4777.9404     -2443.0423      1459.603       2176.5019      1560.6093     -1004.8879      9298.7618     -15968.14     
      5000   290.4736       748.45223      58921.169      1.0021119      2230.389       4626.2185     -2395.8295      1451.6672      2191.7131      1590.2717     -980.41153      9290.5159     -15975.238    
Loop time of 97.5153 on 1 procs for 5000 steps with 5424 atoms

Performance: 4.430 ns/day, 5.418 hours/ns, 51.274 timesteps/s, 278.110 katom-step/s
99.9% CPU use with 1 MPI tasks x 1 OpenMP threads

MPI task timing breakdown:
Section |  min time  |  avg time  |  max time  |%varavg| %total
---------------------------------------------------------------
Pair    | 77.784     | 77.784     | 77.784     |   0.0 | 79.77
Bond    | 3.6484     | 3.6484     | 3.6484     |   0.0 |  3.74
Kspace  | 6.9299     | 6.9299     | 6.9299     |   0.0 |  7.11
Neigh   | 8.428      | 8.428      | 8.428      |   0.0 |  8.64
Comm    | 0.25713    | 0.25713    | 0.25713    |   0.0 |  0.26
Output  | 0.02272    | 0.02272    | 0.02272    |   0.0 |  0.02
Modify  | 0.39123    | 0.39123    | 0.39123    |   0.0 |  0.40
Other   |            | 0.05415    |            |       |  0.06

Nlocal:           5424 ave        5424 max        5424 min
Histogram: 1 0 0 0 0 0 0 0 0 0
Nghost:          16156 ave       16156 max       16156 min
Histogram: 1 0 0 0 0 0 0 0 0 0
Neighs:     1.8447e+06 ave  1.8447e+06 max  1.8447e+06 min
Histogram: 1 0 0 0 0 0 0 0 0 0

Total # of neighbors = 1844700
Ave neighs/atom = 340.09956
Ave special neighs/atom = 10.731563
Neighbor list builds = 202
Dangerous builds = 0
unfix           nve_settle
unfix           temp_settle

min_style       cg
minimize        1e-06 1e-06 20000 200000
PPPM initialization ...
  using 12-bit tables for long-range coulomb
  G vector (1/distance) = 0.23790346
  grid = 15 15 15
  stencil order = 5
  estimated absolute RMS force accuracy = 0.021044186
  estimated relative force accuracy = 6.3373941e-05
  using double precision FFTW3
  3d grid and FFT values/proc = 8000 3375
Generated 36 of 36 mixed pair_coeff terms from arithmetic mixing rule
WARNING: Using fix shake with minimization.
  Substituting constraints with harmonic restraint forces using kbond=1987206.7 (src/RIGID/fix_shake.cpp:385)
Per MPI rank memory allocation (min/avg/max) = 55.66 | 55.66 | 55.66 Mbytes
   Step          Temp          Press          Volume        Density         TotEng         KinEng         PotEng         E_bond        E_angle        E_dihed         E_vdwl         E_coul         E_long    
      5000   290.4736       1773.1263      58921.169      1.0021119      2230.389       4626.2185     -2395.8295      1451.6672      2191.7131      1590.2717     -980.41153      9290.5159     -15975.238    
      5012   290.4736      -4061.0685      58921.169      1.0021119      2016.4462      4626.2185     -2609.7723      1312.6614      2130.542       1581.7316     -985.2746       9290.0443     -15975.423    
Loop time of 1.37635 on 1 procs for 12 steps with 5424 atoms

99.9% CPU use with 1 MPI tasks x 1 OpenMP threads

Minimization stats:
  Stopping criterion = energy tolerance
  Energy initial, next-to-last, final = 
     -2395.82947106212   -2609.7707590908  -2609.77227771581
  Force two-norm initial, final = 2185.4279 4901.9983
  Force max component initial, final = 92.598682 1257.2582
  Final line search alpha, max atom move = 9.9323996e-06 0.012487591
  Iterations, force evaluations = 12 56

MPI task timing breakdown:
Section |  min time  |  avg time  |  max time  |%varavg| %total
---------------------------------------------------------------
Pair    | 1.2437     | 1.2437     | 1.2437     |   0.0 | 90.36
Bond    | 0.043208   | 0.043208   | 0.043208   |   0.0 |  3.14
Kspace  | 0.078872   | 0.078872   | 0.078872   |   0.0 |  5.73
Neigh   | 0          | 0          | 0          |   0.0 |  0.00
Comm    | 0.0024595  | 0.0024595  | 0.0024595  |   0.0 |  0.18
Output  | 0          | 0          | 0          |   0.0 |  0.00
Modify  | 0.0016774  | 0.0016774  | 0.0016774  |   0.0 |  0.12
Other   |            | 0.006453   |            |       |  0.47

Nlocal:           5424 ave        5424 max        5424 min
Histogram: 1 0 0 0 0 0 0 0 0 0
Nghost:          16170 ave       16170 max       16170 min
Histogram: 1 0 0 0 0 0 0 0 0 0
Neighs:    1.84468e+06 ave 1.84468e+06 max 1.84468e+06 min
Histogram: 1 0 0 0 0 0 0 0 0 0

Total # of neighbors = 1844681
Ave neighs/atom = 340.09605
Ave special neighs/atom = 10.731563
Neighbor list builds = 0
Dangerous builds = 0

# ---------------------------------------------------------------- NPT ---------
# Swelling is the point: the box must be free to expand as water goes in, so the
# uptake is measured at constant pressure, not constant volume.
fix             npt_swell all npt temp 300.0 300.0 100.0 iso 1.0 1.0 1000.0
run             25000
PPPM initialization ...
  using 12-bit tables for long-range coulomb
  G vector (1/distance) = 0.23790346
  grid = 15 15 15
  stencil order = 5
  estimated absolute RMS force accuracy = 0.021044186
  estimated relative force accuracy = 6.3373941e-05
  using double precision FFTW3
  3d grid and FFT values/proc = 8000 3375
Generated 36 of 36 mixed pair_coeff terms from arithmetic mixing rule
Per MPI rank memory allocation (min/avg/max) = 53.41 | 53.41 | 53.41 Mbytes
   Step          Temp          Press          Volume        Density         TotEng         KinEng         PotEng         E_bond        E_angle        E_dihed         E_vdwl         E_coul         E_long    
      5012   290.4736       963.4781       58921.169      1.0021119      2015.121       4626.2185     -2611.0975      1312.6614      2130.542       1581.7316     -985.2746       9290.0443     -15975.423    
      5500   300.31329      368.92715      59999.388      0.98410341     2631.0233      4782.93       -2151.9067      1474.513       2277.1349      1618.2188     -960.14241      9354.3745     -15956.63     
      6000   299.74154      35.689571      59998.712      0.98411449     2392.9479      4773.8241     -2380.8762      1444.0423      2214.966       1615.9947     -949.55455      9223.4673     -15966.724    
      6500   299.93916      95.904468      60359.133      0.97823809     2454.0837      4776.9714     -2322.8878      1431.269       2261.3069      1596.9075     -1030.5493      9345.5931     -15965.34     
      7000   295.1721      -726.28454      60104.839      0.98237684     2448.3821      4701.049      -2252.6669      1527.0662      2340.1243      1572.4435     -1031.8165      9267.6805     -15968.279    
      7500   300.69789     -1551.6613      60354.062      0.97832028     2424.6942      4789.0553     -2364.3611      1491.4197      2258.5037      1591.6442     -1072.2158      9291.0317     -15962.153    
      8000   299.4719       1069.0493      59848.907      0.98657779     2433.9226      4769.5297     -2335.6071      1519.2715      2304.448       1548.767      -1026.6571      9260.0404     -15978.179    
      8500   296.8464      -458.90894      59412.646      0.99382212     2410.9166      4727.7147     -2316.7982      1529.3708      2321.4893      1539.4293     -990.40001      9229.6808     -15981.303    
      9000   299.2411      -163.63095      59291.737      0.99584875     2401.9346      4765.8539     -2363.9193      1561.9224      2281.4807      1560.4448     -1021.1858      9206.2919     -15989.504    
      9500   296.90872      1411.0807      59252.389      0.99651007     2408.6426      4728.7073     -2320.0647      1556.6022      2341.456       1552.7625     -990.09753      9170.8582     -15987.744    
     10000   304.04718     -122.17007      59451.954      0.99316504     2527.0678      4842.3977     -2315.3298      1598.757       2334.2833      1597.0111     -1080.864       9180.7372     -15982.281    
     10500   301.93002      242.80228      59289.826      0.99588085     2562.6421      4808.6789     -2246.0368      1617.7291      2402.9192      1553.1383     -969.09677      9101.5501     -15986.494    
     11000   300.33178     -161.90932      59074.745      0.99950667     2434.4875      4783.2245     -2348.737       1645.9621      2333.2642      1523.9178     -993.84027      9079.0313     -15972.333    
     11500   300.85198      835.83565      59270.491      0.99620572     2442.7673      4791.5095     -2348.7422      1613.3738      2347.1689      1538.7637     -1023.6066      9109.4019     -15970.448    
     12000   302.66028     -116.01382      58957.561      1.0014933      2470.1902      4820.3092     -2350.119       1641.3415      2327.3046      1545.0651     -1081.9694      9153.6418     -15972.948    
     12500   299.40095     -303.17161      59243.907      0.99665274     2478.445       4768.3997     -2289.9547      1632.6397      2381.2406      1547.6576     -1079.5624      9172.2718     -15980.537    
     13000   298.54519      656.78038      58964.766      1.0013709      2314.1698      4754.7704     -2440.6006      1562.6478      2363.0999      1499.7243     -997.69376      9082.3021     -15986.556    
     13500   300.68504     -504.6226       59343.515      0.99497986     2391.0682      4788.8507     -2397.7825      1656.6523      2322.7732      1530.6773     -1061.4367      9091.8271     -15975.751    
     14000   300.73716      173.13143      58973.408      1.0012242      2356.0219      4789.6808     -2433.6589      1631.9419      2330.8659      1533.7643     -1080.0455      9095.9272     -15980.668    
     14500   303.09952     -1031.5891      58703.171      1.0058333      2403.4771      4827.3049     -2423.8277      1633.8443      2371.8023      1524.4536     -1070.0313      9068.2441     -15989.92     
     15000   304.23421      606.90502      58484.575      1.0095927      2528.8324      4845.3765     -2316.5441      1656.3671      2413.7436      1534.0976     -1047.9883      9076.1154     -15985.812    
     15500   305.56902     -273.07822      58490.751      1.0094861      2476.7454      4866.6353     -2389.8899      1702.9997      2334.238       1515.7565     -1059.1779      9059.2612     -15979.57     
     16000   302.16834     -223.37909      58927.464      1.0020048      2389.2181      4812.4745     -2423.2563      1692.2259      2310.6278      1548.6896     -1081.92        9061.6161     -15989.823    
     16500   299.16002     -212.83164      58629.844      1.0070912      2410.2482      4764.5624     -2354.3143      1685.6443      2420.9518      1524.4785     -1113.9253      9072.4439     -15980.381    
     17000   305.87907     -736.34997      58545.77       1.0085375      2515.5081      4871.5733     -2356.0652      1729.3469      2417.4448      1512.2688     -1118.8139      9059.5373     -15992.263    
     17500   304.13129      171.25692      58775.795      1.0045905      2438.93        4843.7372     -2404.8072      1706.6618      2302.0785      1514.6613     -1090.3734      9103.7031     -15976.963    
     18000   301.54959      1430.6727      58337.147      1.0121442      2459.383       4802.62       -2343.237       1676.9142      2418.302       1527.6547     -1081.719       9061.2878     -15981.088    
     18500   295.80622      880.43534      58364.794      1.0116647      2208.7884      4711.1484     -2502.36        1686.7882      2342.3755      1517.0957     -1106.7835      9008.0195     -15986.981    
     19000   298.65512     -996.17645      58622.736      1.0072134      2337.4479      4756.5212     -2419.0733      1683.2243      2418.2283      1497.9225     -1089.8792      9019.3315     -15982.924    
     19500   303.30999      131.34131      58088.192      1.016482       2370.5371      4830.6569     -2460.1199      1700.5295      2369.885       1493.553      -1075.6444      8995.3988     -15979.414    
     20000   301.35608      1518.1701      58363.483      1.0116874      2317.3326      4799.5379     -2482.2054      1660.9578      2386.4436      1482.4509     -1043.3854      8981.9178     -15984.607    
     20500   296.52374     -581.9616       58571.118      1.008101       2292.1192      4722.5759     -2430.4567      1719.1456      2455.0797      1481.048      -1112.6974      8975.7405     -15984.204    
     21000   296.51608     -361.07395      58296.361      1.0128523      2365.7944      4722.4539     -2356.6596      1759.7794      2401.4976      1540.7023     -1099.2931      8988.9178     -15984.913    
     21500   303.06447      526.10381      58263.183      1.0134291      2388.9002      4826.7467     -2437.8465      1708.2096      2329.0288      1537.4836     -1078.5297      9009.3532     -15981.144    
     22000   301.19808      135.71221      58084.36       1.0165491      2316.5766      4797.0216     -2480.4451      1712.3126      2361.0102      1515.8984     -1077.7466      8960.1665     -15990.098    
     22500   295.2034       162.62211      58682.95       1.0061799      2367.4272      4701.5475     -2334.1203      1747.4785      2453.3793      1506.2414     -1114.776       9026.1925     -15988.103    
     23000   303.10298     -247.90758      58208.806      1.0143758      2426.1484      4827.36       -2401.2115      1722.9741      2428.902       1532.8686     -1069.3509      8932.7851     -15986.874    
     23500   296.78842      47.971419      58205.439      1.0144345      2281.6061      4726.7912     -2445.1852      1714.4646      2354.442       1497.1993     -1071.5105      9014.9367     -15989.221    
     24000   296.5299      -661.96706      58088.285      1.0164804      2238.6147      4722.674      -2484.0594      1656.7518      2393.8597      1546.1691     -1108.8589      8975.9462     -15985.393    
     24500   298.75501     -134.29449      58357.504      1.0117911      2335.322       4758.1122     -2422.7902      1740.5972      2398.4872      1519.0189     -1112.2029      8977.5865     -15985.571    
     25000   304.01034      210.48937      58530.844      1.0087947      2429.4803      4841.811      -2412.3307      1728.4609      2380.1919      1526.3698     -1104.2698      9002.7125     -15982.915    
     25500   301.9815       763.14124      58309.095      1.0126311      2453.795       4809.4988     -2355.7038      1738.0655      2422.5426      1540.8959     -1035.1994      8932.1728     -15987.489    
     26000   298.90775     -1023.9443      58536.101      1.0087041      2346.8762      4760.5448     -2413.6685      1736.5632      2350.102       1548.6938     -1109.3117      9008.0327     -15985.231    
     26500   297.71879      1302.5111      57862.767      1.0204421      2178.7254      4741.6088     -2562.8833      1667.5146      2322.501       1492.5484     -1104.1065      9008.2774     -15983.661    
     27000   299.77718     -505.92161      58216.16       1.0142476      2380.0916      4774.3917     -2394.3001      1737.2269      2418.4537      1510.8958     -1082.353       8977.7075     -15991.635    
     27500   299.39928      1516.673       58115.178      1.01601        2385.2952      4768.3731     -2383.0779      1621.3957      2448.7842      1549.3506     -1072.1139      9016.7159     -15987.662    
     28000   302.05758      666.57693      58277.368      1.0131824      2438.7773      4810.7104     -2371.9331      1747.7449      2389.4034      1509.2876     -1037.149       8975.2397     -15991.778    
     28500   302.22452     -506.18816      58601.097      1.0075853      2431.446       4813.3692     -2381.9233      1760.2747      2373.158       1528.6294     -1077.3377      8984.347      -15986.245    
     29000   300.69944     -332.25349      58367.446      1.0116187      2326.6583      4789.08       -2462.4218      1753.1238      2375.5966      1478.7354     -1111.2184      8996.4096     -15990.138    
     29500   300.53295     -1100.8032      58080.155      1.0166227      2303.729       4786.4284     -2482.6994      1738.1115      2382.1137      1487.7388     -1093.6846      8963.8799     -15994.804    
     30000   302.10221      463.00812      58656.576      1.0066323      2388.9731      4811.4212     -2422.4481      1726.5809      2381.7708      1516.982      -1094.4781      8994.2206     -15983.389    
     30012   298.23086     -212.51161      58637.211      1.0069647      2372.601       4749.7643     -2377.1633      1791.9162      2389.8419      1530.1081     -1113.9897      8966.658      -15981.114    
Loop time of 506.656 on 1 procs for 25000 steps with 5424 atoms

Performance: 4.263 ns/day, 5.630 hours/ns, 49.343 timesteps/s, 267.637 katom-step/s
99.7% CPU use with 1 MPI tasks x 1 OpenMP threads

MPI task timing breakdown:
Section |  min time  |  avg time  |  max time  |%varavg| %total
---------------------------------------------------------------
Pair    | 399.56     | 399.56     | 399.56     |   0.0 | 78.86
Bond    | 20.921     | 20.921     | 20.921     |   0.0 |  4.13
Kspace  | 35.158     | 35.158     | 35.158     |   0.0 |  6.94
Neigh   | 41.952     | 41.952     | 41.952     |   0.0 |  8.28
Comm    | 1.2757     | 1.2757     | 1.2757     |   0.0 |  0.25
Output  | 0.11584    | 0.11584    | 0.11584    |   0.0 |  0.02
Modify  | 7.4221     | 7.4221     | 7.4221     |   0.0 |  1.46
Other   |            | 0.2554     |            |       |  0.05

Nlocal:           5424 ave        5424 max        5424 min
Histogram: 1 0 0 0 0 0 0 0 0 0
Nghost:          16190 ave       16190 max       16190 min
Histogram: 1 0 0 0 0 0 0 0 0 0
Neighs:    1.85486e+06 ave 1.85486e+06 max 1.85486e+06 min
Histogram: 1 0 0 0 0 0 0 0 0 0

Total # of neighbors = 1854855
Ave neighs/atom = 341.97179
Ave special neighs/atom = 10.731563
Neighbor list builds = 986
Dangerous builds = 0

variable        dens equal density
variable        vol_ equal vol
fix             avg all ave/time 500 10 5000 v_dens v_vol_ file density.dat
run             25000
PPPM initialization ...
  using 12-bit tables for long-range coulomb
  G vector (1/distance) = 0.23805029
  grid = 15 15 15
  stencil order = 5
  estimated absolute RMS force accuracy = 0.020948176
  estimated relative force accuracy = 6.308481e-05
  using double precision FFTW3
  3d grid and FFT values/proc = 8000 3375
Generated 36 of 36 mixed pair_coeff terms from arithmetic mixing rule
Per MPI rank memory allocation (min/avg/max) = 53.79 | 53.79 | 53.79 Mbytes
   Step          Temp          Press          Volume        Density         TotEng         KinEng         PotEng         E_bond        E_angle        E_dihed         E_vdwl         E_coul         E_long    
     30012   298.23086     -215.34588      58637.211      1.0069647      2372.5828      4749.7643     -2377.1814      1791.9162      2389.8419      1530.1081     -1113.9897      8976.0113     -15990.486    
     30500   300.31605     -429.5945       58161.806      1.0151955      2351.9955      4782.974      -2430.9785      1760.7365      2411.9461      1508.7028     -1066.8818      8918.0181     -15998.396    
     31000   301.94136     -850.28747      58433.496      1.0104753      2379.4009      4808.8594     -2429.4585      1773.8721      2365.2708      1530.3622     -1070.4192      8935.3569     -16000.719    
     31500   298.00088     -507.88872      58634.145      1.0070174      2305.8163      4746.1014     -2440.2851      1719.1818      2371.2848      1507.0869     -1050.713       8969.4694     -15993.795    
     32000   299.01149      789.60224      58305.213      1.0126985      2254.9471      4762.197      -2507.2499      1688.8064      2332.115       1518.7945     -1069.1594      8986.4131     -16000.32     
     32500   305.26952     -55.901147      57983.79       1.0183122      2379.8638      4861.8653     -2482.0015      1718.2674      2340.338       1522.5466     -1124.2424      9028.8868     -16004.035    
     33000   298.0794      -859.24543      58380.057      1.0114002      2425.0064      4747.3521     -2322.3457      1750.2226      2397.6225      1532.4559     -1118.8207      9064.8649     -15984.668    
     33500   301.68541      530.4276       58170.88       1.0150371      2325.6785      4804.7831     -2479.1046      1685.4398      2373.4589      1524.9453     -1120.3501      9013.0638     -15994.691    
     34000   292.13165      925.18008      58328.657      1.0122915      2254.8605      4652.6254     -2397.7649      1707.9476      2367.5357      1555.1934     -1094.8855      9024.0786     -15994.991    
     34500   296.16329     -1053.387       58219.363      1.0141918      2365.3938      4716.8351     -2351.4413      1743.3989      2413.2393      1523.9405     -1099.4699      9031.5859     -16001.187    
     35000   303.72537      781.80467      58405.688      1.0109564      2395.3294      4837.2724     -2441.943       1706.2781      2398.4119      1481.449      -1092.8317      9034.3289     -16004.786    
     35500   303.0651       272.00787      58314.555      1.0125363      2462.0655      4826.7566     -2364.6911      1736.5751      2437.1056      1502.5213     -1093.4913      9017.6089     -16002.395    
     36000   296.29572      945.31092      58139.414      1.0155865      2221.2686      4718.9444     -2497.6757      1681.8414      2352.5033      1516.8517     -1126.4168      9035.3628     -15994.965    
     36500   295.70456     -55.297728      58023.71       1.0176116      2252.615       4709.5293     -2456.9143      1731.2503      2360.624       1533.6701     -1067.4117      8942.3994     -15995.704    
     37000   298.37098     -328.36006      58119.189      1.0159399      2386.2066      4751.9958     -2365.7893      1791.4751      2383.5921      1521.753      -1057.2916      8960.8249     -16002.439    
     37500   302.20153     -23.796968      58618.349      1.0072887      2419.8691      4813.0031     -2393.134       1739.4502      2390.5574      1486.7112     -1116.6075      9075.9881     -16004.546    
     38000   297.36562      752.68177      57928.855      1.0192779      2282.5561      4735.984      -2453.4279      1737.7014      2410.4935      1486.5532     -1119.2275      8988.4912     -15994.545    
     38500   297.8333      -1152.7213      58509.216      1.0091675      2180.102       4743.4326     -2563.3306      1704.9732      2353.7536      1469.5152     -1125.2454      8996.0799     -15995.495    
     39000   294.83961      427.1387       58456.517      1.0100773      2273.8397      4695.7536     -2421.9139      1720.4352      2398.8246      1503.1661     -1098.474       9017.7943     -15998.183    
     39500   298.45599      192.22927      58416.448      1.0107702      2359.8081      4753.3498     -2393.5417      1755.4428      2372.785       1545.2814     -1117.6577      9000.341      -15987.522    
     40000   301.82916     -434.42818      58154.906      1.0153159      2359.6055      4807.0725     -2447.467       1744.1205      2348.2411      1497.624      -1045.7904      8971.0347     -15997.868    
     40500   299.56968      28.482904      58407.312      1.0109283      2471.8016      4771.0869     -2299.2853      1755.0396      2411.5069      1530.541      -1065.8789      9022.588      -15991.352    
     41000   299.67953     -108.94346      58237.738      1.0138718      2363.8555      4772.8364     -2408.9809      1761.6008      2384.0903      1516.5167     -1096.879       8989.5072     -15999.427    
     41500   301.20621      235.40742      58408.574      1.0109064      2322.8418      4797.1511     -2474.3093      1717.4106      2366.8951      1494.9675     -1058.1456      8967.8101     -15997.961    
     42000   299.89432     -968.2386       58394.885      1.0111434      2371.4895      4776.2573     -2404.7678      1751.6646      2418.7388      1531.4367     -1157.5532      9006.326      -15991.791    
     42500   299.17134     -1170.1302      58340.857      1.0120798      2303.181       4764.7428     -2461.5618      1736.0535      2415.2432      1508.3342     -1104.6026      8949.2462     -16002.568    
     43000   297.43621      952.29888      58346.122      1.0119885      2257.8469      4737.1082     -2479.2614      1704.4507      2380.3929      1508.4824     -1080.7218      8973.5807     -16002.858    
     43500   297.01667     -922.42298      58488.538      1.0095243      2211.7293      4730.4265     -2518.6972      1744.1455      2330.3718      1490.8428     -1126.0212      9002.2398     -15995.233    
     44000   294.27447      626.60752      57964.222      1.018656       2218.5011      4686.753      -2468.2519      1734.8961      2422.1715      1496.6628     -1102.4665      8947.3662     -16002.425    
     44500   301.44485      920.71768      57957.43       1.0187754      2370.7435      4800.9518     -2430.2083      1718.8215      2407.318       1492.1852     -1088.2275      9000.9503     -15998.829    
     45000   305.63696      436.93477      58315.341      1.0125226      2431.6054      4867.7173     -2436.1119      1745.7773      2374.5534      1504.2341     -1081.2414      8976.2294     -15992.427    
     45500   299.75501      1193.041       58188.99       1.0147212      2329.0487      4774.0386     -2444.9899      1730.3905      2376.3772      1515.7207     -1057.1662      8957.3791     -16002.876    
     46000   294.13486     -496.99474      58410.229      1.0108778      2259.0348      4684.5295     -2425.4947      1763.7583      2380.048       1511.2104     -1150.4801      9026.4096     -15993.282    
     46500   299.44431      188.5805       58461.653      1.0099886      2375.8884      4769.0903     -2393.2019      1764.0183      2408.3412      1512.4462     -1127.2365      9008.5273     -15995.605    
     47000   301.12846      861.34878      58325.154      1.0123523      2335.2411      4795.9128     -2460.6716      1751.2432      2349.1343      1515.3172     -1099.8749      8988.2689     -16004.176    
     47500   300.61954     -884.87086      58639.562      1.0069243      2437.5426      4787.8075     -2350.265       1792.8958      2364.2133      1516.4136     -1108.0826      9044.2741     -15996.22     
     48000   300.66469      111.64909      58131.272      1.0157287      2295.0114      4788.5267     -2493.5153      1705.1646      2391.824       1488.4551     -1095.3523      8988.7317     -16007.712    
     48500   296.16033     -134.52231      58158.346      1.0152559      2334.6696      4716.788      -2382.1184      1767.6687      2377.6046      1539.0609     -1054.3866      8950.1836     -15999.386    
     49000   301.89789      293.99172      58184.03       1.0148077      2473.1151      4808.1671     -2335.052       1786.4959      2399.7491      1498.2734     -1088.6226      9033.4586     -15999.84     
     49500   299.83103     -508.90187      58314.973      1.012529       2399.0244      4775.2493     -2376.225       1802.2484      2380.5739      1487.8986     -1124.4721      9036.9959     -15993.812    
     50000   300.75118      83.543972      58248.048      1.0136924      2386.4459      4789.904      -2403.4581      1760.1562      2374.8267      1516.4713     -1074.8652      8984.6228     -16002.226    
     50500   301.03652      554.09063      58042.451      1.0172831      2283.2834      4794.4485     -2511.1651      1695.2777      2368.9334      1495.1414     -1120.054       9013.0638     -15998.818    
     51000   303.15021      605.22673      58219.9        1.0141825      2326.6719      4828.1121     -2501.4402      1694.323       2359.416       1527.5426     -1129.5931      9012.1023     -16000.152    
     51500   299.9612      -169.0826       57884.577      1.0200576      2375.8677      4777.3224     -2401.4548      1781.277       2381.9345      1530.1351     -1040.7919      8915.7686     -16005.982    
     52000   298.05123      677.4187       58027.817      1.0175396      2309.334       4746.9035     -2437.5695      1710.677       2395.4395      1523.062      -1112.2229      9012.8705     -16002.983    
     52500   307.87115      554.5929       58461.308      1.0099946      2440.6115      4903.3001     -2462.6886      1754.814       2336.1281      1502.3275     -1102.1662      9007.0041     -15996.803    
     53000   302.83469     -467.89067      58619.718      1.0072652      2387.3139      4823.087      -2435.7731      1746.0357      2385.7966      1510.0146     -1131.0696      9007.211      -15989.097    
     53500   302.7887       754.56204      58212.049      1.0143193      2267.6326      4822.3546     -2554.722       1728.9807      2301.4976      1499.2675     -1113.8864      8997.1996     -16003.202    
     54000   300.81759      775.56151      58131.473      1.0157252      2319.4633      4790.9617     -2471.4984      1679.1508      2392.1319      1511.7272     -1054.5477      8959.5459     -15997.287    
     54500   297.27629      813.38633      58018.582      1.0177016      2337.1217      4734.5613     -2397.4396      1746.6982      2396.8316      1561.0075     -1163.6197      9019.5354     -15994.359    
     55000   298.98311     -643.34377      58467.696      1.0098842      2264.9322      4761.7449     -2496.8128      1718.8875      2404.4012      1503.9238     -1127.284       8964.824      -15995.357    
     55012   297.74657     -843.2673       58471.805      1.0098132      2267.0596      4742.0512     -2474.9915      1697.2692      2416.7083      1513.4716     -1114.598       8973.3545     -15997.855    
Loop time of 507.858 on 1 procs for 25000 steps with 5424 atoms

Performance: 4.253 ns/day, 5.643 hours/ns, 49.226 timesteps/s, 267.004 katom-step/s
99.8% CPU use with 1 MPI tasks x 1 OpenMP threads

MPI task timing breakdown:
Section |  min time  |  avg time  |  max time  |%varavg| %total
---------------------------------------------------------------
Pair    | 403.41     | 403.41     | 403.41     |   0.0 | 79.43
Bond    | 21.099     | 21.099     | 21.099     |   0.0 |  4.15
Kspace  | 35.419     | 35.419     | 35.419     |   0.0 |  6.97
Neigh   | 38.769     | 38.769     | 38.769     |   0.0 |  7.63
Comm    | 1.2852     | 1.2852     | 1.2852     |   0.0 |  0.25
Output  | 0.12267    | 0.12267    | 0.12267    |   0.0 |  0.02
Modify  | 7.4937     | 7.4937     | 7.4937     |   0.0 |  1.48
Other   |            | 0.2563     |            |       |  0.05

Nlocal:           5424 ave        5424 max        5424 min
Histogram: 1 0 0 0 0 0 0 0 0 0
Nghost:          16422 ave       16422 max       16422 min
Histogram: 1 0 0 0 0 0 0 0 0 0
Neighs:     1.8632e+06 ave  1.8632e+06 max  1.8632e+06 min
Histogram: 1 0 0 0 0 0 0 0 0 0

Total # of neighbors = 1863195
Ave neighs/atom = 343.5094
Ave special neighs/atom = 10.731563
Neighbor list builds = 907
Dangerous builds = 0

# ------------------------------------------------------------- chemical pot ---
# Widom insertion of a test water into the swollen membrane, to be compared with
# the same quantity in bulk water. The comparison is only meaningful if both
# sides use identical cutoff, kspace accuracy and water model -- see bulk.in.j2.
#
# The test particle is inserted but never kept, so this measures the free energy
# the *next* water would pay, which is exactly the saturation question.
molecule        h2o h2o.mol
Read molecule template h2o:
# Rigid water for Widom test insertions.
  1 molecules
  0 fragments
  0 bodies
  3 atoms with max type 9
  2 bonds with max type 8
  1 angles with max type 14
  0 dihedrals with max type 0
  0 impropers with max type 0
fix             w all widom 100 400 0 87234 300.0 mol h2o full_energy
WARNING: Molecule attributes do not match system attributes
For more information see https://docs.lammps.org/err0026 (src/molecule.cpp:3637)
variable        muex equal f_w[1]
variable        boltz equal f_w[2]
variable        wvol equal f_w[3]
fix             muavg all ave/time 100 100 10000 v_muex v_boltz v_wvol file mu.dat
run             50000
PPPM initialization ...
  using 12-bit tables for long-range coulomb
  G vector (1/distance) = 0.23813612
  grid = 15 15 15
  stencil order = 5
  estimated absolute RMS force accuracy = 0.020892219
  estimated relative force accuracy = 6.2916296e-05
  using double precision FFTW3
  3d grid and FFT values/proc = 8000 3375
Generated 36 of 36 mixed pair_coeff terms from arithmetic mixing rule
0 atoms in group FixWidom:widom_exclusion_group:w
0 atoms in group FixWidom:rotation_gas_atoms:w
WARNING: Neighbor exclusions used with KSpace solver may give inconsistent Coulombic energies (src/neighbor.cpp:671)
Per MPI rank memory allocation (min/avg/max) = 53.79 | 53.79 | 53.79 Mbytes
   Step          Temp          Press          Volume        Density         TotEng         KinEng         PotEng         E_bond        E_angle        E_dihed         E_vdwl         E_coul         E_long    
     55012   297.74657     -843.09062      58471.805      1.0098132      2267.0489      4742.0512     -2475.0023      1697.2692      2416.7083      1513.4716     -1114.598       8978.8251     -16003.337    
     55500   298.53304      56.612087      58318.646      1.0124652      2221.6098      4754.577      -2532.9672      1707.9295      2370.801       1476.747      -1069.7209      8943.8931     -15997.572    
     56000   293.68235     -666.61713      58241.543      1.0138056      2168.7807      4677.3226     -2508.542       1710.3918      2384.4386      1483.518      -1129.6164      9014.518      -16006.795    
     56500   304.95932     -1262.8146      58481.864      1.0096395      2356.6719      4856.9248     -2500.2529      1726.4977      2381.5065      1485.6322     -1135.6127      9009.9856     -16003.355    
     57000   307.74303     -996.431        58387.482      1.0112716      2451.5455      4901.2596     -2449.7141      1781.9725      2385.9259      1521.8247     -1135.8602      8970.5081     -16009.513    
     57500   299.44372     -382.40529      58316.512      1.0125023      2381.0248      4769.0808     -2388.056       1802.9986      2362.7746      1527.306      -1078.3173      8966.0466     -16006.999    
     58000   299.22915      132.54724      58066.847      1.0168557      2379.9446      4765.6635     -2385.719       1752.6561      2420.1185      1549.3328     -1090.648       8950.6918     -16005.459    
     58500   287.89107     -1569.3199      58030.964      1.0174844      2149.9328      4585.088      -2435.1552      1765.3061      2406.1188      1506.7715     -1122.8306      8978.3841     -16003.172    
     59000   301.64924      654.62964      58052.954      1.017099       2366.5414      4804.207      -2437.6656      1779.9756      2389.1113      1515.7157     -1115.9245      8971.5084     -16014.311    
     59500   301.89024     -26.199263      58608.799      1.0074529      2386.5899      4808.0452     -2421.4553      1758.0307      2436.6299      1481.367      -1124.9803      8996.1246     -16003.813    
     60000   297.64695      871.2464       57879.968      1.0201388      2222.4619      4740.4646     -2518.0028      1671.2713      2404.6432      1492.5846     -1051.8146      8934.2609     -16002.511    
     60500   298.89999     -179.92888      58218.655      1.0142042      2259.2291      4760.4211     -2501.192       1721.6073      2385.2912      1516.8068     -1092.4442      8942.3999     -16010.642    
     61000   302.31716     -724.40042      57912.604      1.0195639      2378.2511      4814.8446     -2436.5935      1771.7047      2448.0871      1515.184      -1128.0937      8923.7986     -16002.187    
     61500   299.99716      817.62236      58240.456      1.0138245      2335.9938      4777.8952     -2441.9014      1726.1755      2407.1115      1477.4238     -1052.7607      8963.7114     -15996.488    
     62000   294.94972     -741.43486      57730.549      1.0227792      2216.9178      4697.5073     -2480.5895      1743.4593      2415.5263      1508.1805     -1048.8579      8876.187      -16011.922    
     62500   302.27222      322.18813      58509.609      1.0091608      2405.6205      4814.1289     -2408.5083      1729.1463      2389.4308      1524.7441     -1085.1765      8999.7321     -16002.038    
     63000   299.01813     -857.36003      58122.573      1.0158807      2286.5195      4762.3026     -2475.7831      1748.1566      2378.6869      1527.2101     -1094.5685      8938.9868     -16011.09     
     63500   301.99489      358.50623      58262.816      1.0134354      2301.8864      4809.712      -2507.8256      1776.129       2340.8721      1495.2907     -1105.4861      8952.3614     -15999.496    
     64000   299.83225     -1185.8224      58174.246      1.0149784      2371.5063      4775.2687     -2403.7624      1761.3933      2414.1063      1523.4245     -1119.8541      8984.2555     -16003.627    
     64500   297.4465      -1907.3321      58621.397      1.0072364      2448.1982      4737.2721     -2289.074       1803.4763      2486.4635      1477.7105     -1147.8849      9044.3731     -15987.027    
     65000   297.84802      7.5856379      58184.47       1.0148         2386.5077      4743.667      -2357.1593      1734.7578      2444.719       1515.3283     -1052.9843      8970.7815     -16006.089    
     65500   297.54002      362.0795       58733.923      1.0053066      2344.8943      4738.7616     -2393.8673      1771.8262      2396.4843      1512.8793     -1085.5927      8977.1412     -16002.149    
     66000   297.02806     -1313.9166      58217.771      1.0142196      2291.2156      4730.608      -2439.3924      1734.0602      2388.5953      1516.7031     -1119.7403      9008.9657     -16006.887    
     66500   294.05536      1536.9012      58015.354      1.0177582      2210.5641      4683.2634     -2472.6992      1670.9493      2410.082       1516.0648     -1072.0444      8969.9151     -16004.386    
     67000   302.9647       379.14117      58069.724      1.0168053      2312.6966      4825.1577     -2512.461       1713.4891      2348.0263      1524.5746     -1073.9662      8939.8274     -16001.423    
     67500   303.30545     -230.40655      58066.617      1.0168597      2419.465       4830.5846     -2411.1196      1770.6956      2415.2391      1488.1431     -1119.4448      9010.576      -16009.993    
     68000   304.23915      465.98147      57700.562      1.0233107      2367.0342      4845.4551     -2478.4209      1711.6326      2423.5749      1525.6788     -1085.3028      8919.3479     -16010.742    
     68500   301.13209     -1320.7484      57874.339      1.020238       2325.7594      4795.9706     -2470.2112      1753.2865      2335.7833      1540.6342     -1068.8462      8931.8191     -16002.127    
     69000   299.27013      273.38487      58128.63       1.0157749      2313.3349      4766.3161     -2452.9812      1704.2869      2419.5495      1503.2139     -1079.7401      8967.3907     -16003.474    
     69500   303.65697      815.38458      58055.719      1.0170506      2410.8567      4836.183      -2425.3263      1777.0259      2402.2343      1508.6126     -1105.9806      8959.5812     -16002.623    
     70000   300.39434     -1037.4872      57845.775      1.0207418      2298.2418      4784.2208     -2485.979       1727.7172      2353.7763      1533.8832     -1111.1863      8985.3652     -16012.08     
     70500   296.57019      1252.2964      57844.379      1.0207665      2254.2709      4723.3157     -2469.0448      1695.8217      2403.6464      1526.7767     -1068.926       8947.7757     -16010.572    
     71000   298.76431     -74.469858      58309.543      1.0126233      2215.7926      4758.2603     -2542.4677      1689.5105      2381.2371      1524.729      -1102.285       8925.6276     -15997.912    
     71500   298.92179     -589.71266      58252.88       1.0136083      2291.7765      4760.7683     -2468.9918      1687.2805      2373.946       1549.4474     -1102.9947      8985.3669     -15999.559    
     72000   303.03068     -66.177455      58091.204      1.0164293      2347.3977      4826.2085     -2478.8108      1684.1613      2407.4472      1493.723      -1139.0828      9042.2333     -16001.187    
     72500   292.60039      1291.1233      57749.991      1.0224348      2215.5749      4660.0907     -2444.5159      1755.4717      2368.5403      1530.5721     -1067.0035      8941.6058     -16010.714    
     73000   296.82636      816.64258      58303.177      1.0127339      2294.6512      4727.3956     -2432.7444      1736.7809      2390.3897      1533.816      -1135.4552      9010.8599     -16003.315    
     73500   299.77623     -881.54736      58036.177      1.017393       2311.4705      4774.3766     -2462.9061      1757.7798      2377.7154      1523.5143     -1118.9183      8966.5685     -16005.097    
     74000   303.54097     -707.14992      58092.497      1.0164067      2308.6744      4834.3356     -2525.6611      1713.0067      2386.5808      1502.4976     -1155.9426      8993.415      -16000.805    
     74500   298.01771     -935.15007      57908.312      1.0196395      2213.2017      4746.3695     -2533.1678      1723.581       2338.1307      1529.5812     -1169.3393      9002.9083     -15995.666    
     75000   299.15066     -210.50135      57992.958      1.0181512      2302.1663      4764.4134     -2462.2471      1698.3915      2437.3887      1514.7811     -1107.4237      8956.1794     -15999.062    
     75500   300.84703      520.04651      57993.759      1.0181372      2406.864       4791.4307     -2384.5666      1772.6807      2442.7818      1498.1355     -1080.6463      8956.3978     -16008.468    
     76000   298.75916      606.55068      58057.114      1.0170261      2310.6508      4758.1782     -2447.5274      1762.9678      2385.505       1504.4054     -1096.4523      8962.9377     -16003.444    
     76500   299.33426      1409.7218      57669.649      1.0238592      2163.1409      4767.3376     -2604.1967      1643.9432      2346.2926      1509.4        -1101.9652      8961.6983     -16000.524    
     77000   296.97275     -1193.9721      58178.053      1.014912       2169.1452      4729.727      -2560.5818      1724.4829      2327.9295      1494.0866     -1105.1993      8959.9482     -15998.348    
     77500   299.70024     -298.98533      57996.775      1.0180842      2302.4598      4773.1663     -2470.7064      1753.1257      2403.8014      1468.8939     -1135.1736      9002.9095     -15997.784    
     78000   296.31048     -37.83339       58035.403      1.0174066      2295.729       4719.1795     -2423.4504      1732.5642      2393.9047      1541.1465     -1127.069       9004.1789     -16004.398    
     78500   297.12523      93.399155      57844.126      1.0207709      2313.3927      4732.1556     -2418.7629      1743.5934      2398.457       1561.6894     -1122.3348      8959.6558     -15998.474    
     79000   296.13035      445.89603      58216.069      1.0142492      2376.8598      4716.3105     -2339.4508      1784.9719      2424.8267      1505.4339     -1132.8043      9038.9879     -15998.299    
     79500   299.31241      239.13681      57820.975      1.0211796      2270.6259      4766.9896     -2496.3636      1759.7212      2322.6947      1543.9426     -1123.1218      8959.5625     -15995.824    
     80000   304.08727     -873.62669      58060.135      1.0169732      2488.2293      4843.0362     -2354.8068      1784.2104      2410.2769      1546.7069     -1140.1709      9004.6903     -15996.949    
     80500   298.59033     -129.75965      58247.216      1.0137069      2357.6853      4755.4893     -2397.804       1748.3378      2401.5491      1501.7655     -1104.5772      9019.9755     -16001.899    
     81000   296.78488     -668.00872      58071.166      1.01678        2282.8268      4726.7349     -2443.9082      1724.5779      2436.8882      1512.847      -1146.87        8989.7577     -15996.22     
     81500   303.66689     -406.97818      58019.868      1.017679       2455.6623      4836.3411     -2380.6788      1758.0802      2439.4369      1501.5718     -1173.3653      9054.6253     -15996.43     
     82000   303.02024     -640.26953      58077.591      1.0166676      2441.4494      4826.0422     -2384.5928      1790.8724      2376.8243      1530.5012     -1109.1178      8995.4923     -16008.202    
     82500   300.98917      1542.6584      57922.523      1.0193893      2288.7923      4793.6944     -2504.9021      1728.9009      2344.3976      1513.1821     -1067.9081      8942.9517     -16003.624    
     83000   298.70422     -171.89986      58044.354      1.0172497      2306.5174      4757.3032     -2450.7858      1742.1066      2418.4867      1532.0782     -1123.9636      8955.1817     -16010.898    
     83500   307.29166     -635.01188      58144.387      1.0154996      2478.1719      4894.0709     -2415.899       1745.5393      2415.4276      1510.4984     -1119.8917      8996.2032     -16000.485    
     84000   297.94133      988.49426      58265.544      1.013388       2415.7643      4745.1531     -2329.3888      1789.5817      2425.4749      1513.1992     -1074.7105      8984.7916     -16004.094    
     84500   296.8972       300.89038      58111.53       1.0160738      2270.6906      4728.5238     -2457.8332      1740.6548      2408.3375      1487.7277     -1045.9259      8908.6033     -15993.299    
     85000   299.85612      1218.4804      57746.107      1.0225036      2299.43        4775.649      -2476.2189      1704.3219      2412.4519      1478.684      -1124.895       9011.485      -15992.906    
     85500   302.8338       610.0372       57739.011      1.0226293      2374.4401      4823.0729     -2448.6327      1710.1458      2366.1699      1530.1407     -1099.2485      9007.9138     -16000.233    
     86000   302.41749     -1378.8946      57916.225      1.0195002      2209.6504      4816.4424     -2606.792       1664.8972      2366.1475      1495.6074     -1078.2734      8910.2297     -16000.679    
     86500   302.47522      289.78435      58100.014      1.0162752      2313.1321      4817.3619     -2504.2298      1743.4666      2348.4178      1487.215      -1105.1856      8983.1442     -15997.985    
     87000   298.74763      848.95275      57796.963      1.0216039      2308.1618      4757.9946     -2449.8328      1693.7         2482.2809      1491.7793     -1074.6284      8928.3431     -16006.189    
     87500   299.80339      606.12107      58675.638      1.0063052      2433.8998      4774.8092     -2340.9094      1798.0512      2411.0069      1494.8667     -1118.5282      9030.9255     -15993.135    
     88000   301.15228      1491.4556      57727.482      1.0228335      2330.5067      4796.2921     -2465.7854      1749.028       2356.579       1482.244      -1048.085       8956.2935     -15995.205    
     88500   302.07798     -484.59198      58152.939      1.0153503      2271.6611      4811.0353     -2539.3743      1686.092       2406.1222      1481.8844     -1146.6612      8990.1483     -15990.999    
     89000   299.45242     -20.06081       58299.994      1.0127892      2290.4279      4769.2195     -2478.7916      1739.4402      2313.0944      1503.5534     -1083.3436      9003.5333     -15990.32     
     89500   297.25714      594.18188      58198.36       1.0145578      2296.2079      4734.2563     -2438.0484      1779.0422      2367.8447      1484.7347     -1070.3362      8968.395      -16002.717    
     90000   305.87505      156.00983      58105.282      1.016183       2353.9803      4871.5092     -2517.5289      1722.5492      2346.5124      1528.4971     -1080.3192      8943.671      -16016.256    
     90500   305.37784     -467.13928      58150.048      1.0154007      2469.6249      4863.5905     -2393.9656      1738.3794      2429.1863      1541.5339     -1129.1773      8994.1363     -16004.216    
     91000   298.93715      23.21649       57908.145      1.0196424      2328.4377      4761.013      -2432.5752      1729.7629      2418.5327      1516.1551     -1106.9287      8976.4865     -16002.779    
     91500   301.68442      561.54822      57740.3        1.0226064      2288.7817      4804.7673     -2515.9855      1741.2764      2337.6943      1518.4265     -1091.9416      8943.3697     -16002.111    
     92000   295.10041     -534.6515       58279.007      1.0131539      2188.7934      4699.9073     -2511.1139      1744.216       2365.075       1520.0463     -1138.6206      8966.6723     -16002.587    
     92500   305.63981     -442.42789      58196.003      1.0145989      2429.1338      4867.7627     -2438.629       1712.3858      2447.5467      1532.2093     -1109.5945      8944.344      -16004.208    
     93000   307.56579     -64.957291      57819.55       1.0212048      2446.1073      4898.4368     -2452.3295      1761.5307      2424.0391      1495.1009     -1089.0715      8918.1725     -15998.99     
     93500   302.72809     -71.183186      58430.599      1.0105254      2396.8555      4821.3892     -2424.5337      1731.9701      2439.7794      1475.92       -1113.3456      8996.9936     -15990.381    
     94000   304.8277       1057.2093      58303.962      1.0127202      2331.8357      4854.8287     -2522.993       1707.7234      2367.478       1500.656      -1109.7928      8980.805      -16005.575    
     94500   298.7782       451.53179      58131.831      1.0157189      2396.3882      4758.4814     -2362.0932      1769.8551      2453.7827      1579.7013     -1170.5577      8976.6407     -16011.329    
     95000   303.71722      1542.9846      57935.705      1.0191574      2291.6563      4837.1426     -2545.4863      1697.912       2357.0106      1497.7612     -1077.2431      8950.7265     -16006.984    
     95500   309.63522     -211.38166      58289.423      1.0129728      2500.1674      4931.3955     -2431.2281      1747.6873      2391.4547      1524.471      -1131.9542      9000.4232     -16001.807    
     96000   300.43796      172.34869      57885.315      1.0200446      2379.3846      4784.9156     -2405.5309      1743.9021      2406.9379      1520.41       -1048.7354      8938.9327     -16003.736    
     96500   300.47926     -107.00634      58456.633      1.0100753      2332.0998      4785.5733     -2453.4735      1700.2028      2395.0105      1497.5025     -1107.4876      9020.2226     -15994.618    
     97000   303.47221      1870.7994      57877.005      1.020191       2277.4372      4833.2404     -2555.8032      1672.5154      2325.7414      1532.8128     -1061.1998      8947.884      -16008.552    
     97500   303.5403       558.58105      58236.504      1.0138933      2360.6726      4834.325      -2473.6524      1764.6953      2322.5504      1519.446      -1125.3158      9000.7773     -15993.973    
     98000   302.67865      479.92282      58325.579      1.0123449      2382.842       4820.6018     -2437.7598      1717.5924      2397.5662      1535.3664     -1068.461       8943.0832     -16002.833    
     98500   301.46114      757.49633      58080.232      1.0166213      2345.0438      4801.2112     -2456.1674      1742.057       2423.8837      1505.3753     -1103.6658      8938.1591     -16000.021    
     99000   302.33707     -698.61448      58292.857      1.0129132      2409.8702      4815.1617     -2405.2915      1770.1214      2396.2868      1501.7071     -1099.4836      8989.9558     -15999.873    
     99500   309.11522      748.9449       58042.273      1.0172862      2479.0191      4923.1137     -2444.0946      1753.6477      2382.1968      1494.4348     -1045.117       8933.8218     -15999.163    
    100000   297.97737     -116.71376      58319.556      1.0124494      2274.8144      4745.7271     -2470.9126      1751.0898      2379.4635      1509.4582     -1091.5675      8944.1644     -15998.101    
    100500   298.84853      312.89138      58346.927      1.0119745      2358.7063      4759.6015     -2400.8952      1731.2767      2401.7503      1513.1451     -1093.6542      8994.7753     -15984.932    
    101000   299.81535     -1121.7989      58567.092      1.0081703      2358.6269      4774.9996     -2416.3727      1737.1586      2446.7949      1499.3        -1135.7878      8994.0933     -15995.924    
    101500   295.839        786.49321      57999.847      1.0180303      2239.7644      4711.6704     -2471.906       1753.9747      2389.9433      1507.4764     -1104.9737      8942.6721     -15993.602    
    102000   292.37864     -68.570929      58132.256      1.0157115      2235.4658      4656.5591     -2421.0933      1793.973       2381.0238      1514.2061     -1086.0802      8943.6012     -16001.625    
    102500   296.74154      405.25698      58287.779      1.0130014      2219.6402      4726.0446     -2506.4044      1716.5418      2384.2662      1525.743      -1063.8135      8902.5156     -16009.285    
    103000   308.57536      143.79076      58285.277      1.0130449      2553.7399      4914.5156     -2360.7758      1745.3949      2477.5352      1510.7708     -1091.3402      8964.3303     -16002.743    
    103500   297.20742     -499.45487      58444.531      1.0102845      2316.7361      4733.4644     -2416.7283      1753.5661      2409.6535      1483.1168     -1114.4449      8998.8784     -15984.589    
    104000   301.65506     -300.96763      57847.022      1.0207198      2293.621       4804.2998     -2510.6788      1714.8871      2376.9467      1487.2872     -1084.0859      8956.0323     -15998.304    
    104500   299.81369      583.30925      58315.06       1.0125275      2272.4515      4774.9732     -2502.5218      1706.5614      2399.2255      1488.9156     -1069.7309      8943.4395     -16004.092    
    105000   296.28638      32.273411      58334.877      1.0121835      2252.9082      4718.7955     -2465.8874      1700.0641      2438.0594      1485.1846     -1092.8981      8970.6683     -16002.346    
    105012   295.91605     -1042.7041      58363.003      1.0116957      2241.8857      4712.8975     -2471.0118      1750.5546      2405.3748      1481.9625     -1112.423       8967.8387     -16000.329    
Loop time of 16913.4 on 1 procs for 50000 steps with 5424 atoms

Performance: 0.255 ns/day, 93.963 hours/ns, 2.956 timesteps/s, 16.035 katom-step/s
99.7% CPU use with 1 MPI tasks x 1 OpenMP threads

MPI task timing breakdown:
Section |  min time  |  avg time  |  max time  |%varavg| %total
---------------------------------------------------------------
Pair    | 808.21     | 808.21     | 808.21     |   0.0 |  4.78
Bond    | 42.242     | 42.242     | 42.242     |   0.0 |  0.25
Kspace  | 70.695     | 70.695     | 70.695     |   0.0 |  0.42
Neigh   | 108.16     | 108.16     | 108.16     |   0.0 |  0.64
Comm    | 2.6547     | 2.6547     | 2.6547     |   0.0 |  0.02
Output  | 0.31599    | 0.31599    | 0.31599    |   0.0 |  0.00
Modify  | 15881      | 15881      | 15881      |   0.0 | 93.89
Other   |            | 0.5242     |            |       |  0.00

Nlocal:           5424 ave        5424 max        5424 min
Histogram: 1 0 0 0 0 0 0 0 0 0
Nghost:          17024 ave       17024 max       17024 min
Histogram: 1 0 0 0 0 0 0 0 0 0
Neighs:    1.86979e+06 ave 1.86979e+06 max 1.86979e+06 min
Histogram: 1 0 0 0 0 0 0 0 0 0

Total # of neighbors = 1869791
Ave neighs/atom = 344.72548
Ave special neighs/atom = 10.731563
Neighbor list builds = 202538
Dangerous builds = 0
unfix           w
unfix           muavg

# Written WITH coefficients: each stage reads the previous stage's data file, so
# the file has to be self-contained. `nocoeff` would force every downstream stage
# to re-derive the force field, and any drift between the two paths would be
# silent.
write_data      relaxed.data
System init for write_data ...
PPPM initialization ...
  using 12-bit tables for long-range coulomb
  G vector (1/distance) = 0.2381927
  grid = 15 15 15
  stencil order = 5
  estimated absolute RMS force accuracy = 0.020855398
  estimated relative force accuracy = 6.2805413e-05
  using double precision FFTW3
  3d grid and FFT values/proc = 8000 3375
Generated 36 of 36 mixed pair_coeff terms from arithmetic mixing rule
write_restart   relaxed.restart
System init for write_restart ...
PPPM initialization ...
  using 12-bit tables for long-range coulomb
  G vector (1/distance) = 0.2381927
  grid = 15 15 15
  stencil order = 5
  estimated absolute RMS force accuracy = 0.020855398
  estimated relative force accuracy = 6.2805413e-05
  using double precision FFTW3
  3d grid and FFT values/proc = 8000 3375
Generated 36 of 36 mixed pair_coeff terms from arithmetic mixing rule
Total wall time: 5:00:27
