LAMMPS (22 Jul 2025 - Update 5)
OMP_NUM_THREADS environment is not set. Defaulting to 1 thread.
  using 1 OpenMP thread(s) per MPI task
# iteration 2
# generated by aemwater -- do not edit; edit the template instead

units           real
atom_style      full
boundary        p p p

pair_style      lj/cut/coul/long 10.0 10.0
# GAFF2 is a Lorentz-Berthelot force field. The LAMMPS default for lj/cut is
# GEOMETRIC mixing, which silently changes every cross interaction.
pair_modify     mix arithmetic tail yes
kspace_style    pppm 0.0001
bond_style      harmonic
angle_style     harmonic
dihedral_style  charmm
improper_style  cvff
# Amber 1-4 scaling: LJ/2 and Coulomb/1.2. Applied here, so every CHARMM
# dihedral weight in the data file is 0.
special_bonds   lj 0.0 0.0 0.5 coul 0.0 0.0 0.8333333333

read_data       start.data
Reading data file ...
  orthogonal box = (0 0 0) to (38.899281 38.899281 38.899281)
  1 by 1 by 1 MPI processor grid
  reading atoms ...
  5364 atoms
  scanning bonds ...
  4 = max bonds/atom
  scanning angles ...
  6 = max angles/atom
  scanning dihedrals ...
  33 = max dihedrals/atom
  scanning impropers ...
  2 = max impropers/atom
  orthogonal box = (0 0 0) to (38.899281 38.899281 38.899281)
  1 by 1 by 1 MPI processor grid
  reading bonds ...
  5296 bonds
  reading angles ...
  9756 angles
  reading dihedrals ...
  15264 dihedrals
  reading impropers ...
  960 impropers
Finding 1-2 1-3 1-4 neighbors ...
  special bond factors lj:    0        0        0.5     
  special bond factors coul:  0        0        0.8333333333
     4 = max # of 1-2 neighbors
    12 = max # of 1-3 neighbors
    18 = max # of 1-4 neighbors
    22 = max # of special neighbors
  special bonds CPU = 0.002 seconds
  read_data CPU = 0.072 seconds
neighbor        2.0 bin
neigh_modify    delay 0 every 1 check yes
# The ghost-atom cutoff defaults to the pair cutoff + skin. Bonded partners must
# also be within it, and a stretched bond in a freshly packed cell can exceed it,
# which LAMMPS reports as a communication-cutoff warning before losing atoms.
comm_modify     cutoff 12.0

# Molecule IDs are assigned by the data writer in packing order: polymer chains
# first, then counterions, then any water added later. `<>` is LAMMPS's inclusive
# range operator.
group           polymer molecule <> 1 8
5024 atoms in group polymer
group           ions molecule <> 9 168
160 atoms in group ions
group           water type 8 9
180 atoms in group water

thermo          500
thermo_style    custom step temp press vol density etotal ke pe ebond eangle edihed evdwl ecoul elong
thermo_modify   flush yes

fix             shake_all all shake 0.0001 20 0 b 8 a 14
Finding SHAKE clusters ...
       0 = # of size 2 clusters
       0 = # of size 3 clusters
       0 = # of size 4 clusters
      60 = # of frozen angles
  find clusters CPU = 0.000 seconds

timestep        1.0
dump            traj all custom 1000 iter.lammpstrj id mol type q x y z
dump_modify     traj sort id

# ---------------------------------------------------------------- relax -------
# The newly inserted waters were placed in geometric voids, which is not the same
# as an energetically relaxed position. A short NVE/limit run absorbs the initial
# strain without letting any atom move far enough to cross a chain.
fix             nve_settle all nve/limit 0.05
fix             temp_settle all temp/rescale 10 300.0 300.0 10.0 1.0
run             5000
PPPM initialization ...
  using 12-bit tables for long-range coulomb
  G vector (1/distance) = 0.23793468
  grid = 15 15 15
  stencil order = 5
  estimated absolute RMS force accuracy = 0.019887997
  estimated relative force accuracy = 5.9892111e-05
  using double precision FFTW3
  3d grid and FFT values/proc = 8000 3375
Generated 36 of 36 mixed pair_coeff terms from arithmetic mixing rule
WARNING: Should not use fix nve/limit with fix shake or fix rattle (src/fix_nve_limit.cpp:76)
Neighbor list info ...
  update: every = 1 steps, delay = 0 steps, check = yes
  max neighbors/atom: 2000, page size: 100000
  master list distance cutoff = 12
  ghost atom cutoff = 12
  binsize = 6, bins = 7 7 7
  1 neighbor lists, perpetual/occasional/extra = 1 0 0
  (1) pair lj/cut/coul/long, perpetual
      attributes: half, newton on
      pair build: half/bin/newton
      stencil: half/bin/3d
      bin: standard
Per MPI rank memory allocation (min/avg/max) = 51.33 | 51.33 | 51.33 Mbytes
   Step          Temp          Press          Volume        Density         TotEng         KinEng         PotEng         E_bond        E_angle        E_dihed         E_vdwl         E_coul         E_long    
         0   0             -4105.9813      58860.605      0.99297819    -1778.2084      0             -1778.2084      1723.2934      2390.3374      1496.2437     -1129.3028      8722.6422     -15018.643    
       500   304.17818      1133.1066      58860.605      0.99297819     2895.0442      4808.2163     -1913.1721      1572.1305      2418.6611      1557.2072     -1155.9349      8681.6615     -15027.293    
      1000   290.73146     -184.42097      58860.605      0.99297819     2565.7033      4595.6607     -2029.9574      1545.1158      2330.0495      1534.7224     -1102.4811      8662.6786     -15038.441    
      1500   300            2118.7096      58860.605      0.99297819     2698.3894      4742.1707     -2043.7813      1526.2929      2287.9886      1516.2588     -1045.5741      8646.8826     -15012.094    
      2000   293.49541      1333.0853      58860.605      0.99297819     2616.6309      4639.3511     -2022.7202      1487.3037      2284.1183      1550.969      -995.32576      8622.4335     -15008.685    
      2500   291.25464      441.78647      58860.605      0.99297819     2684.7608      4603.9308     -1919.17        1511.817       2272.7274      1572.5964     -993.80113      8693.8658     -15013.317    
      3000   290.06395      1575.1743      58860.605      0.99297819     2561.9292      4585.1092     -2023.18        1499.1279      2197.0621      1566.5355     -935.28985      8618.8518     -15007.571    
      3500   297.39105      1662.6442      58860.605      0.99297819     2719.896       4700.9304     -1981.0344      1412.9735      2231.7013      1601.1345     -935.88891      8682.7093     -15008.941    
      4000   292.24916      837.07088      58860.605      0.99297819     2672.2346      4619.6513     -1947.4167      1488.9581      2226.6008      1608.0897     -969.24485      8673.7588     -15013.492    
      4500   300            1576.8518      58860.605      0.99297819     2760.5654      4742.1707     -1981.6053      1455.4997      2228.567       1576.1749     -932.4167       8662.6679     -15006.224    
      5000   293.78757      2615.7453      58860.605      0.99297819     2653.176       4643.9694     -1990.7934      1421.1192      2181.6575      1613.4513     -915.08508      8676.7585     -15007.739    
Loop time of 95.6326 on 1 procs for 5000 steps with 5364 atoms

Performance: 4.517 ns/day, 5.313 hours/ns, 52.283 timesteps/s, 280.448 katom-step/s
99.8% CPU use with 1 MPI tasks x 1 OpenMP threads

MPI task timing breakdown:
Section |  min time  |  avg time  |  max time  |%varavg| %total
---------------------------------------------------------------
Pair    | 75.936     | 75.936     | 75.936     |   0.0 | 79.40
Bond    | 3.6613     | 3.6613     | 3.6613     |   0.0 |  3.83
Kspace  | 6.8895     | 6.8895     | 6.8895     |   0.0 |  7.20
Neigh   | 8.3857     | 8.3857     | 8.3857     |   0.0 |  8.77
Comm    | 0.28373    | 0.28373    | 0.28373    |   0.0 |  0.30
Output  | 0.024419   | 0.024419   | 0.024419   |   0.0 |  0.03
Modify  | 0.3947     | 0.3947     | 0.3947     |   0.0 |  0.41
Other   |            | 0.05693    |            |       |  0.06

Nlocal:           5364 ave        5364 max        5364 min
Histogram: 1 0 0 0 0 0 0 0 0 0
Nghost:          17927 ave       17927 max       17927 min
Histogram: 1 0 0 0 0 0 0 0 0 0
Neighs:     1.8093e+06 ave  1.8093e+06 max  1.8093e+06 min
Histogram: 1 0 0 0 0 0 0 0 0 0

Total # of neighbors = 1809304
Ave neighs/atom = 337.305
Ave special neighs/atom = 10.829232
Neighbor list builds = 204
Dangerous builds = 0
unfix           nve_settle
unfix           temp_settle

min_style       cg
minimize        1e-06 1e-06 20000 200000
PPPM initialization ...
  using 12-bit tables for long-range coulomb
  G vector (1/distance) = 0.23793468
  grid = 15 15 15
  stencil order = 5
  estimated absolute RMS force accuracy = 0.019887997
  estimated relative force accuracy = 5.9892111e-05
  using double precision FFTW3
  3d grid and FFT values/proc = 8000 3375
Generated 36 of 36 mixed pair_coeff terms from arithmetic mixing rule
WARNING: Using fix shake with minimization.
  Substituting constraints with harmonic restraint forces using kbond=1987206.7 (src/RIGID/fix_shake.cpp:385)
Per MPI rank memory allocation (min/avg/max) = 55.72 | 55.72 | 55.72 Mbytes
   Step          Temp          Press          Volume        Density         TotEng         KinEng         PotEng         E_bond        E_angle        E_dihed         E_vdwl         E_coul         E_long    
      5000   293.78757      3337.7286      58860.605      0.99297819     2653.176       4643.9694     -1990.7933      1421.1192      2181.6575      1613.4513     -915.08508      8676.7585     -15007.739    
      5079   293.78757      3783.6612      58860.605      0.99297819     1214.4142      4643.9694     -3429.5552      582.78338      1738.6426      1523.3209     -969.68184      8673.4587     -15008.933    
Loop time of 10.2082 on 1 procs for 79 steps with 5364 atoms

99.8% CPU use with 1 MPI tasks x 1 OpenMP threads

Minimization stats:
  Stopping criterion = energy tolerance
  Energy initial, next-to-last, final = 
     -1990.79334824012  -3429.55254516536  -3429.55515100002
  Force two-norm initial, final = 2151.063 3736.1062
  Force max component initial, final = 83.385669 526.07769
  Final line search alpha, max atom move = 1.1873944e-05 0.0062466172
  Iterations, force evaluations = 79 428

MPI task timing breakdown:
Section |  min time  |  avg time  |  max time  |%varavg| %total
---------------------------------------------------------------
Pair    | 9.2268     | 9.2268     | 9.2268     |   0.0 | 90.39
Bond    | 0.33038    | 0.33038    | 0.33038    |   0.0 |  3.24
Kspace  | 0.59486    | 0.59486    | 0.59486    |   0.0 |  5.83
Neigh   | 0          | 0          | 0          |   0.0 |  0.00
Comm    | 0.020971   | 0.020971   | 0.020971   |   0.0 |  0.21
Output  | 0          | 0          | 0          |   0.0 |  0.00
Modify  | 0.010111   | 0.010111   | 0.010111   |   0.0 |  0.10
Other   |            | 0.02514    |            |       |  0.25

Nlocal:           5364 ave        5364 max        5364 min
Histogram: 1 0 0 0 0 0 0 0 0 0
Nghost:          17923 ave       17923 max       17923 min
Histogram: 1 0 0 0 0 0 0 0 0 0
Neighs:    1.80933e+06 ave 1.80933e+06 max 1.80933e+06 min
Histogram: 1 0 0 0 0 0 0 0 0 0

Total # of neighbors = 1809330
Ave neighs/atom = 337.30984
Ave special neighs/atom = 10.829232
Neighbor list builds = 0
Dangerous builds = 0

# ---------------------------------------------------------------- NPT ---------
# Swelling is the point: the box must be free to expand as water goes in, so the
# uptake is measured at constant pressure, not constant volume.
fix             npt_swell all npt temp 300.0 300.0 100.0 iso 1.0 1.0 1000.0
run             25000
PPPM initialization ...
  using 12-bit tables for long-range coulomb
  G vector (1/distance) = 0.23793468
  grid = 15 15 15
  stencil order = 5
  estimated absolute RMS force accuracy = 0.019887997
  estimated relative force accuracy = 5.9892111e-05
  using double precision FFTW3
  3d grid and FFT values/proc = 8000 3375
Generated 36 of 36 mixed pair_coeff terms from arithmetic mixing rule
Per MPI rank memory allocation (min/avg/max) = 53.47 | 53.47 | 53.47 Mbytes
   Step          Temp          Press          Volume        Density         TotEng         KinEng         PotEng         E_bond        E_angle        E_dihed         E_vdwl         E_coul         E_long    
      5079   293.78757      3888.8005      58860.605      0.99297819     1211.6599      4643.9694     -3432.3095      582.78338      1738.6426      1523.3209     -969.68184      8673.4587     -15008.933    
      5500   294.63259     -1369.2587      60645.189      0.96375817     2700.732       4657.3267     -1956.5948      1262.0104      2254.4777      1649.1644     -971.35487      8798.1293     -14984.509    
      6000   296.16747     -854.68097      61664.047      0.94783427     2833.1582      4681.589      -1848.4308      1369.9469      2237.4156      1635.6292     -925.32322      8800.4446     -15000.503    
      6500   296.6704       304.06521      61700.877      0.94726849     2983.6838      4689.5389     -1705.8551      1338.9572      2290.3939      1673.9954     -896.45552      8835.0103     -14985.623    
      7000   300.61058     -1195.2404      60905.847      0.9596336      2981.0424      4751.8222     -1770.7798      1472.9763      2315.6957      1658.9297     -959.86951      8708.0809     -15002.227    
      7500   298.95676     -361.17359      60823.58       0.96093155     2970.6804      4725.68       -1754.9996      1435.7319      2310.8123      1642.4765     -964.61972      8783.7991     -15001.734    
      8000   300.96913     -214.51267      60351.309      0.9684512      2899.8063      4757.49       -1857.6837      1461.9462      2293.6828      1610.0976     -979.47284      8707.1136     -14986.936    
      8500   300.45654     -607.60947      60506.047      0.96597447     2855.0585      4749.3874     -1894.3289      1480.1028      2317.4725      1555.7435     -1069.335       8790.1158     -15001.292    
      9000   297.18606     -3.9965304      60112.879      0.97229243     2759.7792      4697.6901     -1937.9108      1482.5651      2293.3626      1561.2046     -962.23498      8658.3457     -15006.096    
      9500   297.17555     -1029.256       60970.189      0.9586209      2743.8225      4697.5239     -1953.7014      1504.1512      2273.1082      1551.504      -1029.7436      8706.2909     -14993.279    
     10000   300.56342      504.80711      60233.898      0.97033895     2808.7464      4751.0768     -1942.3303      1481.4454      2323.2556      1567.1423     -967.47962      8626.4053     -15009.268    
     10500   298.47013      211.87269      59549.548      0.98149018     2843.8125      4717.9877     -1874.1752      1559.5261      2348.9529      1595.2647     -1036.367       8622.5461     -15004.652    
     11000   305.37496     -1195.9538      59623.79       0.98026806     2928.2229      4827.134      -1898.9111      1652.5219      2285.8867      1561.8712     -1035.2889      8607.8587     -15006.101    
     11500   306.2323       1007.795       59469.397      0.98281301     2906.6446      4840.6862     -1934.0416      1562.4708      2378.311       1539.6001     -1032.8129      8593.2345     -15008.59     
     12000   299.03056     -592.4248       59606.821      0.98054712     2792.9012      4726.8466     -1933.9453      1581.9855      2388.4563      1541.3621     -1063.6364      8583.4849     -15001.495    
     12500   295.65797     -1083.5993      59520.386      0.98197107     2719.3107      4673.5353     -1954.2246      1608.287       2367.8812      1544.7323     -1063.6903      8565.5899     -15012.951    
     13000   298.88998      488.92565      59299.135      0.9856349      2750.6326      4724.6243     -1973.9918      1581.5861      2374.6667      1541.1715     -1055.8083      8572.5052     -15025.004    
     13500   300.90614      24.331974      59816.318      0.97711291     2858.6766      4756.4942     -1897.8176      1627.155       2373.6296      1545.5479     -1028.1064      8558.6186     -15012.044    
     14000   297.4691       28.554955      59894.34       0.97584008     2765.9192      4702.1641     -1936.2449      1611.4352      2426.6281      1532.6583     -1107.2084      8577.6157     -15013.369    
     14500   294.39356      69.546575      59563.75       0.98125617     2708.6381      4653.5485     -1944.9104      1640.3482      2412.2978      1560.974      -1105.8859      8523.291      -15012.268    
     15000   294.26606      313.93191      60075.985      0.97288953     2689.5329      4651.5329     -1962.0001      1645.068       2342.0886      1524.6294     -1020.7738      8532.8621     -15022.403    
     15500   301.13521      744.1129       59403.158      0.98390891     2715.7614      4760.1152     -2044.3538      1615.9705      2371.5378      1519.4177     -1026.1127      8454.8135     -15017.019    
     16000   303.9804      -465.7732       59083.008      0.98924038     2772.7348      4805.0898     -2032.355       1679.4093      2367.7725      1497.5343     -1048.1169      8445.5115     -15009.55     
     16500   301.50141      180.61066      59197.946      0.98731967     2798.8011      4765.9038     -1967.1027      1685.7358      2449.3379      1473.4014     -1040.3188      8446.1044     -15013.4      
     17000   302.71207      750.11977      59186.065      0.98751787     2756.6517      4785.041      -2028.3893      1616.5013      2378.3911      1529.6597     -1037.6259      8459.3693     -15011.063    
     17500   297.49891     -195.60256      59323.968      0.98522232     2730.087       4702.6354     -1972.5484      1681.9146      2371.5677      1558.4364     -1053.4896      8445.9643     -15014.721    
     18000   298.69384     -437.23154      59069.94       0.98945922     2642.4592      4721.5239     -2079.0648      1655.6258      2377.7369      1527.7029     -1100.0749      8446.8077     -15022.168    
     18500   294.30099     -894.06482      59435.48       0.98337385     2711.8003      4652.0851     -1940.2848      1711.6377      2411.4579      1531.911      -1047.5187      8427.4914     -15012.124    
     19000   299.77888      393.82446      59192.935      0.98740326     2793.5421      4738.6754     -1945.1333      1700.7942      2450.8419      1516.7495     -1076.5143      8443.6884     -15017.364    
     19500   299.7917       558.1103       59588.44       0.98084959     2839.7915      4738.8781     -1899.0866      1687.4351      2484.3099      1513.2056     -1067.3283      8460.278      -15010.884    
     20000   306.22531      494.10663      59387.89       0.98416187     2753.3894      4840.5756     -2087.1862      1628.6658      2356.5585      1513.7578     -1075.9028      8466.584      -15013.47     
     20500   301.58769      96.112653      58823.522      0.99360417     2687.9392      4767.2677     -2079.3284      1668.1984      2399.6641      1559.3031     -1147.599       8427.6408     -15025.96     
     21000   298.67233     -215.11707      59043.897      0.98989565     2655.1387      4721.184      -2066.0453      1692.2701      2361.2262      1516.2368     -1082.7853      8427.564      -15017.103    
     21500   307.06403      1049.1612      58759.603      0.99468502     2787.909       4853.8335     -2065.9245      1680.3003      2333.9616      1525.7639     -1072.4474      8433.7764     -15004.669    
     22000   304.09617     -273.69749      59181.749      0.98758989     2809.741       4806.9199     -1997.1789      1689.7645      2367.5035      1572.9014     -1105.3424      8448.0533     -15011.087    
     22500   302.7166      -604.03022      59236.79       0.98667225     2764.0428      4785.1126     -2021.0699      1734.9708      2342.4551      1504.8064     -1072.7137      8458.6981     -15024.563    
     23000   304.17963     -58.205223      58760.913      0.99466284     2710.5053      4808.2391     -2097.7337      1669.2616      2393.2209      1507.2356     -1093.2339      8405.9892     -15013.582    
     23500   298.93017      113.61151      59030.647      0.99011784     2676.0826      4725.2597     -2049.1771      1696.0676      2376.7789      1527.4672     -1093.5008      8422.3187     -15018.008    
     24000   305.65905     -90.168714      59268.024      0.98615229     2774.6248      4831.6247     -2056.9999      1673.664       2405.0004      1484.6305     -1088.0596      8460.7514     -15029.764    
     24500   304.355       -1667.0491      59596.285      0.98072047     2860.7192      4811.0112     -1950.292       1786.6531      2371.6125      1524.5207     -1115.2679      8457.0924     -15011.186    
     25000   295.28476     -587.98408      58885.438      0.99255944     2638.0413      4667.6358     -2029.5945      1679.794       2437.896       1531.3946     -1107.0594      8417.5333     -15024.534    
     25500   298.23152      442.18541      59254.572      0.98637616     2691.6259      4714.2159     -2022.59        1707.154       2372.8577      1524.7897     -1077.7351      8437.9954     -15021.844    
     26000   301.66931      182.79727      58885.656      0.99255577     2671.8143      4768.5579     -2096.7435      1736.2641      2298.1091      1532.0045     -1109.6096      8432.543      -15024.389    
     26500   296.63806     -1081.4712      59156.625      0.98800933     2647.2718      4689.0278     -2041.756       1717.6911      2369.3613      1535.1026     -1153.4014      8465.0809     -15009.644    
     27000   300.72085      527.26642      58886.967      0.99253366     2709.8742      4753.5653     -2043.6912      1675.8759      2450.2511      1505.2934     -1137.0287      8443.6442     -15016.463    
     27500   303.1258      -1228.8071      59658.488      0.97969793     2814.6854      4791.581      -1976.8956      1761.1322      2420.3341      1517.7455     -1092.4987      8401.2784     -15021.749    
     28000   299.18466     -111.99104      58842.041      0.99329146     2671.374       4729.2825     -2057.9085      1681.5413      2417.3671      1507.8575     -1067.2672      8384.695      -15018.997    
     28500   300.86062      14.024761      58928.668      0.9918313      2687.176       4755.7748     -2068.5988      1691.0699      2374.2507      1533.756      -1106.4044      8429.325      -15025.828    
     29000   305.6355       840.62027      59322.303      0.98524997     2728.9921      4831.2524     -2102.2604      1711.1522      2319.1295      1499.6491     -1073.2269      8432.1527     -15025.527    
     29500   298.99449     -524.7707       59350.113      0.98478831     2638.687       4726.2764     -2087.5894      1699.6687      2357.885       1518.9602     -1110.0511      8425.2367     -15018.72     
     30000   294.07167      806.53775      58975.42       0.99104503     2624.8471      4648.4603     -2023.6132      1718.5889      2407.5411      1478.6965     -1072.058       8429.5594     -15018.564    
     30079   300.44509      892.53018      58957.432      0.9913474      2619.514       4749.2064     -2129.6924      1691.7854      2328.0177      1483.8129     -1075.4655      8423.0125     -15016.471    
Loop time of 489.715 on 1 procs for 25000 steps with 5364 atoms

Performance: 4.411 ns/day, 5.441 hours/ns, 51.050 timesteps/s, 273.833 katom-step/s
99.7% CPU use with 1 MPI tasks x 1 OpenMP threads

MPI task timing breakdown:
Section |  min time  |  avg time  |  max time  |%varavg| %total
---------------------------------------------------------------
Pair    | 383.1      | 383.1      | 383.1      |   0.0 | 78.23
Bond    | 20.94      | 20.94      | 20.94      |   0.0 |  4.28
Kspace  | 34.693     | 34.693     | 34.693     |   0.0 |  7.08
Neigh   | 41.785     | 41.785     | 41.785     |   0.0 |  8.53
Comm    | 1.3934     | 1.3934     | 1.3934     |   0.0 |  0.28
Output  | 0.12705    | 0.12705    | 0.12705    |   0.0 |  0.03
Modify  | 7.4148     | 7.4148     | 7.4148     |   0.0 |  1.51
Other   |            | 0.2632     |            |       |  0.05

Nlocal:           5364 ave        5364 max        5364 min
Histogram: 1 0 0 0 0 0 0 0 0 0
Nghost:          17413 ave       17413 max       17413 min
Histogram: 1 0 0 0 0 0 0 0 0 0
Neighs:    1.81846e+06 ave 1.81846e+06 max 1.81846e+06 min
Histogram: 1 0 0 0 0 0 0 0 0 0

Total # of neighbors = 1818464
Ave neighs/atom = 339.01268
Ave special neighs/atom = 10.829232
Neighbor list builds = 1009
Dangerous builds = 0

variable        dens equal density
variable        vol_ equal vol
fix             avg all ave/time 500 10 5000 v_dens v_vol_ file density.dat
run             25000
PPPM initialization ...
  using 12-bit tables for long-range coulomb
  G vector (1/distance) = 0.23788472
  grid = 15 15 15
  stencil order = 5
  estimated absolute RMS force accuracy = 0.019918956
  estimated relative force accuracy = 5.9985346e-05
  using double precision FFTW3
  3d grid and FFT values/proc = 8000 3375
Generated 36 of 36 mixed pair_coeff terms from arithmetic mixing rule
Per MPI rank memory allocation (min/avg/max) = 53.47 | 53.47 | 53.47 Mbytes
   Step          Temp          Press          Volume        Density         TotEng         KinEng         PotEng         E_bond        E_angle        E_dihed         E_vdwl         E_coul         E_long    
     30079   300.44509      892.71502      58957.432      0.9913474      2619.5206      4749.2064     -2129.6858      1691.7854      2328.0177      1483.8129     -1075.4655      8420.0392     -15013.491    
     30500   299.44582     -718.9606       59252.217      0.98641536     2705.411       4733.4106     -2027.9996      1741.4141      2385.5955      1487.8495     -1112.5043      8458.0551     -15021.997    
     31000   300.31865     -567.74829      58926.739      0.99186376     2713.4198      4747.2077     -2033.7879      1756.2315      2401.1452      1506.8117     -1124.0238      8401.6884     -15013.684    
     31500   305.36946     -1503.8699      58989.235      0.99081294     2784.868       4827.047      -2042.179       1797.1215      2353.839       1499.1126     -1127.8826      8421.9176     -15019.766    
     32000   298.65338     -1375.3108      58711.259      0.99550406     2716.9942      4720.8844     -2003.8901      1749.032       2442.6529      1508.6399     -1110.2678      8383.698      -15014.399    
     32500   302.62508     -1288.3973      59081.098      0.98927235     2733.3498      4783.666      -2050.3162      1711.9138      2389.6221      1512.0827     -1068.5582      8386.4489     -15015.906    
     33000   305.07195      961.96995      59353.996      0.98472388     2804.5797      4822.3442     -2017.7645      1673.3689      2447.0883      1477.6748     -1066.2896      8435.4762     -15021.4      
     33500   297.84523     -64.085712      59047.078      0.98984232     2662.3292      4708.1097     -2045.7806      1750.9886      2371.8626      1511.0373     -1125.3067      8443.057      -15032.995    
     34000   296.93364     -437.41482      59130.862      0.98843979     2676.2541      4693.7        -2017.4459      1788.7423      2405.6503      1498.4366     -1145.0866      8416.966      -15017.153    
     34500   303.38527     -970.46774      58702.036      0.99566046     2733.452       4795.6825     -2062.2305      1784.9887      2350.9737      1521.1094     -1100.8926      8371.7503     -15025.044    
     35000   297.6401       764.79641      58958.121      0.99133581     2718.9479      4704.8672     -1985.9193      1742.5472      2436.0619      1502.9962     -1091.6039      8397.417      -15009.433    
     35500   301.69042      368.73372      58937.896      0.99167599     2783.8964      4768.8916     -1984.9952      1758.6433      2409.5068      1527.0933     -1066.5378      8386.8462     -15037.236    
     36000   295.95898      224.09496      58786.399      0.99423162     2679.4875      4678.2934     -1998.8059      1760.4095      2360.1633      1503.2964     -1041.8609      8406.1727     -15021.592    
     36500   302.20009     -340.14527      58983.434      0.99091038     2691.6421      4776.9481     -2085.306       1714.1888      2389.7058      1493.3411     -1120.7188      8417.9942     -15014.836    
     37000   308.59693     -773.2531       58881.904      0.992619       2756.758       4878.0645     -2121.3065      1741.5165      2343.9661      1489.7715     -1130.3482      8418.3336     -15018.528    
     37500   301.97401     -1018.509       59376.722      0.98434699     2771.5529      4773.3743     -2001.8214      1787.6296      2428.2053      1495.1731     -1134.7549      8408.5479     -15019.437    
     38000   304.49484      1033.3813      58647.408      0.99658789     2734.2614      4813.2217     -2078.9603      1685.1701      2405.6188      1524.0362     -1063.3617      8348.6563     -15017.005    
     38500   302.60356      6.5539975      58884.249      0.99257948     2706.6581      4783.3258     -2076.6677      1708.7711      2424.1488      1478.4985     -1078.2083      8372.0699     -15016.891    
     39000   299.33243      375.48967      58965.233      0.99121624     2610.7455      4731.6182     -2120.8727      1710.9923      2372.6431      1484.6696     -1102.7356      8406.7627     -15025.614    
     39500   298.72713     -235.69056      59278.195      0.98598308     2697.4409      4722.0501     -2024.6092      1732.0585      2371.912       1531.0451     -1107.6058      8431.3797     -15020.382    
     40000   303.29402     -2.2689886      59305.047      0.98553664     2655.5944      4794.24       -2138.6456      1718.8226      2308.346       1509.7347     -1155.0681      8457.0671     -15016.195    
     40500   299.44587      1210.3067      59228.197      0.9868154      2666.2534      4733.4115     -2067.1581      1745.4491      2388.6941      1504.3918     -1118.7794      8414.1827     -15036.157    
     41000   301.23596     -333.51026      59080.699      0.98927903     2640.6262      4761.7078     -2121.0816      1731.9605      2346.3237      1522.3064     -1126.8874      8396.4355     -15027.629    
     41500   303.68402     -692.56637      59154.187      0.98805005     2742.2553      4800.4049     -2058.1496      1733.4684      2393.1308      1504.4858     -1164.5783      8460.1154     -15019.927    
     42000   302.6456      -1087.1349      58886.185      0.99254685     2755.9426      4783.9904     -2028.0478      1725.5578      2434.4343      1504.8878     -1102.1218      8396.6785     -15025.887    
     42500   296.63844      643.0767       58855.754      0.99306003     2629.4554      4689.0337     -2059.5783      1723.3787      2387.9445      1497.2629     -1078.1457      8390.3623     -15017.674    
     43000   293.65924      507.54172      58712.244      0.99548737     2544.9209      4641.9407     -2097.0199      1692.0765      2383.9252      1512.6596     -1108.7117      8412.2845     -15023.725    
     43500   301.04923      527.13326      58912.38       0.99210552     2637.6614      4758.7561     -2121.0947      1750.6848      2363.9442      1479.892      -1140.5589      8406.5134     -15018.672    
     44000   300.37421     -47.529881      58803.161      0.99394822     2722.9303      4748.086      -2025.1557      1710.9303      2404.3517      1538.6477     -1147.1734      8452.8945     -15022.382    
     44500   306.37878     -1522.8076      58903.439      0.99225611     2714.0112      4843.0016     -2128.9904      1737.5327      2361.5539      1504.0486     -1162.3367      8416.7623     -15021.938    
     45000   298.86818      228.00343      58840.576      0.99331619     2645.7853      4724.2798     -2078.4945      1731.8496      2424.5776      1501.5623     -1140.3674      8377.1075     -15010.922    
     45500   296.0136      -84.062355      58857.197      0.99303568     2628.3605      4679.1567     -2050.7962      1745.0801      2410.4413      1496.6492     -1109.305       8398.3285     -15025.506    
     46000   296.19413      601.48642      58717.05       0.99540588     2670.4311      4682.0103     -2011.5792      1723.0093      2405.711       1501.0583     -1056.7483      8397.7724     -15016.702    
     46500   302.62676      499.11244      59131.196      0.98843422     2705.7544      4783.6926     -2077.9382      1715.9794      2391.8644      1489.853      -1136.2676      8444.1767     -15017.873    
     47000   294.50742     -839.30993      58566.117      0.99797118     2526.3087      4655.3482     -2129.0395      1717.8421      2376.8977      1481.4993     -1098.3373      8375.1103     -15017.343    
     47500   299.25711      144.36583      58680.071      0.99603316     2569.8216      4730.4277     -2160.6061      1714.3288      2363.6657      1493.3618     -1133.0094      8382.1918     -15015.921    
     48000   297.92196      854.13165      58815.155      0.99374553     2612.4785      4709.3226     -2096.8442      1725.6801      2342.8465      1530.1356     -1065.3409      8355.0698     -15021.917    
     48500   300.46659      996.84507      58825.224      0.99357543     2669.4366      4749.5462     -2080.1096      1704.7558      2396.6094      1510.2507     -1080.2198      8374.053      -15022.736    
     49000   298.82049     -1223.4151      58937.838      0.99167698     2585.3355      4723.5259     -2138.1904      1767.5801      2344.9574      1481.8669     -1107.7507      8362.6461     -15021.254    
     49500   297.00848     -1611.6539      58940.074      0.99163935     2558.1072      4694.883      -2136.7758      1738.0857      2347.5862      1509.7406     -1145.746       8389.4937     -15012.598    
     50000   294.88901      420.33655      58519.086      0.99877323     2556.6471      4661.3801     -2104.733       1723.9811      2409.7518      1504.8725     -1086.0537      8333.3393     -15024.773    
     50500   297.92069      1695.7895      58714.872      0.99544281     2737.6084      4709.3025     -1971.6942      1732.1426      2478.5541      1487.254      -1073.0417      8399.7834     -15032.091    
     51000   305.03556      411.52057      59104.292      0.98888414     2771.7613      4821.769      -2050.0077      1699.9813      2449.5846      1489.4977     -1066.0019      8354.9112     -15013.983    
     51500   300.94948     -1011.2582      59211.658      0.98709104     2629.6329      4757.1794     -2127.5465      1749.3594      2305.9758      1546.2263     -1140.2585      8394.022      -15019.536    
     52000   298.95233     -532.09818      58497.68       0.99913872     2589.9235      4725.61       -2135.6865      1709.8565      2373.164       1517.3478     -1083.0934      8328.2135     -15015.974    
     52500   298.25662      350.4233       59314.584      0.98537818     2735.1454      4714.6128     -1979.4673      1733.5079      2462.9857      1488.921      -1068.5863      8384.6569     -15017.853    
     53000   298.82886     -204.28035      59118.424      0.98864775     2593.4193      4723.6583     -2130.239       1753.8764      2368.2176      1464.8709     -1091.2542      8377.1555     -15036.776    
     53500   295.35758     -245.07705      59040.251      0.98995678     2659.4316      4668.7868     -2009.3552      1769.4403      2418.0986      1520.4064     -1091.9965      8358.6435     -15021.995    
     54000   298.50039      388.10516      58750          0.99484761     2651.5613      4718.466      -2066.9047      1763.3127      2354.1247      1522.7157     -1101.1413      8368.6563     -15010.978    
     54500   294.39679     -2044.3517      59094.336      0.98905075     2526.4672      4653.5995     -2127.1323      1748.6193      2362.0913      1492.4939     -1115.8121      8371.0721     -15020.257    
     55000   298.09506      336.47857      59106.586      0.98884575     2602.887       4712.0589     -2109.172       1679.8751      2399.1713      1477.8374     -1046.4638      8369.432      -15024.325    
     55079   295.10232     -1014.3169      59208.089      0.98715054     2554.0241      4664.752      -2110.7278      1773.8218      2387.1002      1456.3483     -1163.8554      8417.4754     -15014.217    
Loop time of 489.264 on 1 procs for 25000 steps with 5364 atoms

Performance: 4.415 ns/day, 5.436 hours/ns, 51.097 timesteps/s, 274.085 katom-step/s
99.7% CPU use with 1 MPI tasks x 1 OpenMP threads

MPI task timing breakdown:
Section |  min time  |  avg time  |  max time  |%varavg| %total
---------------------------------------------------------------
Pair    | 386.25     | 386.25     | 386.25     |   0.0 | 78.94
Bond    | 20.989     | 20.989     | 20.989     |   0.0 |  4.29
Kspace  | 34.793     | 34.793     | 34.793     |   0.0 |  7.11
Neigh   | 38.028     | 38.028     | 38.028     |   0.0 |  7.77
Comm    | 1.3651     | 1.3651     | 1.3651     |   0.0 |  0.28
Output  | 0.13744    | 0.13744    | 0.13744    |   0.0 |  0.03
Modify  | 7.444      | 7.444      | 7.444      |   0.0 |  1.52
Other   |            | 0.2619     |            |       |  0.05

Nlocal:           5364 ave        5364 max        5364 min
Histogram: 1 0 0 0 0 0 0 0 0 0
Nghost:          16918 ave       16918 max       16918 min
Histogram: 1 0 0 0 0 0 0 0 0 0
Neighs:    1.81274e+06 ave 1.81274e+06 max 1.81274e+06 min
Histogram: 1 0 0 0 0 0 0 0 0 0

Total # of neighbors = 1812745
Ave neighs/atom = 337.9465
Ave special neighs/atom = 10.829232
Neighbor list builds = 916
Dangerous builds = 0

# ------------------------------------------------------------- chemical pot ---
# Widom insertion of a test water into the swollen membrane, to be compared with
# the same quantity in bulk water. The comparison is only meaningful if both
# sides use identical cutoff, kspace accuracy and water model -- see bulk.in.j2.
#
# The test particle is inserted but never kept, so this measures the free energy
# the *next* water would pay, which is exactly the saturation question.
molecule        h2o h2o.mol
Read molecule template h2o:
# Rigid water for Widom test insertions.
  1 molecules
  0 fragments
  0 bodies
  3 atoms with max type 9
  2 bonds with max type 8
  1 angles with max type 14
  0 dihedrals with max type 0
  0 impropers with max type 0
fix             w all widom 100 400 0 87233 300.0 mol h2o full_energy
WARNING: Molecule attributes do not match system attributes
For more information see https://docs.lammps.org/err0026 (src/molecule.cpp:3637)
variable        muex equal f_w[1]
variable        boltz equal f_w[2]
variable        wvol equal f_w[3]
fix             muavg all ave/time 100 100 10000 v_muex v_boltz v_wvol file mu.dat
run             50000
PPPM initialization ...
  using 12-bit tables for long-range coulomb
  G vector (1/distance) = 0.23775574
  grid = 15 15 15
  stencil order = 5
  estimated absolute RMS force accuracy = 0.019999068
  estimated relative force accuracy = 6.0226599e-05
  using double precision FFTW3
  3d grid and FFT values/proc = 8000 3375
Generated 36 of 36 mixed pair_coeff terms from arithmetic mixing rule
0 atoms in group FixWidom:widom_exclusion_group:w
0 atoms in group FixWidom:rotation_gas_atoms:w
WARNING: Neighbor exclusions used with KSpace solver may give inconsistent Coulombic energies (src/neighbor.cpp:671)
Per MPI rank memory allocation (min/avg/max) = 53.47 | 53.47 | 53.47 Mbytes
   Step          Temp          Press          Volume        Density         TotEng         KinEng         PotEng         E_bond        E_angle        E_dihed         E_vdwl         E_coul         E_long    
     55079   295.10232     -1013.5735      59208.089      0.98715054     2554.0388      4664.752      -2110.7132      1773.8218      2387.1002      1456.3483     -1163.8554      8409.7962     -15006.523    
     55500   301.18174      553.00085      59190.736      0.98743995     2678.375       4760.8508     -2082.4758      1709.2921      2409.1214      1469.164      -1079.2039      8388.8935     -15014.676    
     56000   301.73003      320.5824       59572.152      0.98111777     2736.2588      4769.5177     -2033.259       1714.9171      2431.4587      1511.9978     -1099.8103      8381.1711     -15009.479    
     56500   304.48032      411.41152      58958.629      0.99132727     2777.4351      4812.9921     -2035.557       1759.0855      2346.8553      1540.3144     -1031.3087      8322.2558     -15008.357    
     57000   307.74087     -720.74883      59260.043      0.9862851      2851.3641      4864.5324     -2013.1683      1735.0145      2448.4375      1507.9369     -1113.011       8389.0815     -15018.47     
     57500   298.97883      673.82653      59150.457      0.98811235     2626.6556      4726.0288     -2099.3732      1714.2496      2369.8854      1515.8582     -1096.5499      8372.8602     -15013.443    
     58000   303.03931      704.44064      58993.07       0.99074853     2649.2106      4790.2137     -2141.0031      1707.086       2344.9406      1482.8711     -1097.9856      8393.2769     -15005.181    
     58500   302.29516     -1467.836       58997.104      0.99068078     2690.2521      4778.4508     -2088.1988      1792.7989      2399.4631      1486.036      -1175.1724      8384.7516     -15012.311    
     59000   305.30725     -1613.561       59188.252      0.98748138     2879.7151      4826.0637     -1946.3486      1835.8875      2457.2357      1499.3486     -1154.3235      8399.5073     -15021.269    
     59500   299.33243      496.26679      58850.403      0.99315033     2605.9154      4731.6183     -2125.7029      1712.5253      2358.9665      1514.3463     -1071.6438      8334.3343     -15010.413    
     60000   301.41647      161.8172       59280.191      0.98594988     2574.9327      4764.5612     -2189.6285      1695.811       2387.6101      1453.3071     -1135.3367      8386.9239     -15012.263    
     60500   296.09636      61.236349      58728.726      0.99520799     2532.1472      4680.465      -2148.3178      1709.4229      2411.3595      1497.2794     -1125.8703      8347.6258     -15023.97     
     61000   296.64962      559.93939      58652.843      0.99649554     2613.1302      4689.2104     -2076.0802      1738.4646      2367.0412      1506.0275     -1067.0819      8362.1426     -15017.768    
     61500   305.82102     -337.68491      59020.06       0.99029546     2719.0546      4834.1849     -2115.1303      1733.2119      2369.0616      1518.4029     -1123.0015      8369.7528     -15018.54     
     62000   298.89957      813.16303      58980.822      0.99095426     2638.0502      4724.7759     -2086.7257      1778.2439      2366.8093      1502.5829     -1083.7291      8336.4887     -15024.953    
     62500   297.6392       990.54951      58875.034      0.99273483     2609.3794      4704.8529     -2095.4735      1776.5271      2440.3796      1478.0661     -1123.4893      8327.5063     -15028.077    
     63000   300.24938     -186.38269      58531.134      0.99856765     2644.3982      4746.1126     -2101.7144      1784.8055      2383.6627      1484.4404     -1110.0404      8351.0956     -15031.616    
     63500   301.39232      221.83319      58840.925      0.9933103      2722.0229      4764.1794     -2042.1565      1778.7615      2385.0639      1515.4988     -1093.5557      8345.2602     -15009.697    
     64000   305.39694     -392.70858      58813.467      0.99377405     2791.4738      4827.4814     -2036.0076      1762.1755      2435.6475      1531.6928     -1138.3956      8351.8838     -15015.753    
     64500   305.37804      185.53818      59105.799      0.98885893     2764.142       4827.1827     -2063.0407      1761.6929      2402.496       1520.0417     -1083.8063      8325.949      -15027.687    
     65000   299.59468      1378.9861      58489.336      0.99928126     2672.9692      4735.7637     -2062.7945      1754.5069      2390.8497      1511.7597     -1101.0987      8362.3731     -15018.444    
     65500   297.71691     -368.18569      58775.489      0.99441617     2543.5111      4706.0813     -2162.5702      1741.0084      2359.6155      1469.0075     -1092.4742      8349.8814     -15022.203    
     66000   293.7369      -236.1237       58610.264      0.99721949     2587.1687      4643.1685     -2055.9998      1783.7519      2409.8893      1491.7521     -1093.2886      8338.4974     -15019.689    
     66500   301.68197     -600.70174      59171.039      0.98776865     2665.2192      4768.758      -2103.5389      1704.5632      2428.5441      1497.0715     -1117.8116      8366.7169     -15018.897    
     67000   305.04447      748.75624      58715.413      0.99543363     2753.4978      4821.9099     -2068.412       1750.3222      2402.7148      1509.1072     -1112.8267      8368.8866     -15022.433    
     67500   301.89628     -291.58148      58704.123      0.99562507     2645.6624      4772.1457     -2126.4833      1741.2567      2356.5331      1503.6795     -1147.6277      8401.2421     -15016.496    
     68000   295.65725      890.78406      58351.327      1.0016447      2578.6009      4673.5238     -2094.923       1762.6515      2334.7874      1545.5473     -1041.1281      8285.2081     -15019.3      
     68500   297.80139     -1722.7507      59258.193      0.98631588     2705.4211      4707.4167     -2001.9956      1822.3522      2394.8824      1506.3879     -1082.0029      8330.1203     -15011.244    
     69000   297.93805     -409.86772      58414.018      1.0005697      2705.4124      4709.577      -2004.1646      1819.8916      2369.0072      1574.4847     -1088.4293      8304.4806     -15022.128    
     69500   299.93273     -385.9915       58952.33       0.99143319     2665.2014      4741.1074     -2075.906       1752.3015      2410.6759      1511.5157     -1083.6652      8317.47       -15021.507    
     70000   292.41637     -1674.4017      59004.335      0.99055937     2549.4537      4622.2945     -2072.8408      1793.2127      2391.1708      1506.6911     -1111.6136      8335.5176     -15023.344    
     70500   293.74312      269.09028      58815.899      0.99373296     2579.3811      4643.2668     -2063.8857      1766.5585      2393.512       1520.5592     -1141.4121      8366.9467     -15005.702    
     71000   294.81927     -101.62191      59250.649      0.98644147     2527.5592      4660.2777     -2132.7185      1723.0773      2380.5985      1519.899      -1150.749       8369.0343     -15009.841    
     71500   295.52041      33.837784      58653.625      0.99648227     2555.242       4671.3608     -2116.1188      1748.7672      2355.7697      1508.5945     -1072.5482      8326.3155     -15019.942    
     72000   298.2881      -25.899674      58836.965      0.99337716     2684.6726      4715.1103     -2030.4377      1762.5848      2406.3637      1491.2665     -1045.4665      8333.492      -15014.925    
     72500   299.50526     -150.98948      58827.608      0.99353515     2718.5464      4734.3503     -2015.8039      1795.569       2377.2721      1536.0858     -1076.859       8329.1        -15014.444    
     73000   303.65893     -619.43618      58789.538      0.99417855     2739.3848      4800.0082     -2060.6234      1773.8913      2405.0648      1494.0435     -1090.2869      8341.9411     -15018.664    
     73500   304.88458      531.18005      58571.333      0.9978823      2720.5466      4819.3824     -2098.8357      1731.542       2401.902       1527.1186     -1094.1298      8317.297      -15021.77     
     74000   296.92995      385.33297      59085.054      0.98920612     2635.9594      4693.6416     -2057.6822      1737.6157      2409.517       1507.1165     -1109.9363      8369.6573     -15007.443    
     74500   299.22449     -139.74836      58879.864      0.9926534      2601.7702      4729.9121     -2128.1419      1712.967       2397.7334      1471.0081     -1079.5352      8361.2471     -15024.601    
     75000   296.37579      99.004673      58935.783      0.99171156     2552.8301      4684.8819     -2132.0518      1753.9468      2385.8879      1468.9801     -1098.8105      8348.4068     -15023.957    
     75500   303.80708      625.7346       58781.075      0.99432167     2639.6274      4802.3501     -2162.7227      1699.8358      2359.0773      1485.8587     -1047.3622      8318.5369     -15013.249    
     76000   301.69973     -618.33569      58786.423      0.99423121     2716.9464      4769.0388     -2052.0923      1759.5197      2421.6668      1505.6567     -1105.0458      8348.8566     -15016.923    
     76500   308.08496      134.47175      58549.779      0.99824966     2764.4281      4869.9716     -2105.5435      1718.864       2405.4848      1502.2375     -1106.3907      8352.8804     -15013.67     
     77000   301.54896     -133.85209      58484.404      0.99936552     2704.8244      4766.6555     -2061.8311      1800.0684      2376.0455      1499.7177     -1082.7106      8327.285      -15020.703    
     77500   296.6238      -31.680979      58663.088      0.99632151     2597.4952      4688.8023     -2091.3072      1787.0318      2344.8963      1514.0454     -1110.5914      8349.9656     -15012.608    
     78000   296.44345      828.64958      58855.507      0.99306421     2592.6893      4685.9514     -2093.2621      1742.7329      2379.2274      1518.6432     -1122.5148      8375.3553     -15023.106    
     78500   304.60905     -1131.8475      58815.984      0.99373151     2703.714       4815.0271     -2111.3131      1759.5377      2430.2623      1475.2374     -1135.3473      8345.5375     -15021.755    
     79000   300.00224      745.06109      58628.835      0.99690361     2673.9603      4742.2062     -2068.2459      1729.3556      2433.9163      1501.277      -1120.9914      8379.8288     -15023.689    
     79500   297.97348     -49.973446      58939.317      0.99165208     2583.8754      4710.1371     -2126.2616      1747.6922      2376.2981      1499.968      -1128.7523      8367.0894     -15024.96     
     80000   301.39243      589.07979      58749.039      0.99486388     2738.3926      4764.1812     -2025.7886      1785.1741      2414.2601      1473.7712     -1139.7103      8422.7256     -15019.09     
     80500   306.17228      415.51626      59069.393      0.98946838     2697.5298      4839.7374     -2142.2076      1731.6879      2330.742       1519.4537     -1102.3852      8371.6721     -15028.268    
     81000   302.51394      45.603176      58832.432      0.99345369     2627.8597      4781.9091     -2154.0493      1699.0968      2366.4723      1495.0117     -1082.9948      8356.7672     -15022.653    
     81500   294.32464     -890.97049      58689.883      0.99586664     2596.076       4652.459      -2056.383       1761.3344      2373.1689      1527.6172     -1118.7497      8384.828      -15021.514    
     82000   299.5054      -194.48103      58583.811      0.99766976     2685.2989      4734.3525     -2049.0536      1792.5871      2354.2844      1511.0467     -1060.5539      8337.4822     -15019.302    
     82500   304.94157      728.29415      58946.242      0.99153559     2795.0876      4820.2832     -2025.1957      1706.6813      2422.1611      1509.0598     -1065.089       8380.0131     -15014.335    
     83000   304.90867      1421.3613      58323.945      1.0021149      2706.4495      4819.7632     -2113.3137      1717.4458      2382.1102      1510.669      -1006.8883      8267.3292     -15022.38     
     83500   304.32334      755.96057      59074.64       0.9893805      2727.7916      4810.5107     -2082.7191      1760.9121      2369.7252      1473.5533     -1056.6363      8351.2632     -15014.929    
     84000   294.42389     -878.21943      58683.336      0.99597774     2479.0581      4654.0278     -2174.9697      1753.3105      2384.8772      1467.6091     -1114.3108      8322.1363     -15022.394    
     84500   300.53496      721.53882      59047.227      0.98983983     2605.0615      4750.627      -2145.5655      1735.7181      2388.9343      1493.7798     -1116.5509      8338.7361     -15020.094    
     85000   301.07082      404.21093      58622.943      0.99700381     2654.3059      4759.0974     -2104.7914      1747.6075      2395.0288      1520.1984     -1095.4355      8315.6766     -15024.732    
     85500   298.15097     -35.791959      58689.03       0.99588112     2700.985       4712.9426     -2011.9577      1817.1506      2382.1853      1524.4982     -1127.3316      8375.4076     -15020.47     
     86000   307.60649      211.29235      58674.108      0.99613439     2717.4079      4862.4082     -2145.0003      1704.1994      2378.4854      1501.0371     -1112.2811      8364.685      -15016.348    
     86500   303.53145     -566.24246      59239.164      0.98663271     2706.7556      4797.9931     -2091.2375      1773.3892      2382.876       1504.66       -1166.7748      8390.868      -15011.944    
     87000   297.40677     -601.58145      58901.089      0.99229568     2545.3729      4701.1789     -2155.806       1772.2016      2369.1785      1458.3575     -1157.154       8382.2134     -15013.843    
     87500   297.08453      902.08027      58644.63       0.9966351      2531.2084      4696.0852     -2164.8768      1730.7219      2371.7079      1484.7507     -1093.8845      8328.1297     -15019.319    
     88000   298.26004     -1781.6747      58955.303      0.9913832      2583.3198      4714.6668     -2131.347       1788.7484      2345.5517      1528.2074     -1157.5356      8348.8034     -15023.602    
     88500   298.14551     -1966.8338      59177.462      0.98766144     2647.7013      4712.8563     -2065.1551      1794.023       2403.4946      1475.5804     -1126.0467      8370.4293     -15015.895    
     89000   302.25533      1001.7404      58760.153      0.99467571     2624.5756      4777.8212     -2153.2457      1701.5113      2414.4682      1483.5252     -1114.8537      8351.7557     -15023.445    
     89500   304.60524      380.42721      58724.046      0.9952873      2714.3754      4814.9669     -2100.5915      1745.8681      2372.5603      1499.8205     -1125.0461      8384.6831     -15016.772    
     90000   299.40545      987.5687       58680.753      0.99602159     2696.271       4732.7726     -2036.5015      1735.1533      2426.5832      1490.5003     -1076.0673      8364.8903     -15015.36     
     90500   306.71033      108.34646      58749.923      0.99484891     2686.9417      4848.2425     -2161.3008      1757.4152      2363.1351      1485.4789     -1126.5162      8344.5413     -15020.08     
     91000   305.26164     -786.66864      59031.062      0.99011088     2746.6584      4825.3427     -2078.6843      1799.5339      2395.9771      1466.2686     -1126.6936      8362.8095     -15013.549    
     91500   303.51744      1020.6078      58634.521      0.99680693     2651.3303      4797.7717     -2146.4414      1711.0926      2340.8468      1497.6397     -1045.2159      8341.749      -15024.856    
     92000   297.63946     -153.65411      58765.889      0.99457863     2563.4598      4704.8571     -2141.3974      1707.1361      2390.0722      1471.5612     -1072.2753      8346.6949     -15017.975    
     92500   300.86577      98.564658      58689.586      0.99587169     2547.7974      4755.8562     -2208.0588      1661.9685      2331.97        1524.3275     -1110.9209      8368.3998     -15017.195    
     93000   301.171       -317.72862      58827.542      0.99353627     2513.9922      4760.681      -2246.6887      1677.1176      2346.5183      1485.3883     -1115.7632      8337.9859     -15012.301    
     93500   299.57693     -984.35314      59135.947      0.9883548      2663.2407      4735.4831     -2072.2424      1790.901       2348.9401      1524.845      -1122.0008      8364.3641     -15015.506    
     94000   303.32609      142.12536      58921.854      0.991946       2701.6955      4794.7469     -2093.0514      1737.0969      2407.697       1516.465      -1119.1318      8349.7556     -15023.371    
     94500   298.21985      323.41448      58634.78       0.99680253     2598.6157      4714.0315     -2115.4157      1727.6908      2406.0764      1482.0912     -1104.7764      8353.3644     -15015.497    
     95000   294.91719     -566.80719      58997.327      0.99067704     2501.4904      4661.8255     -2160.3351      1736.0696      2375.9806      1487.1772     -1101.0067      8339.522      -15033.553    
     95500   299.43211     -67.873607      58526.11       0.99865337     2599.4711      4733.194      -2133.7229      1718.1814      2373.7339      1500.577      -1093.1236      8350.013      -15019.227    
     96000   300.69438     -346.6208       58915.134      0.99205913     2649.8548      4753.147      -2103.2922      1760.1611      2360.4916      1507.6878     -1148.2877      8394.075      -15012.783    
     96500   299.48503      748.29817      58584.131      0.99766432     2679.8822      4734.0305     -2054.1483      1739.6256      2408.5491      1517.8573     -1058.0336      8312.36       -15008.577    
     97000   300.35457     -321.99565      58654.688      0.99646419     2651.9613      4747.7755     -2095.8142      1772.4415      2424.0675      1474.3388     -1123.771       8345.3765     -15023.058    
     97500   299.22013      282.11771      58523.988      0.99868958     2685.78        4729.8431     -2044.0631      1728.505       2440.851       1540.4736     -1133.5005      8361.7309     -15015.219    
     98000   303.99168      221.12509      58666.641      0.99626119     2742.5461      4805.2681     -2062.722       1793.1127      2362.9467      1502.086      -1063.7326      8317.3778     -15010.774    
     98500   301.59048     -719.80345      58627.055      0.99693387     2777.3614      4767.3118     -1989.9504      1799.7314      2450.23        1510.3959     -1121.3213      8361.3964     -15028.306    
     99000   298.38058     -336.83036      58815.906      0.99373283     2657.7631      4716.5722     -2058.8091      1750.1227      2433.2633      1486.0142     -1111.6903      8363.2862     -15012.015    
     99500   298.9881       422.59702      58864.425      0.99291374     2593.3347      4726.1753     -2132.8407      1758.06        2367.2125      1499.4636     -1110.3675      8329.9508     -15013.257    
    100000   304.03103     -713.48728      58889.714      0.99248737     2595.6136      4805.8902     -2210.2765      1733.4332      2359.4056      1462.3112     -1157.25        8371.2508     -15014.001    
    100500   300.80273     -141.11996      58163.722      1.0048755      2721.0564      4754.8596     -2033.8032      1790.8943      2388.8404      1552.5985     -1086.9306      8303.2039     -15021.28     
    101000   297.87592     -166.65757      58403.477      1.0007503      2711.2922      4708.5949     -1997.3028      1806.2541      2437.5774      1503.812      -1107.6439      8342.0131     -15017.507    
    101500   295.96752     -495.0131       58249.77       1.003391       2677.4654      4678.4284     -2000.963       1800.4239      2432.187       1544.3147     -1131.335       8324.634      -15009.523    
    102000   298.90083      488.45434      58365.989      1.0013931      2575.6115      4724.7958     -2149.1843      1723.2819      2395.6341      1509.6945     -1134.6545      8329.4076     -15008.439    
    102500   298.3301       94.235096      58581.521      0.99770877     2478.2489      4715.7741     -2237.5252      1693.6407      2372.4608      1473.9233     -1158.8617      8361.9119     -15017.248    
    103000   300.38551     -138.85226      58487.081      0.99931978     2677.1654      4748.2645     -2071.0991      1777.3198      2432.9696      1521.0832     -1149.6129      8324.7993     -15014.587    
    103500   301.92083      1018.9053      58859.686      0.99299369     2680.7564      4772.5338     -2091.7774      1743.404       2432.3056      1495.1222     -1137.7839      8352.6395     -15014.002    
    104000   295.53406     -416.02448      58878.974      0.99266841     2566.9499      4671.5766     -2104.6267      1759.3878      2384.0101      1507.7192     -1099.7569      8311.9143     -15003.789    
    104500   293.04298     -1051.4376      58597.653      0.99743409     2450.1778      4632.1995     -2182.0217      1727.2753      2389.5211      1493.571      -1129.4485      8311.5043     -15011.809    
    105000   299.29841      1343.7998      58912.298      0.99210689     2707.5357      4731.0805     -2023.5448      1679.5653      2482.5955      1527.7526     -1103.392       8363.9717     -15013.102    
    105079   302.00493      178.03077      58921.169      0.99195753     2694.3855      4773.8631     -2079.4776      1762.3826      2400.9511      1500.1426     -1097.7322      8317.3656     -14999.546    
Loop time of 16387.3 on 1 procs for 50000 steps with 5364 atoms

Performance: 0.264 ns/day, 91.040 hours/ns, 3.051 timesteps/s, 16.366 katom-step/s
99.7% CPU use with 1 MPI tasks x 1 OpenMP threads

MPI task timing breakdown:
Section |  min time  |  avg time  |  max time  |%varavg| %total
---------------------------------------------------------------
Pair    | 779.02     | 779.02     | 779.02     |   0.0 |  4.75
Bond    | 42.027     | 42.027     | 42.027     |   0.0 |  0.26
Kspace  | 69.872     | 69.872     | 69.872     |   0.0 |  0.43
Neigh   | 105.33     | 105.33     | 105.33     |   0.0 |  0.64
Comm    | 2.6209     | 2.6209     | 2.6209     |   0.0 |  0.02
Output  | 0.32278    | 0.32278    | 0.32278    |   0.0 |  0.00
Modify  | 15388      | 15388      | 15388      |   0.0 | 93.90
Other   |            | 0.5254     |            |       |  0.00

Nlocal:           5364 ave        5364 max        5364 min
Histogram: 1 0 0 0 0 0 0 0 0 0
Nghost:          15742 ave       15742 max       15742 min
Histogram: 1 0 0 0 0 0 0 0 0 0
Neighs:    1.81734e+06 ave 1.81734e+06 max 1.81734e+06 min
Histogram: 1 0 0 0 0 0 0 0 0 0

Total # of neighbors = 1817336
Ave neighs/atom = 338.80239
Ave special neighs/atom = 10.829232
Neighbor list builds = 202538
Dangerous builds = 0
unfix           w
unfix           muavg

# Written WITH coefficients: each stage reads the previous stage's data file, so
# the file has to be self-contained. `nocoeff` would force every downstream stage
# to re-derive the force field, and any drift between the two paths would be
# silent.
write_data      relaxed.data
System init for write_data ...
PPPM initialization ...
  using 12-bit tables for long-range coulomb
  G vector (1/distance) = 0.23790342
  grid = 15 15 15
  stencil order = 5
  estimated absolute RMS force accuracy = 0.019907362
  estimated relative force accuracy = 5.995043e-05
  using double precision FFTW3
  3d grid and FFT values/proc = 8000 3375
Generated 36 of 36 mixed pair_coeff terms from arithmetic mixing rule
write_restart   relaxed.restart
System init for write_restart ...
PPPM initialization ...
  using 12-bit tables for long-range coulomb
  G vector (1/distance) = 0.23790342
  grid = 15 15 15
  stencil order = 5
  estimated absolute RMS force accuracy = 0.019907362
  estimated relative force accuracy = 5.995043e-05
  using double precision FFTW3
  3d grid and FFT values/proc = 8000 3375
Generated 36 of 36 mixed pair_coeff terms from arithmetic mixing rule
Total wall time: 4:51:12
