LAMMPS data file via write_data, version 22 Jul 2025, timestep = 21839, units = real

1690 atoms
8 atom types
1685 bonds
8 bond types
3060 angles
13 angle types
4790 dihedrals
10 dihedral types
300 impropers
1 improper types

0 43.3545 xlo xhi
0 43.3545 ylo yhi
0 43.3545 zlo zhi

Masses

1 12.01
2 12.01
3 14.01
4 1.008
5 1.008
6 1.008
7 15.9994
8 1.008

Pair Coeffs # lj/cut/coul/long/gpu

1 0.1078 3.39771
2 0.0988 3.31521
3 3.8748 2.49951
4 0.0208 2.60018
5 0.0161 2.62548
6 0.0208 1.88746
7 0.1553 3.166
8 0 0

Bond Coeffs # harmonic

1 228.89 1.5354
2 243.91 1.5147
3 354.25 1.3986
4 215.86 1.5167
5 345.25 1.0962
6 360.69 1.086
7 352.86 1.0911
8 553 0.98

Angle Coeffs # harmonic

1 60.33 112.42
2 59.87 112.63
3 60.74 120.83
4 63.67 120.02
5 63.53 115.67
6 76.02 109.36
7 43.27 109.68
8 43.61 110.63
9 44.9 119.88
10 43.48 111.41
11 46.79 108.17
12 35.8 107.73
13 35.63 109.79

Dihedral Coeffs # charmm

1 0.24 2 180 0
2 0.52 3 0 0
3 3.625 2 180 0
4 0.155556 3 0 0
5 0 2 0 0
6 0.7 2 0 0
7 0.156 3 0 0
8 0.13 3 0 0
9 0 1 0 0
10 0.12 3 0 0

Improper Coeffs # cvff

1 1.1 -1 2

Atoms # full

1570 5 5 0.160636 19.13705812777785 4.422094209922142 43.315420578857655 0 0 0
1571 5 5 0.137136 19.5090627691818 6.740487325923808 0.6889427033110068 0 0 1
1568 5 1 -0.088964 19.790691098183398 1.3333602155057604 1.7397816718090795 0 0 1
1589 5 4 0.045503 18.8788851806862 1.8410418972770342 2.0776070357450713 0 0 1
1555 5 2 -0.011164 20.76069172455338 3.586544011504979 1.1338642191262676 0 0 1
1556 5 2 -0.120364 19.939456036361737 4.628962178422525 0.6623680834277161 0 0 1
1557 5 2 -0.09836399999999999 20.14714030354816 5.949154773603486 1.0781181075753852 0 0 1
1558 5 2 -0.188164 21.183837629881435 6.253613633616853 1.9740963262484423 0 0 1
1584 5 5 0.160636 22.40919996400259 3.093721093757872 2.451540442513021 0 0 1
1565 5 2 -0.120364 21.78159788609013 3.88815465635563 2.058008215947531 0 0 1
1564 5 2 -0.09836399999999999 21.99872057885024 5.217925494415179 2.4695315088745127 0 0 1
1583 5 5 0.137136 22.798217730140998 5.442984249835932 3.1714109573385065 0 0 1
1579 5 6 0.102614 23.837488282580537 7.004729152397469 1.301315679536719 0 0 1
1578 5 6 0.102614 24.064285138155924 8.182973788258181 2.637296802647985 0 0 1
1559 5 1 0.188236 21.400197546397216 7.699927381493518 2.388206146626428 0 0 1
1562 5 1 0.090236 23.75290355405281 8.051559671129958 1.5966431337138145 0 0 1
1573 5 6 0.100836 20.434278049419532 8.208581750927848 2.426328900512196 0 0 1
1572 5 6 0.100836 21.83899088920289 7.748499455899668 3.3876328644234546 0 0 1
1648 34 8 0.32 26.19671861605886 42.55901079107355 42.205448950237106 0 -1 -1
1647 34 7 -1.32 26.54418204980872 42.51264805578553 43.12326933708215 0 -1 -1
1163 4 6 0.102614 26.938393737864345 0.002383850621342276 1.7578718048831927 -1 1 1
1162 4 6 0.102614 26.729107883740195 43.174864555256484 3.521011287507088 -1 0 1
1150 4 1 0.090236 27.458054811268855 43.20364680735372 2.709844924734665 -1 0 1
1164 4 6 0.102614 28.1761234139247 0.6549774239529852 2.866820568205931 -1 1 1
1013 4 6 0.102614 41.61498598385745 0.6725211081624121 1.2495302859953372 -1 1 1
994 4 3 -0.6068 40.33141158598513 43.124725671459885 2.716904692815897 -1 0 1
1011 4 6 0.102614 40.013546859839934 1.5810985421811306 3.846904482960696 -1 1 1
1016 4 5 0.137136 37.185522396735394 0.09305015111897762 1.16582866374777 -1 1 1
1012 4 6 0.102614 38.53645556178306 0.6457642461980259 3.470874673023566 -1 1 1
1010 4 6 0.102614 39.33081914125175 1.5993042810387945 2.1863130636345307 -1 1 1
996 4 1 0.090236 39.49857187334553 0.9987611521180014 3.082073640929881 -1 1 1
1610 15 8 0.32 36.585305243098006 42.53457403319567 4.420365424047792 0 -1 1
999 4 2 -0.120364 37.42293913305629 0.7330164768909834 42.46071778328044 -1 1 0
1015 4 6 0.102614 42.21717336678923 42.49377630904586 1.9523540643902149 -1 0 1
997 4 1 0.090236 41.717630295503106 0.09174442209168741 2.167511056841629 -1 1 1
1014 4 6 0.102614 42.288171092945994 0.647917192281879 2.912497313023123 -1 1 1
1582 5 6 0.102614 21.904568709827508 7.339247481298806 43.03033096843563 0 0 0
1563 5 1 0.090236 21.84006651990315 8.379563135918527 43.35167829565948 0 0 0
1580 5 6 0.102614 22.45589640086471 9.006413337858675 42.70119503803481 0 0 0
1581 5 6 0.102614 20.80851734758532 8.726439243684267 43.24744060535569 0 0 0
1577 5 6 0.102614 24.386833152598303 8.67990463266121 0.9679776887354588 0 0 1
1560 5 3 -0.6068 22.299261432156072 8.509097070455862 1.4546665582956002 0 0 1
309 1 6 0.102614 24.339222564737707 12.030315286022159 5.152995273447189 0 0 0
1576 5 6 0.102614 21.225318157083933 10.372103776386034 1.6944788877087231 0 0 1
1561 5 1 0.090236 22.23637242757754 9.990050906631145 1.847712155238179 0 0 1
1574 5 6 0.102614 22.94075033754812 10.55172764233637 1.230353142153877 0 0 1
1680 50 8 0.32 25.065424951793286 10.647221804953935 2.652786620056078 0 0 0
1679 50 7 -1.32 24.712539099842328 10.186744404484704 3.449076787190087 0 0 0
302 1 6 0.102614 26.364476086247805 9.883766775024254 5.050971113361846 0 0 0
289 1 1 0.090236 26.73759251596496 10.876101194791591 5.324060765806826 0 0 0
303 1 6 0.102614 27.79631617384243 10.82668244107707 5.5818631438036626 0 0 0
304 1 6 0.102614 26.58243928785733 11.521469729460726 4.455488247126229 0 0 0
1638 29 8 0.32 3.222139081441939 18.272040941227424 5.051451319184735 0 0 1
625 2 6 0.102614 7.4634473605601945 18.098888941458245 3.3317415787226574 0 0 1
626 2 6 0.102614 6.03298918338978 17.900191312791538 5.9992228953725375 0 0 1
609 2 1 0.090236 7.1102775785370556 18.096787138446658 5.9907756229198945 0 0 1
628 2 6 0.102614 7.6416672965381025 17.232978399033282 5.589318688795201 0 0 1
301 1 6 0.100836 26.041911514199732 13.489877340816506 6.023456738499203 0 0 0
620 2 6 0.102614 5.49206450647475 20.138763566925242 5.701141674452558 0 0 1
623 2 6 0.102614 5.849157047754314 18.749777724322005 3.7194869866869493 0 0 1
1637 29 7 -1.32 4.148589290911437 18.601897681876252 5.069533520258833 0 0 1
607 2 1 0.090236 6.530079315907755 20.474701005280963 5.630816249521688 0 0 1
608 2 1 0.090236 6.92013905422353 18.97358622841995 3.690195169924037 0 0 1
624 2 6 0.102614 7.097188869162771 19.826009343011233 3.03299409241971 0 0 1
606 2 3 -0.6068 7.388649745198197 19.319573214984693 5.107076851986275 0 0 1
621 2 6 0.102614 6.579568325837099 21.308937291563577 4.931196382049515 0 0 1
617 2 5 0.137136 10.582208714390022 19.21700547079635 3.0589494416846685 0 0 1
602 2 2 -0.120364 10.914533622512558 21.221816014406663 2.3242873397113755 0 0 1
603 2 2 -0.09836399999999999 10.309760078852898 20.264997276726028 3.157037286385553 0 0 1
616 2 5 0.160636 11.657991571439497 20.9047658969153 1.5988982466458004 0 0 1
601 2 2 -0.011164 10.632431795455616 22.593151303300917 2.489613348192408 0 0 1
619 2 6 0.100836 9.404961034546227 18.67034116298041 4.97974570104937 0 0 1
605 2 1 0.188236 8.889448303802205 19.620097177100295 5.145798744948632 0 0 1
604 2 2 -0.188164 9.40694536113862 20.66234408808944 4.158074905127593 0 0 1
611 2 2 -0.120364 9.665645728314892 22.979327940747297 3.43560303810077 0 0 1
629 2 5 0.137136 8.369274564843119 22.360574153892117 5.031419727298955 0 0 1
610 2 2 -0.09836399999999999 9.062120311014752 22.02339019683582 4.2681456245236635 0 0 1
630 2 5 0.160636 9.439180003217437 24.032718901644575 3.582431736519263 0 0 1
600 2 1 -0.036264 11.479785082134203 23.6596739153308 1.7855987999573435 0 0 1
598 2 5 0.160636 11.338968288902295 23.46162252566997 5.42018922179374 0 0 1
583 2 4 0.069836 12.713535439914894 22.40963391416306 3.9170276693680877 0 0 1
581 2 4 0.046836 14.885164905059865 21.766826253894415 3.2754458290056467 0 0 1
567 2 5 0.160636 13.719006160516049 20.235633848511572 4.979838716550519 0 0 1
549 2 2 -0.120364 13.454328926671392 20.783510248958624 5.878022854239296 0 0 1
536 2 5 0.160636 17.019784330279588 18.940126733525542 5.6149584407680315 0 0 1
551 2 4 0.046836 16.418273640968735 20.833196651775335 4.827163153827414 0 0 1
539 2 2 -0.011164 14.116946210013946 21.986359418803264 6.191184694672023 0 0 1
613 2 4 0.046836 13.370720771270896 22.616285483808106 1.5018381683533533 0 0 1
599 2 1 -0.07226399999999999 12.999212968776122 23.470397541128616 2.08018546600154 0 0 1
612 2 4 0.046836 13.55576068093381 24.34474602639813 1.7170626391002346 0 0 1
569 2 1 -0.036264 13.33870585025262 23.239721561347558 3.5806451746065386 0 0 1
582 2 4 0.046836 15.489714923943417 23.41179049440561 3.298703967990303 0 0 1
568 2 1 -0.07226399999999999 14.786270681006217 22.728574858861688 3.7922035434906887 0 0 1
538 2 1 -0.036264 15.211920483953884 22.561904359667125 5.283062861274657 0 0 1
537 2 1 -0.07226399999999999 16.52850699114527 21.759841091114286 5.395208085445735 0 0 1
550 2 4 0.046836 17.30281651303536 22.321468877419967 4.859183967377637 0 0 1
552 2 4 0.069836 15.443402774177612 23.57385962896874 5.639430632413879 0 0 1
470 2 6 0.102614 19.87020577222429 22.207265970835103 1.9171512010573952 0 0 1
468 2 6 0.102614 17.884463717307543 23.752804026711107 1.5969042525352084 0 0 1
461 2 5 0.137136 22.256235227864426 23.54364089639935 2.3082127590696726 0 0 1
460 2 5 0.160636 22.419853594992375 23.65726393080155 4.788875225976132 0 0 1
472 2 6 0.102614 19.473195277361945 21.28619850211307 0.43377264630426715 0 0 1
471 2 6 0.102614 21.087664217297828 22.03822949588718 0.6259588407821611 0 0 1
454 2 1 0.090236 20.01899708673688 22.139925278423153 0.8371431816282031 0 0 1
451 2 3 -0.6068 19.514038062330208 23.432418216847395 0.18837891248406338 0 0 1
453 2 1 0.090236 18.02459173817 23.664838334121786 0.515381133540266 0 0 1
400 2 6 0.100836 24.276145573495267 23.220886078568917 1.5456053254930218 0 0 1
407 2 6 0.102614 26.42195153651003 22.01637233970264 1.6242904837374352 0 0 1
405 2 6 0.102614 27.886918002768752 22.723189935176844 0.8834286906975813 0 0 1
399 2 5 0.137136 25.11629179384921 22.945396194437386 3.877004469318445 0 0 1
391 2 1 0.090236 26.981247335183745 22.9400530709836 1.4536074014067788 0 0 1
406 2 6 0.102614 27.240441853961123 23.39076554339864 2.414687116819011 0 0 1
615 2 4 0.069836 11.210432640535572 24.644893289590236 2.1876538400906225 0 0 1
580 2 2 -0.120364 11.941574882871548 24.361289588017357 5.368332830708142 0 0 1
579 2 2 -0.09836399999999999 11.680073315255575 25.402134799674563 6.264520056041127 0 0 1
570 2 2 -0.011164 13.013616173589373 24.444195362970866 4.461189045973914 0 0 1
571 2 2 -0.120364 13.821450481623925 25.597883591956165 4.45324529341414 0 0 1
584 2 5 0.160636 14.65841782496309 25.67066085524939 3.7566216634018406 0 0 1
572 2 2 -0.09836399999999999 13.58499938304771 26.628699441859943 5.381465958582676 0 0 1
585 2 5 0.137136 14.244203143253554 27.494876000513045 5.405796262992722 0 0 1
573 2 2 -0.188164 12.523037087301644 26.523713772964644 6.301031438971145 0 0 1
1628 24 8 0.32 15.580187414362406 26.18765099254749 1.4631181341655546 -1 0 0
1662 41 8 0.32 14.363406237111422 29.803802965642035 6.727902375475696 -1 -2 0
1627 24 7 -1.32 16.22767319633252 25.484803970978486 1.695208175262223 -1 0 0
449 2 2 -0.188164 20.439488935441258 24.698668383551514 2.2164906317499504 0 0 1
448 2 2 -0.09836399999999999 21.509773501186434 24.08629395535093 2.8837155697524257 0 0 1
473 2 5 0.137136 18.587211630262797 25.805025920497354 2.44187310421439 0 0 1
455 2 2 -0.09836399999999999 19.442249363259254 25.358389055866837 2.9496954513006792 0 0 1
443 2 5 0.160636 20.58103888695703 27.880724300959955 4.652652254863223 0 0 1
447 2 2 -0.120364 21.597171779587594 24.150589150917508 4.28146943252474 0 0 1
446 2 2 -0.011164 20.61536433513213 24.834708630840865 5.0233427824783305 0 0 1
456 2 2 -0.120364 19.525956385611693 25.41814860057932 4.345935277181018 0 0 1
474 2 5 0.160636 18.732157381272657 25.919626011107137 4.891369278850653 0 0 1
425 2 2 -0.120364 20.389639567671935 28.22244102440898 5.666681413671572 0 0 1
428 2 4 0.069836 22.517830098979264 26.760554407795375 5.360980357087203 0 0 1
442 2 5 0.137136 18.5318845418194 29.18602131106958 5.1260084451729835 0 0 1
424 2 2 -0.09836399999999999 19.228877258732368 28.967674287836296 5.932541963884777 0 0 1
462 2 6 0.100836 21.358787727555846 24.484587032471374 0.30012474459327704 0 0 1
463 2 6 0.100836 19.926533385995324 25.52383612371201 0.3031589942219368 0 0 1
450 2 1 0.188236 20.350493998646904 24.60311944596413 0.708943966623668 0 0 1
389 2 3 -0.6068 26.096598770560554 23.91278658146923 0.666458304441669 0 0 1
388 2 1 0.188236 24.79815806162089 24.17771902499273 1.4455734221656629 0 0 1
390 2 1 0.090236 26.820944868995845 25.232806850943167 0.3907849031247804 0 0 1
401 2 6 0.100836 24.141628496390634 24.783201745841136 0.8130443346180072 0 0 1
403 2 6 0.102614 26.153594910856132 25.888877524982142 43.18066424217161 0 0 0
411 2 5 0.137136 24.782779365205993 26.854322976787437 2.0730599287010643 0 0 1
386 2 2 -0.09836399999999999 25.115022869892766 24.029850927880727 3.9614051033807365 0 0 1
387 2 2 -0.188164 24.977351297727875 24.828986110683676 2.8129021877333846 0 0 1
393 2 2 -0.09836399999999999 24.927999290882724 26.22831422459745 2.949693163869147 0 0 1
385 2 2 -0.120364 25.186001778409363 24.621506393122154 5.233533395715972 0 0 1
394 2 2 -0.120364 25.00773031561956 26.821652412878866 4.222801107322972 0 0 1
402 2 6 0.102614 27.07683907734383 25.702924961036018 1.343329461877994 0 0 1
412 2 5 0.160636 24.925402821951142 27.90041850665611 4.317164630370376 0 0 1
384 2 2 -0.011164 25.11562061457329 26.022247864581477 5.37849786706695 0 0 1
404 2 6 0.102614 27.726617906082534 25.039398431958283 43.166523528889115 0 0 0
1248 4 4 0.046836 31.985902557980513 29.774616914045303 2.1507888243112903 -1 0 1
1252 4 5 0.160636 33.01514845056526 28.258164020301194 3.9525096665966477 -1 0 1
1272 4 4 0.045503 30.43959925885776 29.0045331698826 3.9937990219139827 -1 0 1
1238 4 2 -0.120364 33.32937731957753 28.837209757949996 4.816019854528855 -1 0 1
1250 4 1 -0.088964 30.405572371615314 30.05592616218416 4.302664677432412 -1 0 1
1263 4 6 0.102614 37.05134675764679 28.147819560019016 5.7954534613994735 -1 0 1
1262 4 6 0.102614 38.60526550686128 27.980233846018024 6.6638775847103755 -1 0 1
1258 4 6 0.102614 36.763563776452955 30.465915724626377 6.809216826976632 -1 0 1
1256 4 6 0.102614 38.298219911916895 30.29324550741483 7.719346173373474 -1 0 1
1243 4 1 0.090236 37.22294473677931 30.110262782501373 7.733234842776587 -1 0 1
441 2 6 0.102614 17.711017118437503 31.989489804358705 5.591957007640416 0 0 1
1190 4 5 0.137136 27.692187183686304 34.70367515487291 5.596437955922448 -1 0 1
1189 4 5 0.160636 28.464642207742383 34.36710541594081 3.2760871376535707 -1 0 1
1177 4 2 -0.09836399999999999 28.751670111648124 34.5678280833088 5.397935906012239 -1 0 1
1249 4 4 0.046836 33.2886959314335 30.897055000761352 2.513699131435779 -1 0 1
1235 4 1 -0.07226399999999999 32.20240479182423 30.75881164877702 2.5845481285297036 -1 0 1
1236 4 1 -0.036264 31.773550716870353 30.743884491712205 4.081430745440598 -1 0 1
1237 4 2 -0.011164 32.819495586000095 30.13775612437078 5.014877193871503 -1 0 1
1234 4 5 0.160636 29.605170931538332 32.74601320281659 43.33163877051768 -1 0 0
1176 4 2 -0.120364 29.19459752875053 34.3740784925921 4.0801492299089475 -1 0 1
1216 4 2 -0.120364 30.353102386303526 32.12809966712959 42.846837392596846 -1 0 0
1206 4 2 -0.011164 31.41166615352294 31.57298248259015 0.2405844693876556 -1 0 1
1207 4 2 -0.120364 32.37996979078292 30.796436107132312 42.921997705649034 -1 0 0
1220 4 5 0.160636 33.23425351312766 30.379915207993506 0.09264065402198439 -1 0 1
1188 4 4 0.069836 30.16573376639831 34.18126876071955 1.7035574163750669 -1 0 1
1218 4 4 0.046836 32.64277560615166 33.58771537215171 1.0749027126626678 -1 0 1
1156 4 4 0.046836 31.988655977390938 34.95171922932422 42.79943098520525 -1 0 0
1142 4 1 -0.07226399999999999 31.932290208092212 36.04584199642819 42.82796434371012 -1 0 0
1205 4 1 -0.036264 31.493606358222216 31.868700798540402 1.7449615446831916 -1 0 1
1219 4 4 0.069836 30.457728119536167 31.890188571040678 2.1019678895059695 -1 0 1
1204 4 1 -0.07226399999999999 32.09884218877038 33.28969766082746 1.9778632276832417 -1 0 1
1175 4 2 -0.011164 30.572594482453304 34.31046049294643 3.790442882188363 -1 0 1
1174 4 1 -0.036264 31.03862070572885 34.375404813028666 2.334461330454245 -1 0 1
1217 4 4 0.046836 32.86625625788289 33.25187865404819 2.757955975609078 -1 0 1
1173 4 1 -0.07226399999999999 31.48667752436973 35.84127257359513 2.0494012843716174 -1 0 1
1186 4 4 0.046836 32.56685323479964 35.945136788453446 2.200431328749473 -1 0 1
1251 4 4 0.069836 31.637212626650427 31.786058323784538 4.383212902909631 -1 0 1
1185 4 2 -0.120364 31.499939935743797 34.397698324808026 4.8497260466878656 -1 0 1
1113 4 2 -0.011164 34.27043186108994 35.627708531130956 42.05301202149127 -1 0 0
1266 4 5 0.160636 32.83276387668929 31.86013116947221 6.3420762163706454 -1 0 1
1271 4 4 0.045503 29.60883473232718 30.554440169504673 3.7396281911807945 -1 0 1
1203 4 5 0.160636 32.5671225054942 34.41311252828684 4.6543674102947605 -1 0 1
1123 4 2 -0.120364 35.11670366384815 34.77735017586853 42.789257615457245 -1 0 0
1122 4 2 -0.09836399999999999 35.795731775757126 33.72633013034085 42.15097809576166 -1 0 0
1141 4 5 0.160636 35.1947370241918 34.88774216034065 0.5120953940973403 -1 0 1
1140 4 5 0.137136 36.37355241169062 33.01943996314023 42.74120758588664 -1 0 0
1650 35 8 0.32 42.6969037940372 39.73832923448151 1.8610617164253895 -1 0 -1
1167 4 6 0.102614 26.42771485868606 40.75718782363603 3.1913567878492715 -1 0 1
1166 4 6 0.102614 27.65626037651447 39.8111385847816 2.3129980427510186 -1 0 1
1165 4 6 0.102614 26.64942301358072 41.00014281598958 1.4285120034706753 -1 0 1
1151 4 1 0.090236 27.151724712191637 40.77766417370408 2.375676764656246 -1 0 1
1169 4 6 0.102614 28.182941500029905 41.41292276137347 4.769613014433032 -1 0 1
1157 4 4 0.069836 30.06998529795942 35.9722422963845 0.4627367082397189 -1 0 1
1187 4 4 0.046836 31.02581768817615 36.46447906355936 2.827045409581879 -1 0 1
1143 4 1 -0.036264 31.03833944543714 36.44006122350509 0.6767207099103657 -1 0 1
1126 4 4 0.069836 33.747151693148105 36.73647952240551 0.4514537272137951 -1 0 1
1112 4 1 -0.036264 33.37686856174876 36.63156124978023 42.78032602948811 -1 0 0
1145 4 2 -0.120364 29.666194807049084 38.451905964120044 43.326663741248225 -1 0 0
1144 4 2 -0.011164 30.722190113137753 37.93852928574606 0.7525858959876771 -1 0 1
1146 4 2 -0.09836399999999999 29.215047950628776 39.76722626722668 0.15866953414197102 -1 0 1
1159 4 5 0.137136 28.350958116409483 40.14166240929944 42.96122663363602 -1 0 0
1147 4 2 -0.188164 29.815770713317615 40.58385030418389 1.1274651965123605 -1 0 1
1154 4 2 -0.120364 31.376356585416808 38.797180123063775 1.6641098711612954 -1 0 1
1172 4 5 0.160636 32.196345355420355 38.43695627833782 2.2778769980758504 -1 0 1
1153 4 2 -0.09836399999999999 30.92346545592666 40.112210066682145 1.851029540280024 -1 0 1
1170 4 6 0.102614 29.452533396546887 40.6022189392722 3.869667401078199 -1 0 1
1171 4 5 0.137136 31.390035177027222 40.73756093070893 2.6077695803918677 -1 0 1
1152 4 1 0.090236 28.914860984089614 41.54883846622142 3.9691838389061913 -1 0 1
1168 4 6 0.102614 29.612828305694364 42.345524804151346 4.224782868400064 -1 0 1
1684 52 8 0.32 28.8738260103542 38.506983349387966 4.413378351442885 2 1 0
1683 52 7 -1.32 28.692936070786374 38.962078112999876 5.266471471022862 2 1 0
1111 4 1 -0.07226399999999999 33.40948809229386 38.0513031011188 42.14876807068081 -1 0 0
1124 4 4 0.046836 32.91015375624046 38.759137344277406 42.81664866191011 -1 0 0
1005 4 6 0.100836 40.165906489832 41.403900633937106 1.475644367700193 -1 0 1
1110 4 5 0.160636 37.27041018068127 37.40138370409509 42.06782553008425 -1 0 0
1092 4 2 -0.120364 37.02053576694389 38.008121313468536 42.93340087536344 -1 0 0
1096 4 5 0.160636 34.525549940881945 39.97823778560485 0.841894458008469 -1 0 1
1082 4 2 -0.011164 35.76830437429188 38.648052308121805 43.011205245255944 -1 0 0
1091 4 2 -0.09836399999999999 37.98391244723171 38.210820127137886 0.5795762442147034 -1 0 1
1109 4 5 0.137136 38.974701624689985 37.77261552560085 0.4807428744479279 -1 0 1
1083 4 2 -0.120364 35.47270854860973 39.449729285915886 0.777358470752585 -1 0 1
1097 4 5 0.137136 36.233344729834485 40.33929235898082 2.5977377010507223 -1 0 1
1084 4 2 -0.09836399999999999 36.437655672993735 39.65324147795468 1.7761008202341793 -1 0 1
1085 4 2 -0.188164 37.69945835499034 39.04727422202988 1.6703721668740337 -1 0 1
1104 4 6 0.102614 37.53619016333078 37.07953686055006 3.3104358561313685 -1 0 1
1106 4 6 0.102614 36.90194866593343 39.27803218566051 4.519155484029349 -1 0 1
1086 4 1 0.188236 38.8026392464836 39.40982599864167 2.6484193399863436 -1 0 1
1098 4 6 0.100836 38.6897885638575 40.45398087233897 2.9457582166561656 -1 0 1
1099 4 6 0.100836 39.76784262020828 39.32050519022561 2.1431985950340815 -1 0 1
1107 4 6 0.102614 38.2033739064632 40.31462707412522 5.1012417574392925 -1 0 1
1004 4 5 0.137136 41.02328469165698 42.622389960113026 42.74125561548786 -1 0 0
1649 35 7 -1.32 41.82242419396644 40.04040074163508 2.1985225448717065 -1 0 -1
1588 5 4 0.045503 20.446649458507377 1.1971369214971086 2.6081157181714643 0 0 1
1149 4 3 -0.6068 28.19664403470595 41.86647150086245 2.645361858028194 -1 0 1
1148 4 1 0.188236 29.169877434671825 41.9180090374397 1.4557134696825362 -1 0 1
1161 4 6 0.100836 28.58928876883394 42.25461685336132 0.5900875802894922 -1 0 1
1160 4 6 0.100836 29.92813162951696 42.674695696287046 1.6601884825403987 -1 0 1
991 4 2 -0.09836399999999999 40.0288441614501 43.05743433268843 42.66924417087515 -1 0 0
995 4 1 0.090236 40.49135229280616 42.26212231816688 3.9685989800473442 -1 0 1
998 4 2 -0.09836399999999999 37.86123421290537 0.16582041310214804 0.31280546010853144 -1 1 1
1006 4 6 0.100836 38.65226034977562 41.95917633806049 2.1996436988086954 -1 0 1
992 4 2 -0.188164 39.15883636558555 42.995332184956375 0.41476232139459196 -1 0 1
993 4 1 0.188236 39.564096473518745 42.291295015394375 1.6966964871367518 -1 0 1
1609 15 7 -1.32 37.36058588371298 42.06874140611732 4.0302694104497165 0 -1 1
1007 4 6 0.102614 41.090622069446894 41.38578180576516 3.717205461169473 -1 0 1
1009 4 6 0.102614 40.98395079548371 42.835799627122526 4.753013170809001 -1 0 1
213 1 6 0.102614 11.075950778478674 11.904694812127827 11.959621003587614 0 0 0
208 1 6 0.102614 13.385905167134814 11.808562398374944 10.946384171281947 0 0 0
308 1 6 0.102614 24.16566654108077 10.387284032886637 5.744907375454037 0 0 0
1575 5 6 0.102614 22.533686499349653 10.096810029048536 2.8950673278653483 0 0 1
310 1 6 0.102614 23.78722864429375 11.759188645749473 6.8412624846168715 0 0 0
291 1 1 0.090236 24.440758217011016 11.403794221756309 6.0432685648217825 0 0 0
290 1 1 0.090236 26.077315351395793 10.469591239264064 7.702758002388038 0 0 0
305 1 6 0.102614 25.74313925308128 9.46857524223455 7.417901114276029 0 0 0
306 1 6 0.102614 27.128285851598505 10.440592257558821 7.996982552561657 0 0 0
307 1 6 0.102614 25.470850305969 10.838885510757462 8.533763008720422 0 0 0
288 1 3 -0.6068 25.909913107979232 11.411311630635605 6.504475459473128 0 0 0
287 1 1 0.188236 26.359241738516648 12.839456684889143 6.84279876238187 0 0 0
300 1 6 0.100836 27.451336511344007 12.845767232350552 6.857596234160785 0 0 0
299 1 5 0.137136 27.648620081595073 12.877322381987797 9.257809894639712 0 0 0
531 2 6 0.102614 11.801206236479306 16.80252808253134 6.7509380109760375 0 0 1
534 2 6 0.102614 11.413311142116735 15.166835939768843 8.579042322416123 0 0 1
526 2 6 0.102614 11.370378045888167 17.62353967261548 8.95871347208033 0 0 1
1675 48 7 -1.32 9.887783737197996 17.849895831919792 7.29008577839384 0 0 0
1676 48 8 0.32 9.48245858010984 16.95257513731556 7.336104315457574 0 0 0
515 2 1 0.090236 12.877646708443779 16.729563457823556 6.934548675966467 0 0 1
530 2 6 0.102614 13.301421941129751 15.90179826168799 6.364335163510297 0 0 1
529 2 6 0.102614 13.354482545029171 17.66902402671408 6.648192346302115 0 0 1
532 2 6 0.102614 12.991816288145575 14.343690753630636 8.314683829573383 0 0 1
524 2 6 0.100836 15.026692034039495 15.535871398427238 8.293370019317052 0 0 1
517 2 2 -0.09836399999999999 15.989487969203221 17.730055420993835 7.06191834599396 0 0 1
535 2 5 0.137136 15.97103773227739 16.856027266694337 6.41647742871199 0 0 1
511 2 2 -0.188164 15.390492683101352 17.674285174479603 8.331895664201024 0 0 1
516 2 1 0.090236 12.47645563227419 15.159551552659705 8.82770626118013 0 0 1
533 2 6 0.102614 12.621194557513377 15.005589003620964 9.899919350318317 0 0 1
514 2 1 0.090236 12.435305330842233 17.612441278349653 9.20954216924854 0 0 1
513 2 3 -0.6068 13.113277754197673 16.492891449269553 8.42800679320559 0 0 1
512 2 1 0.188236 14.616824252663584 16.432646288548984 8.764725498892522 0 0 1
525 2 6 0.100836 14.712358362208322 16.265438206734917 9.841821942442971 0 0 1
528 2 6 0.102614 12.572045616062733 17.43982987859181 10.278416021676385 0 0 1
216 1 6 0.102614 12.620430487929804 13.93888055846977 11.650530841368603 0 0 0
1685 53 7 -1.32 14.56575322263088 13.807202184359584 10.197401206549221 0 0 0
1686 53 8 0.32 15.52507509052788 13.60495107836466 10.109298974752907 0 0 0
311 1 5 0.137136 23.939109213836616 14.053830802143738 7.37174957100908 0 0 0
292 1 2 -0.09836399999999999 24.566570979138476 13.963751682789226 8.255482382247331 0 0 0
312 1 5 0.160636 23.105592509853945 14.894442019160495 9.54433603352381 0 0 0
293 1 2 -0.120364 24.093262130958337 14.442550790592337 9.48960842853972 0 0 0
249 1 5 0.160636 20.395840226311456 15.165391213471255 11.669788336638538 0 0 0
230 1 2 -0.09836399999999999 21.109951848561607 17.146581927556806 11.229650405496209 0 0 0
248 1 5 0.137136 20.76764289049921 17.11795881758201 10.198178319094541 0 0 0
224 1 2 -0.188164 21.72660874615887 18.304048598695207 11.73003387905921 0 0 0
297 1 4 0.069836 23.289725396713813 15.066885362689641 11.853631671766731 0 0 0
282 1 1 -0.036264 24.343722809696544 14.82416159695846 11.996052842446733 0 0 0
286 1 2 -0.188164 25.842926498075432 13.379090745020223 8.165869965517535 0 0 0
285 1 2 -0.09836399999999999 26.65086613471374 13.30521226374553 9.315132469008043 0 0 0
283 1 2 -0.011164 24.88775770002954 14.34387502120675 10.648881265619528 0 0 0
284 1 2 -0.120364 26.17661553334032 13.784475513259704 10.547191196695355 0 0 0
298 1 5 0.160636 26.81208881374836 13.719777170361096 11.426291687792569 0 0 0
318 1 4 0.045503 24.90294468850103 16.912256805291385 11.688606997911988 0 0 0
622 2 6 0.102614 6.879554298038892 20.774611732621462 6.618069218582901 0 0 1
627 2 6 0.102614 7.4695123099907725 18.287344403467547 7.003578858937829 0 0 1
618 2 6 0.100836 9.152489689112672 19.896797459781876 6.168845243956573 0 0 1
566 2 5 0.137136 11.891183115351426 19.39366162036074 6.449934673371111 0 0 1
564 2 6 0.102614 9.700833850122645 21.652265168791164 6.679344688974665 0 0 1
565 2 6 0.102614 8.600220354492874 22.72238681770249 7.632582447531274 0 0 1
547 2 1 0.090236 9.562638244264896 22.206776877287645 7.607367872010444 0 0 1
563 2 6 0.102614 10.340452568523313 22.96990031544725 7.704735754782557 0 0 1
542 2 2 -0.188164 12.084310313923773 21.00172982218233 7.878875438533779 0 0 1
556 2 6 0.100836 10.724621279980983 19.463237949059792 8.389511508681915 0 0 1
544 2 3 -0.6068 9.664538164869171 21.250302583772157 8.802342510112197 0 0 1
543 2 1 0.188236 10.975934840967248 20.458127020188066 8.756500531229985 0 0 1
555 2 6 0.100836 11.333128021015701 20.335878113758096 9.779975428501736 0 0 1
562 2 6 0.102614 8.674049096536283 22.695237271766825 10.058730809343722 0 0 1
546 2 1 0.090236 9.60260587024076 22.118038100763755 10.06601263314047 0 0 1
561 2 6 0.102614 10.420913765474149 22.842667787320114 10.036917227014333 0 0 1
560 2 6 0.102614 9.666638757951583 21.498808672307355 10.961147060417298 0 0 1
557 2 6 0.102614 7.553053054563362 20.78143189605501 8.761278894119261 0 0 1
558 2 6 0.102614 8.597820339828917 19.624134560061698 7.8750955729254235 0 0 1
545 2 1 0.090236 8.504568686270318 20.24651701805103 8.769688662910218 0 0 1
559 2 6 0.102614 8.563237608914402 19.59614223106558 9.644372069240386 0 0 1
518 2 2 -0.120364 16.57468282352969 18.923778616524228 6.603561400185248 0 0 1
548 2 2 -0.09836399999999999 12.430340762245123 20.303564620909953 6.710530132618492 0 0 1
508 2 2 -0.011164 16.545217894871143 20.09108249436856 7.398341932981249 0 0 1
507 2 1 -0.036264 16.982584795451015 21.467495069542235 6.866773847681563 0 0 1
521 2 4 0.069836 16.45864099852082 22.196068713797874 7.493904636535222 0 0 1
527 2 6 0.102614 12.887115568766125 18.563987339749612 8.920305169477675 0 0 1
541 2 2 -0.09836399999999999 12.753614756670869 22.189711998035964 8.209295119018568 0 0 1
554 2 5 0.137136 12.477786422947718 22.743866589992784 9.10275981795412 0 0 1
510 2 2 -0.09836399999999999 15.468932671419942 18.797837636028767 9.173871100292812 0 0 1
509 2 2 -0.120364 16.03753984693472 19.994660272509247 8.710331812867539 0 0 1
522 2 5 0.160636 16.05723710295451 20.856377710166853 9.378400851273557 0 0 1
523 2 5 0.137136 15.06292723714281 18.764873052634137 10.181897075340272 0 0 1
1677 49 7 -1.32 17.239551135618907 21.143302784025014 11.712100274399821 0 0 1
540 2 2 -0.120364 13.759964269511332 22.680184383726193 7.365619097425034 0 0 1
553 2 5 0.160636 14.257699985156876 23.61123846028972 7.618445876414254 0 0 1
492 2 5 0.137136 17.37232350341252 23.7107873844973 11.599147240573064 0 0 1
478 2 2 -0.120364 17.892316005730933 23.457592554362126 9.539710976222391 0 0 1
519 2 4 0.046836 19.057582507829842 21.29590994872932 6.276097079993522 0 0 1
520 2 4 0.046836 18.83041672040798 21.283755910168523 8.00528166253341 0 0 1
506 2 1 -0.07226399999999999 18.484402539569675 21.763591320089148 7.086128777967227 0 0 1
490 2 4 0.069836 18.4201746880451 23.705943077169906 6.18940259814182 0 0 1
488 2 4 0.046836 20.884417133784908 22.7682637009141 6.709158260112031 0 0 1
476 2 1 -0.036264 18.7904581160381 23.294899957377456 7.133719797052765 0 0 1
477 2 2 -0.011164 18.09293129126354 24.0586124301306 8.281066786803922 0 0 1
491 2 5 0.160636 18.097049923222656 22.407207744375135 9.716399239706407 0 0 1
475 2 1 -0.07226399999999999 20.32091845252351 23.57696506896678 7.191419487136391 0 0 1
489 2 4 0.046836 20.637454277035456 23.59185505064732 8.238170377155441 0 0 1
1681 51 7 -1.32 23.570225626759182 20.9859245437117 8.853709670544832 -1 0 0
241 1 6 0.102614 19.142173933842056 18.890411686282256 10.851163941064447 0 0 0
227 1 1 0.090236 19.429767462674103 19.714663671893184 10.19624617188443 0 0 0
240 1 6 0.102614 19.679510030459912 19.345823873900855 9.200756345775025 0 0 0
239 1 6 0.102614 18.58689119757306 20.40772005263805 10.138238546884326 0 0 0
225 1 1 0.188236 21.877094358863516 19.53292684188403 10.844511446502425 0 0 0
226 1 3 -0.6068 20.63967813657025 20.439225602609305 10.800279256089455 0 0 0
237 1 6 0.100836 22.115910288178654 19.25029654684051 9.814611151343376 0 0 0
238 1 6 0.100836 22.72193655626194 20.145100543181606 11.171303985216133 0 0 0
247 1 6 0.102614 20.191747825614417 22.35166957408322 9.917776302791875 0 0 0
229 1 1 0.090236 21.01163787831032 21.633638903563504 9.931360894394535 0 0 0
246 1 6 0.102614 21.242149604888866 21.284727535115454 8.9205966194484 0 0 0
245 1 6 0.102614 21.922762755315468 22.09442001558288 10.321929424752657 0 0 0
244 1 6 0.102614 19.37823812476986 21.606746596816734 12.09347476169063 0 0 0
398 2 5 0.160636 25.239535099579964 23.981127755875743 6.11313055791325 0 0 1
1682 51 8 0.32 24.463950054012148 20.72212274411423 8.54238230693897 -1 0 0
597 2 5 0.137136 10.85104401507686 25.30954975270319 6.964309702833486 0 0 1
586 2 6 0.100836 11.268636712848071 27.830881010113472 7.4625613999958595 0 0 1
594 2 6 0.102614 10.94460186252545 26.404382610155565 9.447443670281203 0 0 1
593 2 6 0.102614 11.766352220455257 28.781787202147854 9.728918981538733 0 0 1
1636 28 8 0.32 8.648810271851337 25.321903608081378 9.04981507208608 0 -1 -2
1635 28 7 -1.32 9.462227749121045 24.768495449485673 9.000255190748009 0 -1 -2
574 2 1 0.188236 12.328500556225158 27.583720033256704 7.371002503881745 0 0 1
587 2 6 0.100836 12.865894093829006 28.49150078391749 7.080588688263393 0 0 1
432 2 6 0.100836 16.918559410908564 29.91376824023701 6.755766696036208 0 0 1
431 2 6 0.100836 17.190735193770607 29.71480262939971 8.457454790121158 0 0 1
1661 41 7 -1.32 14.794953369870138 29.707434212304808 7.607919841335183 -1 -2 0
575 2 3 -0.6068 12.846653004968323 27.189252375907405 8.762684421172201 0 0 1
589 2 6 0.102614 14.356151541594055 25.90380311534855 7.926332985975133 0 0 1
578 2 1 0.090236 11.983164870102522 26.071007193752738 9.372569818584582 0 0 1
596 2 6 0.102614 11.997759887256152 25.188332707440647 8.729884634538465 0 0 1
595 2 6 0.102614 12.350339812028597 25.805006152761468 10.363626893113825 0 0 1
487 2 2 -0.120364 17.737789338455144 25.418966527746594 8.130645204550826 0 0 1
505 2 5 0.160636 17.826174156427104 25.905814107212464 7.163822761240667 0 0 1
480 2 2 -0.188164 17.246863910817677 25.589565765638813 10.507786943762627 0 0 1
479 2 2 -0.09836399999999999 17.46306641899737 24.21032199304214 10.634062648914608 0 0 1
504 2 5 0.137136 17.1766467819341 27.25726681767251 9.11644508978626 0 0 1
486 2 2 -0.09836399999999999 17.34976459811778 26.19028664052644 9.240407609044333 0 0 1
494 2 6 0.100836 16.307213091097392 27.172827533992056 11.645018810354838 0 0 1
481 2 1 0.188236 17.07130789388514 26.40348493669958 11.773999630119642 0 0 1
592 2 6 0.102614 13.415649608084163 29.216466804789818 9.207015288402093 0 0 1
576 2 1 0.090236 14.304120579824787 26.74414636243813 8.621666175554004 0 0 1
588 2 6 0.102614 14.886002604805771 27.578545747073186 8.218986516739403 0 0 1
577 2 1 0.090236 12.797897845869645 28.433047344115835 9.65425428343986 0 0 1
591 2 6 0.102614 13.183838763951684 28.18709750560913 10.643963706187932 0 0 1
590 2 6 0.102614 14.69970364928428 26.449887704606134 9.59444938092892 0 0 1
501 2 6 0.102614 17.749900673285165 29.116716015977033 11.842472384561079 0 0 1
415 2 2 -0.011164 21.256956216371055 27.850893913512405 6.7133664838154585 0 0 1
445 2 1 -0.036264 20.712430105251297 24.9242508497826 6.545089146300096 0 0 1
459 2 4 0.069836 19.98274382372869 25.654474742507325 6.893007570930406 0 0 1
414 2 1 -0.036264 22.412520034137295 26.87713185430139 6.445780137154212 0 0 1
426 2 4 0.046836 23.867909029813916 28.46381350842624 6.537972164187895 0 0 1
418 2 2 -0.188164 18.948108174613296 29.393388450554987 7.241912845115209 0 0 1
417 2 2 -0.09836399999999999 19.84897436658257 29.090430834320742 8.27484901833969 0 0 1
430 2 5 0.137136 19.667155671853244 29.44617181655535 9.28527673155795 0 0 1
416 2 2 -0.120364 20.97823272960989 28.303206882141332 8.020331072654297 0 0 1
485 2 1 0.090236 18.55901452052351 28.43743753466278 11.568857274356715 0 0 1
458 2 4 0.046836 22.870171770540402 24.756077710558788 6.784211278356834 0 0 1
444 2 1 -0.07226399999999999 22.08112265421875 25.472721398797226 7.031939154180726 0 0 1
457 2 4 0.046836 22.06555098412401 25.539863879327218 8.126945601391801 0 0 1
495 2 6 0.102614 19.643446159332104 25.984707826098077 10.864295288295839 0 0 1
502 2 6 0.102614 18.568878891100532 28.29957459474684 10.488327901044839 0 0 1
503 2 6 0.102614 19.506537240083127 28.88371457210304 11.881389183120309 0 0 1
355 2 2 -0.09836399999999999 23.964219796592005 27.284640198583407 11.30709545974899 0 0 1
356 2 2 -0.188164 23.36081809326838 28.547366061038655 11.18805700940706 0 0 1
413 2 1 -0.07226399999999999 23.739878350892134 27.468592241350652 6.980101208771731 0 0 1
427 2 4 0.046836 23.59945189251997 27.615493208763997 8.048241935720041 0 0 1
429 2 5 0.160636 21.613835833744908 28.0264582530277 8.856123827317132 0 0 1
370 2 6 0.100836 21.36808495087797 29.35578526540302 11.400492712824937 0 0 1
362 2 2 -0.09836399999999999 23.87757186627272 29.479304947900136 10.273135467001145 0 0 1
483 2 1 0.090236 19.59008815545823 26.180056015513365 11.937081410752848 0 0 1
357 2 1 0.188236 22.12555144149549 28.868345036560957 12.02090139990429 0 0 1
397 2 4 0.069836 24.997887790448512 25.81410509602228 7.503023752814857 0 0 1
383 2 1 -0.036264 25.043799515835744 26.64035957901143 6.7815680110714744 0 0 1
396 2 4 0.046836 27.146751444380477 27.061432544112087 6.542786411220626 0 0 1
395 2 4 0.046836 26.19603668242249 28.505246700154295 6.780881728376554 0 0 1
366 2 4 0.069836 27.03129640467094 26.44462372696236 8.87983342950231 0 0 1
334 2 4 0.046836 28.98517318404525 26.163411356469133 7.529958079292861 0 0 1
319 2 1 -0.07226399999999999 29.785920514410925 26.829942322726698 7.866927558588612 0 0 1
382 2 1 -0.07226399999999999 26.32067034464372 27.47396219590435 7.131686806289403 0 0 1
352 2 1 -0.036264 26.745042316372647 27.476901831630755 8.642332901703886 0 0 1
353 2 2 -0.011164 25.594899310589913 27.875669084179034 9.580189328075411 0 0 1
335 2 4 0.069836 28.910894591613143 28.59804300708867 7.032421420785418 0 0 1
320 2 1 -0.036264 29.23310211230971 28.2785199895039 8.030707497953241 0 0 1
365 2 4 0.046836 27.664929463406384 29.416130479243794 8.972261341168233 0 0 1
351 2 1 -0.07226399999999999 27.98680475227843 28.368491766801153 8.959468147538729 0 0 1
367 2 5 0.160636 25.494388909740554 25.9504388923407 10.588426304515096 0 0 1
333 2 4 0.046836 30.105810977289636 26.432274239095577 8.836957605100421 0 0 1
354 2 2 -0.120364 25.068234226384245 26.94682518808427 10.5030808601993 0 0 1
364 2 4 0.046836 28.305733560515776 28.1489249818138 9.986626337021091 0 0 1
381 2 5 0.160636 25.369667691770942 29.880854230712007 8.774438581640831 0 0 1
363 2 2 -0.120364 25.00108351415682 29.155662211202515 9.492469556426663 0 0 1
1270 4 4 0.045503 30.133999087732636 30.08866690574562 5.363949673778948 -1 0 1
633 2 4 0.045503 31.25841254279289 25.669689175959714 6.747427252210666 0 0 1
631 2 4 0.045503 30.614148108068033 27.06345819989472 5.8551248510064635 0 0 1
332 2 1 -0.09496400000000001 30.938082537874696 26.7141569737362 6.842847336697796 0 0 1
632 2 4 0.045503 31.808182283611295 27.30778399297518 7.145147940480361 0 0 1
321 2 2 -0.011164 30.27299626965471 29.306836039914646 8.518338810697738 0 0 1
331 2 2 -0.120364 31.40367592302792 28.93895487039645 9.283523032039824 0 0 1
350 2 5 0.160636 31.601031354704244 27.90403075345629 9.537273109011934 0 0 1
330 2 2 -0.09836399999999999 32.31234789086853 29.90922246542955 9.730356591452484 0 0 1
349 2 5 0.137136 33.20634181710894 29.609665672678936 10.276652543411974 0 0 1
1239 4 2 -0.09836399999999999 34.208276665392475 28.26363665369271 5.7567871895363245 -1 0 1
1253 4 5 0.137136 34.56020971574346 27.245171426735908 5.616021964259567 -1 0 1
1240 4 2 -0.188164 34.58818101459388 28.99421580372211 6.89759614678068 -1 0 1
1245 4 1 0.090236 37.527441593839136 27.810749692118918 6.719598890677023 -1 0 1
1264 4 6 0.102614 37.32775565686297 26.747372543728428 6.87012688418192 -1 0 1
1254 4 6 0.100836 35.23854701524065 27.325062206991046 8.099494573573107 -1 0 1
1242 4 3 -0.6068 36.94732401247232 28.60553696045378 7.893115260477927 -1 0 1
1241 4 1 0.188236 35.431914049209226 28.39514556456152 8.009483510484316 -1 0 1
1244 4 1 0.090236 37.56712052597199 28.164450599406173 9.228147918841549 -1 0 1
1259 4 6 0.102614 38.643299895441395 28.346419550995545 9.216682544633942 -1 0 1
1261 4 6 0.102614 37.364050814600965 27.105725477924167 9.398832795625918 -1 0 1
420 2 3 -0.6068 17.73778789739502 31.636959481050837 7.709584233875271 0 0 1
433 2 6 0.102614 15.6969897878279 31.86156808682435 7.0460810015519755 0 0 1
421 2 1 0.090236 16.299633027214817 32.134105315903476 7.916758577564087 0 0 1
419 2 1 0.188236 17.645849066308188 30.115189897413092 7.547735194199517 0 0 1
437 2 6 0.102614 18.14386131948886 31.50843731534723 9.832694905396766 0 0 1
434 2 6 0.102614 15.865773670151825 31.61302343115385 8.77534664311284 0 0 1
435 2 6 0.102614 16.28428388283869 33.21283651807566 8.075862595856108 0 0 1
423 2 1 0.090236 18.338042831579013 32.254141429234274 6.446623537181202 0 0 1
439 2 6 0.102614 19.342692353307893 31.848399399296923 6.30282125140267 0 0 1
440 2 6 0.102614 18.383899343241236 33.339195377808544 6.5573010452711396 0 0 1
438 2 6 0.102614 19.595058049613673 31.60105808133503 8.83872297316484 0 0 1
422 2 1 0.090236 18.57748071831523 31.984228637537722 8.948792191635864 0 0 1
436 2 6 0.102614 18.607996361063837 33.063563692098775 9.098671916366332 0 0 1
1687 54 7 -1.32 19.910991531813973 31.04832130891988 11.28533080696604 2 1 3
1688 54 8 0.32 19.597729467436725 31.850123400939783 11.764228740175248 2 1 3
380 2 5 0.137136 23.387116362089696 30.442744021300168 10.150853178276973 0 0 1
376 2 6 0.102614 21.96210000733176 31.53454886189596 12.128997185650517 0 0 1
1192 4 6 0.100836 28.318938944551338 34.65471731646667 8.112068210130946 -1 0 1
1179 4 1 0.188236 29.258832168242193 35.12884849288669 7.82770818386798 -1 0 1
336 2 5 0.160636 29.204764565910107 30.993872049569895 7.663650530376488 0 0 1
1247 4 2 -0.120364 33.22888545508998 30.866573844504277 6.14692006993488 -1 0 1
322 2 2 -0.120364 30.067792370622 30.676833982704533 8.24075181506331 0 0 1
324 2 2 -0.188164 32.085219739644046 31.266967954960077 9.463333744091678 0 0 1
1178 4 2 -0.188164 29.684983568197655 34.69318143747339 6.438278232901288 -1 0 1
1191 4 6 0.100836 30.021757203233612 34.806257915372356 8.540835877679978 -1 0 1
1184 4 2 -0.09836399999999999 31.05620091461679 34.565052357751156 6.167977368340777 -1 0 1
1202 4 5 0.137136 31.776992009549307 34.69433216492527 6.9764254420217915 -1 0 1
323 2 2 -0.09836399999999999 30.963110342716135 31.650181548696814 8.71626693972347 0 0 1
337 2 5 0.137136 30.79933178045749 32.70627947151594 8.507579662983035 0 0 1
338 2 6 0.100836 32.928282776269896 33.237575743133654 9.365358487450278 0 0 1
339 2 6 0.100836 34.09355701140111 31.969273151019326 9.792289740886138 0 0 1
348 2 6 0.102614 31.216149164086687 33.9353637922935 11.046281727190644 0 0 1
325 2 1 0.188236 33.0682211982082 32.32056327557121 9.94755990597143 0 0 1
1671 46 7 -1.32 31.89694678113948 35.30636507725674 9.502657985578391 0 -1 -1
1672 46 8 0.32 32.52305254742665 36.0559380395168 9.37660308066575 0 -1 -1
1246 4 2 -0.09836399999999999 34.112340741452144 30.299570532050456 7.072772559490708 -1 0 1
1265 4 5 0.137136 34.39933314426522 30.854677032703474 7.964746033573682 -1 0 1
1257 4 6 0.102614 36.77531481349341 30.642009780280137 8.577670340886705 -1 0 1
1260 4 6 0.102614 37.109851086232716 28.75165533522777 10.031979644719849 -1 0 1
1255 4 6 0.100836 35.12680718258643 28.857907808036686 8.954723787214645 -1 0 1
1594 7 8 0.32 36.288296996470145 30.716152432085973 11.144725736337845 0 -2 -1
1593 7 7 -1.32 35.67924530794518 30.40911790625413 10.434343121052203 0 -2 -1
1196 4 6 0.102614 28.311216563207598 36.50798502346273 9.998161945213042 -1 0 1
1182 4 1 0.090236 29.151011834595945 36.9831474557803 9.48983718585526 -1 0 1
1180 4 3 -0.6068 29.105835025328386 36.64998407997204 7.998631710653652 -1 0 1
1195 4 6 0.102614 26.94203246190032 36.73307475846338 7.790441967430178 -1 0 1
1181 4 1 0.090236 27.826360723575867 37.180644535473405 7.338053423888203 -1 0 1
1194 4 6 0.102614 27.86797460955668 36.962962806661494 6.267196286863129 -1 0 1
1193 4 6 0.102614 27.801338976140915 38.2707032520974 7.428915193960822 -1 0 1
1198 4 6 0.102614 29.107919008221668 38.06678899237407 9.615853911574607 -1 0 1
1200 4 6 0.102614 31.219591171111432 37.01331292161398 7.769429418244495 -1 0 1
1197 4 6 0.102614 30.092948348756508 36.60238599562682 9.89950024389785 -1 0 1
1199 4 6 0.102614 30.174126105544005 38.4498406879632 7.455402475997734 -1 0 1
1201 4 6 0.102614 30.26292154673841 37.16101053117814 6.255295985621159 -1 0 1
1183 4 1 0.090236 30.28532713889305 37.37051523767436 7.327850593884879 -1 0 1
1105 4 6 0.102614 39.25934532631092 36.747383107366474 2.981859432507184 -1 0 1
1103 4 6 0.102614 38.62460152691044 36.599749379654234 4.650615393333348 -1 0 1
1089 4 1 0.090236 38.55080254394852 37.14875736607134 3.7099571673984757 -1 0 1
1087 4 3 -0.6068 38.8816635885631 38.62027508014322 3.95175728159589 -1 0 1
1102 4 6 0.102614 40.47316953321158 38.202729467306995 5.372193119470313 -1 0 1
1090 4 1 0.090236 37.906906447166904 39.27261326351199 4.946538268707001 -1 0 1
1108 4 6 0.102614 37.91772009601267 38.739140853624804 5.897377213596437 -1 0 1
1088 4 1 0.090236 40.32846190904848 38.763380408289116 4.4482759203426765 -1 0 1
1101 4 6 0.102614 40.54523313301643 39.82020086748105 4.6096013415055035 -1 0 1
1100 4 6 0.102614 41.012702233537794 38.40951080476367 3.6700581528836302 -1 0 1
1008 4 6 0.102614 39.504606712591745 41.94119840929485 4.3087541005977 -1 0 1
1622 21 8 0.32 16.841010699568088 5.736137455077884 15.26917505891512 0 1 4
116 1 6 0.102614 14.46743060508224 6.255630915331349 15.131742197804432 0 0 0
117 1 6 0.102614 12.811999024654599 5.614610298820538 15.330174420630867 0 0 0
1667 44 7 -1.32 11.419532678875141 10.416636406186367 15.573035769869081 0 0 0
1668 44 8 0.32 10.561264168386463 10.682435750146666 15.97650352411075 0 0 0
211 1 6 0.102614 11.515493691199959 10.691090069382767 13.211318317117687 0 0 0
197 1 1 0.090236 11.502217573483591 11.7542979964274 12.952402117083484 0 0 0
212 1 6 0.102614 10.90654305361059 12.264151873829524 13.712814101234674 0 0 0
122 1 6 0.102614 11.197749044203382 6.898868198332108 16.985976880356407 0 0 0
105 1 1 0.090236 11.80746986539327 7.768390205641661 16.7404786556051 0 0 0
121 1 6 0.102614 11.763420046987646 8.510573740350047 17.540838189590378 0 0 0
123 1 6 0.102614 11.43451858764119 8.239520758104737 15.826940677004076 0 0 0
196 1 1 0.090236 13.788389165028239 11.584108643709627 11.938100769044313 0 0 0
209 1 6 0.102614 13.79819212888925 10.509123778877312 12.121997956773162 0 0 0
210 1 6 0.102614 14.800605479967766 11.994480868319002 11.9743368126579 0 0 0
206 1 6 0.100836 13.44713481823281 10.9370753102047 14.56712407985514 0 0 0
217 1 5 0.137136 15.869954327061546 10.868046710363062 13.81582251661616 0 0 0
199 1 2 -0.09836399999999999 15.986455520008548 11.830904794874664 14.306907536911194 0 0 0
218 1 5 0.160636 18.12951241027375 11.754712283910019 14.243690822866338 0 0 0
187 1 5 0.160636 17.759707909255482 10.189337646146452 16.38267067992319 0 0 0
194 1 1 0.188236 13.47136139153001 12.018414179533544 14.408745006523981 0 0 0
1621 21 7 -1.32 16.531653187923965 6.12490835378957 16.119174068195456 0 1 4
103 1 1 0.090236 13.411000667723465 6.522215150797003 15.247165481786878 0 0 0
115 1 6 0.102614 13.08228559668513 7.118194800918236 14.393353099468335 0 0 0
113 1 6 0.100836 14.996608573777772 8.318353778801201 15.766471828939789 0 0 0
114 1 6 0.100836 13.53005799174156 9.32478423070621 15.738005848631929 0 0 0
101 1 1 0.188236 14.11305182631699 8.618017380632313 16.33890032493141 0 0 0
124 1 5 0.137136 13.00145420271244 10.74165840020233 17.715972197134633 0 0 0
102 1 3 -0.6068 13.265038933990283 7.351850569169414 16.521267167109585 0 0 0
100 1 2 -0.188164 14.59394379875759 9.284503531818032 17.6143716238281 0 0 0
266 1 5 0.160636 23.593993133529757 11.078163945880554 14.06814719346661 0 0 0
253 1 2 -0.120364 23.948062898314433 11.416727912412076 15.03682789243327 0 0 0
267 1 5 0.137136 24.533728624473927 9.429048066029429 15.643546325665595 0 0 0
254 1 2 -0.09836399999999999 24.469451797956076 10.473522706413855 15.936324410409956 0 0 0
186 1 5 0.137136 18.45326429549499 7.835092964973297 16.55794640491209 0 0 0
168 1 2 -0.09836399999999999 18.96504426756555 8.592260331592403 17.153697906204407 0 0 0
169 1 2 -0.120364 18.575505935186936 9.93419950020009 17.054002357470615 0 0 0
255 1 2 -0.188164 24.95811099775024 10.88018939613222 17.18877127748201 0 0 0
269 1 6 0.100836 26.3338708880826 9.247038885723002 17.52683448436921 0 0 0
214 1 6 0.102614 12.35450527101504 14.339847951943375 13.386322790205625 0 0 0
200 1 2 -0.120364 17.267525075981283 12.33776805354574 14.551487602936758 0 0 0
172 1 4 0.069836 17.731919447362948 12.31452225951314 17.301298384604433 0 0 0
198 1 1 0.090236 12.969863505892016 13.788356159509615 12.675009721954403 0 0 0
215 1 6 0.102614 14.007821225971625 14.13059352566363 12.714953181586676 0 0 0
195 1 3 -0.6068 12.936662020132117 12.290657258736914 12.996519217358736 0 0 0
193 1 2 -0.188164 14.856499907315204 12.564206566290084 14.694475088829895 0 0 0
207 1 6 0.100836 12.748527324082293 12.42277645656644 15.121941324277689 0 0 0
192 1 2 -0.09836399999999999 15.01354019978114 13.802061791144522 15.341437637254618 0 0 0
190 1 2 -0.011164 17.436491096360665 13.571815024142262 15.213967586841191 0 0 0
205 1 5 0.137136 14.137027341336271 14.368974586019903 15.64522391427397 0 0 0
191 1 2 -0.120364 16.29924212243173 14.304021336051564 15.602886595096933 0 0 0
204 1 5 0.160636 16.40884381235542 15.255250417001797 16.11476101445389 0 0 0
232 1 4 0.046836 19.420933272543024 13.71577791621103 13.499482080468633 0 0 0
264 1 4 0.046836 21.602252076453322 12.776246890237418 14.49011584105668 0 0 0
202 1 4 0.046836 19.854829698526668 12.153957857836696 15.744767693267942 0 0 0
188 1 1 -0.07226399999999999 19.590441255692706 12.978327173132655 16.416668219000183 0 0 0
201 1 4 0.046836 20.540008946877116 13.378942490053959 16.79154573234499 0 0 0
219 1 1 -0.07226399999999999 19.549875483750302 14.49263060857103 14.263331871679858 0 0 0
250 1 1 -0.07226399999999999 21.975426228152006 13.666336169791474 13.975341290898733 0 0 0
233 1 4 0.046836 18.98272280525366 15.356125734108154 13.890469133976605 0 0 0
263 1 4 0.046836 21.85401918540764 13.43734687141961 12.909784739345914 0 0 0
231 1 2 -0.120364 20.900304370622926 16.041387801309302 12.06748735891069 0 0 0
189 1 1 -0.036264 18.840318079121886 14.058026492174575 15.577520412302011 0 0 0
234 1 4 0.069836 21.27334549885251 15.175087943935056 15.370385151260825 0 0 0
203 1 4 0.069836 18.759136976166555 14.952918656365464 16.206865811827193 0 0 0
220 1 1 -0.036264 21.058143895969152 14.87682434637892 14.336953364647623 0 0 0
221 1 2 -0.011164 21.32361183992534 16.070184593310504 13.41424774989588 0 0 0
222 1 2 -0.120364 21.954284381419743 17.229384671751248 13.906013630144042 0 0 0
235 1 5 0.160636 22.2745587713559 17.281251442100558 14.94228282644553 0 0 0
295 1 4 0.046836 24.1931518211286 12.74487215631644 12.5638908012198 0 0 0
265 1 4 0.069836 23.648552122384334 14.828191333600241 14.731193859954596 0 0 0
251 1 1 -0.036264 23.492265675198457 13.826980798400708 14.313116954184128 0 0 0
281 1 1 -0.07226399999999999 24.41879494441091 13.695102880963761 13.062277444239626 0 0 0
252 1 2 -0.011164 23.930671827783932 12.790119292776465 15.360227721848718 0 0 0
262 1 2 -0.120364 24.39599465765169 13.190996727557328 16.629078437316966 0 0 0
158 1 1 -0.036264 18.778243815902965 12.386039212160536 17.612470579776964 0 0 0
294 1 4 0.046836 25.45698704809664 13.613104866891765 13.408012545474003 0 0 0
296 1 1 -0.088964 25.043528535581657 16.127764286255147 12.44304141046484 0 0 0
316 1 4 0.045503 24.632063736017436 16.496734290526152 13.388551804931645 0 0 0
317 1 4 0.045503 26.12047413043839 15.9716999398986 12.576966858188415 0 0 0
280 1 5 0.160636 24.405196916148636 14.242236329723823 16.901112984538713 0 0 0
261 1 2 -0.09836399999999999 24.904546542727374 12.241573559231655 17.537185774625286 0 0 0
1678 49 8 0.32 16.536573273363725 20.878055024020142 12.347028949838416 0 0 1
223 1 2 -0.09836399999999999 22.15632015483434 18.33900085315251 13.067458916875916 0 0 0
236 1 5 0.137136 22.62845701050953 19.237002977051425 13.458843465016937 0 0 0
242 1 6 0.102614 19.94754275903589 20.088144272586856 12.806901552931327 0 0 0
228 1 1 0.090236 20.241073865984706 20.940831170365694 12.192028451879214 0 0 0
243 1 6 0.102614 21.07717275238062 21.47346654244591 12.646603122609111 0 0 0
493 2 6 0.100836 16.742733020165662 25.731120414200234 12.570835276364946 0 0 1
498 2 6 0.102614 17.543314149822557 27.918977409690303 14.067467940290268 0 0 1
482 2 3 -0.6068 18.37272678655521 27.076039270285843 12.249886875149931 0 0 1
368 2 5 0.137136 23.55488146241382 26.55890387509907 12.011764796462467 0 0 1
1689 55 7 -1.32 21.32680860894157 26.72131896705076 14.282375616240346 0 -2 1
1690 55 8 0.32 21.5528694057389 25.961203741090223 14.867578659752063 0 -2 1
497 2 6 0.102614 19.497054776064193 25.2383564589194 12.481996699459993 0 0 1
484 2 1 0.090236 18.363408211433743 27.263228649893833 13.77246283779582 0 0 1
499 2 6 0.102614 19.320152165998554 27.69518158184533 14.078092248295995 0 0 1
500 2 6 0.102614 18.269333319218383 26.287857557866147 14.255008546813372 0 0 1
496 2 6 0.102614 20.50130299830247 26.67874282953627 12.268867505469231 0 0 1
379 2 6 0.102614 23.03188354686906 28.101008019621844 14.42897890946877 0 0 1
361 2 1 0.090236 23.39616381554887 29.095221870502236 14.152344792792086 0 0 1
377 2 6 0.102614 24.335844590056507 28.99275454884295 13.607162421698563 0 0 1
369 2 6 0.100836 21.697132587803555 27.936950242463276 12.399893347490156 0 0 1
371 2 6 0.102614 20.753840255913985 28.8102898007279 14.317729845255489 0 0 1
378 2 6 0.102614 23.534304591201064 29.69450175448863 15.052783437993057 0 0 1
372 2 6 0.102614 20.25419557563857 30.205182747082898 13.322142650133692 0 0 1
358 2 3 -0.6068 22.35397447864359 29.75453660590327 13.24430741356281 0 0 1
359 2 1 0.090236 21.022818934310965 29.818068882431344 13.9954823266277 0 0 1
373 2 6 0.102614 21.120071167831938 30.46635656310147 14.866218755031364 0 0 1
360 2 1 0.090236 22.739557667909086 31.164590191551923 12.805792300745598 0 0 1
374 2 6 0.102614 23.69624002784707 31.12807456550914 12.283398103612125 0 0 1
375 2 6 0.102614 22.80675660954733 31.81305189786494 13.680329816919922 0 0 1
347 2 6 0.102614 30.839078213644765 32.25644270719307 11.506096123198946 0 0 1
343 2 6 0.102614 32.75923747545856 30.689313289406634 12.13766910010743 0 0 1
328 2 1 0.090236 33.407304364932656 31.550656850416914 12.306590320198351 0 0 1
326 2 3 -0.6068 32.94005215371192 32.711245062504446 11.421478315881592 0 0 1
327 2 1 0.090236 33.835652953922924 33.93171730162295 11.631458714858564 0 0 1
329 2 1 0.090236 31.488943755809267 33.1094969246859 11.709116125261248 0 0 1
346 2 6 0.102614 31.392501512327527 33.42625817270579 12.74805454871466 0 0 1
344 2 6 0.102614 34.428698311087274 31.281597592952036 12.026395506941332 0 0 1
345 2 6 0.102614 33.374754905773834 31.84683838672994 13.35570876494651 0 0 1
340 2 6 0.102614 33.77688527126568 34.25881441667849 12.670224185085651 0 0 1
342 2 6 0.102614 34.86330386660499 33.665704971959386 11.373309343392133 0 0 1
341 2 6 0.102614 33.48737149783775 34.7329145446644 10.972751627701005 0 0 1
118 1 6 0.102614 13.197767608060516 5.605209965288415 17.79354461989743 0 0 0
185 1 6 0.102614 17.57525319826217 4.96716228745657 19.053554734678826 0 0 0
183 1 6 0.102614 18.369943048736356 5.102280054434048 17.462866489542495 0 0 0
180 1 6 0.102614 20.537117986920794 4.124148130974536 18.5237250648126 0 0 0
181 1 6 0.102614 19.736213467804006 4.0385140446137004 20.123170480065596 0 0 0
166 1 1 0.090236 20.315977447803117 4.666352852714728 19.44475307838815 0 0 0
182 1 6 0.102614 21.25325445769047 4.966472807681724 19.929008584863134 0 0 0
848 3 6 0.102614 40.97929950851971 3.697078705495031 22.326791640990166 0 1 0
833 3 1 0.090236 41.35478099717553 4.386019262199923 23.084062362744643 0 1 0
843 3 6 0.100836 39.015779644294696 3.545742372018173 23.637213117677263 0 1 0
830 3 1 0.188236 39.151054904673025 4.441418535536469 24.24414678529392 0 1 0
841 3 5 0.137136 36.77995113933891 4.01322830327915 22.89472933437697 0 1 0
847 3 6 0.102614 41.735517333731266 3.825708489186416 23.942787690785487 0 1 0
849 3 6 0.102614 42.150045185557836 5.010318982547861 22.66748995331807 0 1 0
907 3 6 0.102614 42.849509693299275 9.711977507218158 23.840226769364257 0 1 0
894 3 1 0.090236 42.76658622820543 10.49817398707873 24.598686490707312 0 1 0
119 1 6 0.102614 14.834154159934148 6.244023887933773 17.484901411204735 0 0 0
104 1 1 0.090236 13.79421130670389 6.512261648438906 17.69058380020405 0 0 0
120 1 6 0.102614 13.748472299154038 7.105599975981495 18.605700706510735 0 0 0
167 1 1 0.090236 18.190938086475462 5.603538259251934 18.417407841425852 0 0 0
184 1 6 0.102614 17.648995389500143 6.525169970296344 18.195104276110545 0 0 0
112 1 5 0.137136 16.295217701278084 7.977248385234834 17.747338567949313 0 0 0
99 1 2 -0.09836399999999999 15.76904441874737 8.80955244573579 18.205799101383136 0 0 0
106 1 2 -0.09836399999999999 13.912926859595528 10.370336070366028 18.186669354104865 0 0 0
98 1 2 -0.120364 16.276956058663416 9.408564156569197 19.35968592615102 0 0 0
97 1 2 -0.011164 15.622321172733818 10.51218839010462 19.936249297147373 0 0 0
107 1 2 -0.120364 14.427074714392873 10.983137586915797 19.347391023302983 0 0 0
139 1 4 0.046836 18.20288031473722 11.034229309437864 20.213056619447162 0 0 0
125 1 5 0.160636 13.902761731357172 11.832742355467605 19.774175581095285 0 0 0
111 1 5 0.160636 17.204457291984824 9.0320957674752 19.77655325373983 0 0 0
96 1 1 -0.036264 16.251529938484953 11.222073651315807 21.137113301705647 0 0 0
108 1 4 0.046836 15.43350823479166 9.68179801362058 22.43644576589834 0 0 0
109 1 4 0.046836 17.16568920572828 9.552422438106792 22.184168275505034 0 0 0
95 1 1 -0.07226399999999999 16.356586060061648 10.270653485338267 22.365101652687766 0 0 0
65 1 1 -0.036264 16.58783323209313 10.981503442090395 23.73162170717218 0 0 0
1592 6 8 0.32 22.92232316897428 6.530242939617353 21.375836853592066 0 0 0
1591 6 7 -1.31955 22.444367754763025 6.85003733574642 20.575685308620297 0 0 0
176 1 6 0.100836 20.449176783925 6.2966502828474935 17.221590083136263 0 0 0
164 1 3 -0.6068 19.52629689236497 5.9345948440618566 19.11309996362213 0 0 0
163 1 1 0.188236 20.408111005754957 6.784299385313986 18.197396409763602 0 0 0
175 1 6 0.100836 21.41372704977701 6.76113187226158 18.626532612535833 0 0 0
165 1 1 0.090236 19.30190353552868 6.698550526321419 20.42380657912585 0 0 0
179 1 6 0.102614 20.27596663054878 6.917233623805269 20.871238894177573 0 0 0
159 1 2 -0.011164 19.21458823563301 10.934676458148905 17.816734986847383 0 0 0
160 1 2 -0.120364 20.265646514158593 10.5668939892617 18.68024236400637 0 0 0
162 1 2 -0.188164 19.985596611525395 8.230932390614267 18.042795428788807 0 0 0
161 1 2 -0.09836399999999999 20.624236843588662 9.216164773305795 18.811016444812775 0 0 0
174 1 5 0.137136 21.394293407668414 8.916567549148395 19.51778291097441 0 0 0
274 1 6 0.102614 23.287461467285958 10.406025728605394 19.45631402640989 0 0 0
177 1 6 0.102614 18.793590094239228 7.6380119241973885 20.20404468721374 0 0 0
275 1 6 0.102614 23.34308434283941 8.971156340818856 20.52926304741051 0 0 0
276 1 6 0.102614 23.119367660153518 8.77922048719081 17.52740073956162 0 0 0
277 1 6 0.102614 23.27086543956744 7.404235563660836 18.655195861165577 0 0 0
278 1 6 0.102614 24.420043851501045 7.564245540888422 17.30107933034021 0 0 0
260 1 1 0.090236 23.82063935987372 8.111187845643835 18.03018494268877 0 0 0
259 1 1 0.090236 23.940280917559267 9.693703162854161 19.96230167412272 0 0 0
178 1 6 0.102614 18.708115312146425 6.093028403632097 21.109254507521587 0 0 0
1633 27 7 -1.32 28.240371732032322 9.04675320482974 18.95736607791409 1 -1 -1
1634 27 8 0.32 29.22323273863344 9.06363573254057 18.947721643679472 1 -1 -1
257 1 3 -0.6068 24.749333814332502 8.932572344986415 18.92047018862125 0 0 0
273 1 6 0.102614 24.626637359303118 10.214839901240213 20.632396454410284 0 0 0
256 1 1 0.188236 25.650927531665843 9.874562569985995 18.10716581684641 0 0 0
268 1 6 0.100836 26.30566192250637 10.39024618646534 18.816315562683524 0 0 0
258 1 1 0.090236 25.670303198277384 7.9597551138645235 19.667485578791336 0 0 0
272 1 6 0.102614 25.065347433661437 7.258814887050367 20.249404050343713 0 0 0
271 1 6 0.102614 26.29813874916163 7.430435900981971 18.94660876041328 0 0 0
270 1 6 0.102614 26.343222989954246 8.528619210977142 20.315628102463336 0 0 0
840 3 5 0.160636 34.57926846739868 5.090250087786033 23.298063920133266 0 1 0
839 3 4 0.069836 33.390159916290536 7.042699095600527 24.21220606390387 0 1 0
900 3 4 0.046836 34.07240807654787 9.56470407106707 22.938655961919746 0 1 0
886 3 1 -0.07226399999999999 34.16883515515936 10.219871522885274 23.81336414471489 0 1 0
852 3 6 0.102614 40.491666309059276 6.597575406500478 21.868020681373615 0 1 0
850 3 6 0.102614 39.155530044148165 5.425192185635203 21.68365218975878 0 1 0
834 3 1 0.090236 39.66629399885295 6.093262392541386 22.376651617518853 0 1 0
831 3 3 -0.6068 40.224394988907505 5.293788327523808 23.561039893754074 0 1 0
851 3 6 0.102614 38.97687092767056 6.8516640228119865 22.752412754311322 0 1 0
828 3 2 -0.09836399999999999 36.68135421158828 4.758353154683392 23.679760956801072 0 1 0
829 3 2 -0.188164 37.79960834028745 5.114845020091285 24.45534017208348 0 1 0
832 3 1 0.090236 40.847186312244176 6.265887152665935 24.567270775472235 0 1 0
827 3 2 -0.120364 35.43169984756571 5.366012384036428 23.913025140334835 0 1 0
903 3 5 0.137136 39.02167447626289 9.488904267468348 22.28398215277829 0 1 0
870 3 4 0.069836 35.62422007798991 8.822423193456517 24.421673281108177 0 1 0
902 3 5 0.160636 36.52332380866562 9.583130510403077 22.207115843739654 0 1 0
890 3 2 -0.09836399999999999 38.48638363498163 10.339756202647916 22.707813697094224 0 1 0
889 3 2 -0.120364 37.078254243233836 10.393792824389353 22.668265942464927 0 1 0
1669 45 7 -1.32 41.5838290774256 8.37105444090622 22.456910520900834 0 0 0
1670 45 8 0.32 42.194267414823116 8.486999227112191 21.69270880515265 0 0 0
914 3 6 0.102614 40.78820868615973 8.79078519200982 24.451852153367653 0 1 0
893 3 3 -0.6068 41.289862194811434 10.840391316106743 24.77070024439703 0 1 0
844 3 6 0.102614 41.65850952563894 6.813649093403185 24.077925748949944 0 1 0
905 3 6 0.100836 41.07988477942477 10.538890586900003 22.678118397793536 0 1 0
906 3 6 0.102614 43.31242560703003 11.386509268186844 24.277423737658992 0 1 0
82 1 6 0.100836 11.155116817396893 14.180901346855622 24.59997513266702 0 0 0
69 1 2 -0.188164 13.125038060382067 13.35597098789252 24.923969766584516 0 0 0
141 1 4 0.069836 16.655586584069077 12.937160950142164 19.163525440499793 0 0 0
157 1 1 -0.07226399999999999 18.74438159179934 13.310039008395814 18.878497575745463 0 0 0
126 1 1 -0.07226399999999999 17.63286532216903 11.812985624920902 20.719122995377052 0 0 0
127 1 1 -0.036264 17.521535023384196 13.077375937813251 19.821812353579304 0 0 0
140 1 4 0.046836 18.23242554259251 12.055832363747944 21.601463428054338 0 0 0
110 1 4 0.069836 15.597474254573335 12.052752970602914 21.421382729253082 0 0 0
81 1 5 0.137136 14.167175191585939 14.995414375485252 23.95926852059704 0 0 0
156 1 5 0.160636 15.193125197955657 14.537074201400895 20.032033850614464 0 0 0
138 1 2 -0.120364 15.95848029672444 14.885674406566077 20.719671752910187 0 0 0
155 1 5 0.137136 14.651874601767021 16.340651524827464 21.65201214726068 0 0 0
137 1 2 -0.09836399999999999 15.64748864087895 15.903989485468264 21.639098310559874 0 0 0
170 1 4 0.046836 18.68062984850649 14.347667071130207 18.53008520046991 0 0 0
128 1 2 -0.011164 17.23496048119281 14.285593430127305 20.719785299390374 0 0 0
129 1 2 -0.120364 18.20570955466557 14.74597430724109 21.63375555125445 0 0 0
131 1 2 -0.188164 16.607531006902068 16.31970636627176 22.57652152374715 0 0 0
130 1 2 -0.09836399999999999 17.891956006132936 15.75051639250245 22.561220272333586 0 0 0
143 1 5 0.137136 18.64094942021743 16.081682013270196 23.283996987540704 0 0 0
68 1 2 -0.09836399999999999 14.182669125666552 13.939101888232306 24.204488948228153 0 0 0
67 1 2 -0.120364 15.29586133596717 13.165092085439204 23.842685422244816 0 0 0
80 1 5 0.160636 16.127577120479504 13.640716724753888 23.334126511506106 0 0 0
66 1 2 -0.011164 15.35431681505431 11.791120103165976 24.14781842232275 0 0 0
79 1 4 0.069836 17.41040332508461 11.690131749479804 23.59302867094965 0 0 0
173 1 5 0.160636 20.79358822320807 11.31289280984822 19.26376295043322 0 0 0
142 1 5 0.160636 19.195083927053957 14.29967585414249 21.659212525922122 0 0 0
171 1 4 0.046836 19.682020562925455 13.24646771778062 19.4408031862392 0 0 0
279 1 5 0.137136 25.307557583394114 12.566900505405142 18.493713144802697 0 0 0
954 3 4 0.045503 31.42685225318058 12.449348743566294 22.44917727100379 0 1 0
933 3 4 0.069836 33.077044564802065 13.986552396002532 21.560225960205887 0 1 0
952 3 4 0.045503 32.10924256781868 12.554500219825512 24.07903805706976 0 1 0
953 3 4 0.045503 31.356577656550684 13.981856340025974 23.33603660683668 0 1 0
932 3 1 -0.088964 31.978102078436688 13.1000611043927 23.138721648015157 0 1 0
918 3 1 -0.036264 33.334991025875496 13.520508878973274 22.51984116480501 0 1 0
919 3 2 -0.011164 34.09832507382674 14.583362125390266 23.342277148079777 0 1 0
899 3 4 0.046836 33.145602608225765 10.458752926174522 24.12388026359162 0 1 0
934 3 5 0.160636 33.219586451954925 14.10021685193227 25.281801696520787 0 1 0
920 3 2 -0.120364 33.92171769184989 14.722075333556914 24.73778948568507 0 1 0
931 3 4 0.046836 33.6599872856193 11.576225220031464 21.565405431877412 0 1 0
917 3 1 -0.07226399999999999 34.233419080719116 12.288993327766702 22.17108575241968 0 1 0
929 3 2 -0.120364 35.04999013011328 15.40900319828076 22.704924658344055 0 1 0
948 3 5 0.160636 35.21264138298329 15.313717524853402 21.634958160759634 0 1 0
928 3 2 -0.09836399999999999 35.821249323602125 16.33115992139056 23.44172712635554 0 1 0
922 3 2 -0.188164 35.65466207895894 16.436039235504175 24.83439296792565 0 1 0
892 3 1 0.188236 40.734246095755765 11.277032239123944 23.408329660432805 0 1 0
887 3 1 -0.036264 34.87050708707602 11.551818199216168 23.388499557366384 0 1 0
888 3 2 -0.011164 36.39754399373459 11.475778302686313 23.263773896927333 0 1 0
891 3 2 -0.188164 39.21979391043842 11.373312833252863 23.320035113846117 0 1 0
898 3 2 -0.120364 37.14551791715095 12.516853697588749 23.83655289918288 0 1 0
897 3 2 -0.09836399999999999 38.54712528029323 12.475546894897773 23.864379709900224 0 1 0
930 3 4 0.046836 35.03958327386218 12.643137947167338 21.51622487639982 0 1 0
916 3 5 0.160636 36.616971692886814 13.339242971815393 24.301075576177542 0 1 0
901 3 4 0.069836 34.68517644838288 12.206388280674497 24.241717125919514 0 1 0
915 3 5 0.137136 39.11264014303558 13.275967211481175 24.338526020381593 0 1 0
947 3 5 0.137136 36.57321403779812 16.930751746975382 22.936879273127467 0 1 0
904 3 6 0.100836 41.18882862523218 12.235693250865912 23.152418543079047 0 1 0
895 3 1 0.090236 41.11080816620815 11.919060694111275 25.854771613722484 0 1 0
909 3 6 0.102614 41.68174423736826 12.817507091037463 25.60748235001749 0 1 0
147 1 6 0.102614 15.106303311006302 19.063716984303483 21.898058277850986 0 0 0
148 1 6 0.102614 14.625829749410192 19.42766272473628 23.582007384801795 0 0 0
134 1 1 0.090236 15.42256032678165 19.52402252251539 22.83518023766059 0 0 0
146 1 6 0.102614 15.66039835533869 20.578129497933872 22.68543348274007 0 0 0
151 1 6 0.102614 17.610008382841507 18.438703219585555 21.46698014381747 0 0 0
145 1 6 0.100836 15.200957307532438 17.314452741747832 23.88592131177129 0 0 0
132 1 1 0.188236 16.268791546133105 17.336076775160336 23.653057208030564 0 0 0
144 1 6 0.100836 16.77113136354963 17.048775332421204 24.57482285900946 0 0 0
153 1 6 0.102614 16.190890911667605 19.409662007841206 25.37832282750208 0 0 0
136 1 1 0.090236 17.053204949475838 19.413754013069262 24.707156311945017 0 0 0
133 1 3 -0.6068 16.650753113357904 18.792791598707293 23.369698012873695 0 0 0
154 1 6 0.102614 17.409523870237095 20.43217608281753 24.551862206236756 0 0 0
1653 37 7 -1.32 19.888179108478916 18.096568644995372 24.689781988897938 0 -1 1
1654 37 8 0.32 20.84177976203478 18.244389840487862 24.49067468210232 0 -1 1
1597 9 7 -1.32 40.80240632778375 14.734866748239565 26.62841275949328 1 1 -1
1598 9 8 0.32 41.716560932066564 15.097146761309242 26.68732245052461 1 1 -1
939 3 6 0.102614 37.53225804668382 14.828280185306076 24.9608837217915 0 1 0
942 3 6 0.102614 38.680915359673676 16.676507895666543 23.933043599814717 0 1 0
941 3 6 0.102614 39.93889951730114 16.449867522378018 25.180294881667766 0 1 0
926 3 1 0.090236 39.02273383897027 16.993729155444086 24.919113581071837 0 1 0
1658 39 8 0.32 16.32180539614499 38.56917236845641 21.555809456990946 -1 -1 -1
1618 19 8 0.32 32.98236577131277 34.86921893897169 23.102406579309168 0 2 0
1657 39 7 -1.32 16.648046766377483 38.88416396898626 22.42947926805493 -1 -1 -1
1332 5 6 0.102614 15.757021887092197 40.187675956054406 23.975995830171936 0 -1 0
1329 5 6 0.102614 18.07792389675535 40.15610258099757 23.34902544409434 0 -1 0
1617 19 7 -1.32 33.76751835639168 35.41456735723817 23.344115141114344 0 2 0
694 3 6 0.102614 32.942199520156265 39.06565965187186 23.813651049950064 0 0 0
678 3 1 0.090236 33.707427095974296 38.380804960895034 24.18158156645986 0 0 0
691 3 6 0.102614 34.1913561366143 37.04360049014114 21.92936699053706 0 0 0
690 3 6 0.102614 33.81467711635086 38.729746778282525 21.495750081141782 0 0 0
696 3 6 0.102614 35.56580272269775 36.47576594841745 23.785891201036588 0 0 0
677 3 1 0.090236 34.58590008534736 38.065011187550475 21.88868360769299 0 0 0
676 3 3 -0.6068 34.97015815884566 38.49515015905489 23.312818144327753 0 0 0
689 3 6 0.102614 35.467175333795716 38.08156769596757 21.245353531397747 0 0 0
688 3 6 0.100836 34.7506601854853 40.61248227086263 23.038271353862235 0 0 0
687 3 6 0.100836 36.33701756859901 39.97631792984507 22.59109840459256 0 0 0
679 3 1 0.090236 35.99748138197116 37.476897143601626 23.840662125868427 0 0 0
675 3 1 0.188236 35.54179263738879 39.92137343368365 23.338289461888913 0 0 0
697 3 6 0.102614 36.90097046975438 37.51365674184241 23.231090670088772 0 0 0
686 3 5 0.137136 38.1205052558448 39.693074691505046 24.2274458497497 0 0 0
721 3 6 0.102614 1.2870375366480489 3.1932142992963746 29.865762195161746 1 1 0
720 3 6 0.102614 1.4532824261950101 1.8112588670848178 30.96786059616738 1 1 0
708 3 1 0.090236 1.352979340758804 2.103675056982059 29.921603366991977 1 1 0
726 3 6 0.102614 0.8478575590189804 1.5960767014624906 27.334922410589073 1 1 0
723 3 6 0.102614 1.0997482548715447 42.998532800012015 28.89560553295295 1 0 0
722 3 6 0.102614 2.2214328870669044 1.7280361207136532 29.373240610325265 1 1 0
709 3 1 0.090236 0.2195917254668522 43.31595072797081 29.46383939505681 1 0 0
724 3 6 0.102614 0.38543050711512233 43.05369797805517 30.51017124000921 1 0 0
776 3 4 0.046836 35.569404102415675 1.8833111427270979 28.088474810678854 0 1 0
807 3 4 0.046836 33.336567579886704 3.523617275060096 27.37055588662352 0 1 0
806 3 4 0.046836 34.82151800823438 4.0597858426572815 26.617401419927315 0 1 0
715 3 4 0.069836 36.558021951194135 43.13677104103532 28.50277749771454 0 0 0
731 3 1 -0.07226399999999999 35.95201688014244 0.3922134065356445 30.4713933358605 0 1 0
775 3 4 0.046836 34.095117603985976 1.9061032378982228 29.03714994897424 0 1 0
762 3 1 -0.07226399999999999 35.10381461794468 2.332197557177527 28.97268599439434 0 1 0
732 3 1 -0.036264 35.89549480075112 1.9290806304293464 30.24689765363122 0 1 0
777 3 4 0.069836 34.38552792711165 4.228954101812384 29.623404139622952 0 1 0
763 3 1 -0.036264 34.974262695588294 3.868967480097693 28.771359771412207 0 1 0
745 3 4 0.046836 34.93971955591285 43.33511396456053 30.381644483632982 0 0 0
1643 32 7 -1.32 41.50711837610834 3.5490511188076828 26.186577942398415 1 2 1
842 3 6 0.100836 39.56703030731624 4.111290103396809 25.202111836527784 0 1 0
716 3 5 0.160636 38.39938633505582 0.9987147335616813 27.662822965295987 0 1 0
703 3 2 -0.120364 38.92614603938728 0.8643082503128178 28.601799060023588 0 1 0
717 3 5 0.137136 40.58856461171392 2.066152981280216 27.950324438065888 0 1 0
704 3 2 -0.09836399999999999 40.18456329222095 1.4647423461218736 28.76118838484081 0 1 0
778 3 5 0.160636 37.35051153150197 3.180892780069102 27.487765228261615 0 1 0
701 3 1 -0.036264 36.90651360053247 42.96862931689943 29.527603586115987 0 0 0
702 3 2 -0.011164 38.338819719110326 0.1426759202220994 29.65804840001369 0 1 0
712 3 2 -0.120364 39.05320142371498 0.005633907143028601 30.865775566625107 0 1 0
711 3 2 -0.09836399999999999 40.3273840778598 0.5757655258087178 31.010401648026097 0 1 0
705 3 2 -0.188164 40.89899746869691 1.3162502979421369 29.963797649538517 0 1 0
746 3 4 0.069836 36.927449530930616 2.2699602455754064 30.107943090072936 0 1 0
765 3 2 -0.120364 37.43256066142823 4.091740951948595 28.068378488407628 0 1 0
786 3 6 0.102614 41.19874052368226 4.281969170433281 28.58895190484663 0 1 0
706 3 1 0.188236 42.24634619042737 2.0011208892134884 30.172089655351023 0 1 0
718 3 6 0.100836 42.160265929185734 3.0719713917347105 29.98293229293589 0 1 0
779 3 5 0.137136 39.487979639114585 4.382553662094343 27.484021212833643 0 1 0
728 3 6 0.102614 42.42974334078875 1.4156074593070038 27.420904727521663 0 1 0
788 3 6 0.102614 40.18644090486415 4.98385981522469 30.74238221376394 0 1 0
1644 32 8 0.32 42.40373258718792 3.580169214387635 25.781836047883925 1 2 1
707 3 3 -0.6068 0.07407036931694339 1.4806519724867802 29.34489423861449 1 1 0
719 3 6 0.100836 42.54041778700413 1.9310632127953062 31.221662420948196 0 1 0
725 3 6 0.102614 42.67536963088679 42.82931552357935 29.082317448658827 0 0 0
710 3 1 0.090236 43.300770234944565 1.8932138303186654 27.872732512514244 0 1 0
727 3 6 0.102614 43.16950467992157 2.975505590601597 27.803704790048506 0 1 0
785 3 6 0.102614 42.769496442626064 4.758286098075201 29.281671744951606 0 1 0
908 3 6 0.102614 43.15953448553956 10.133934278924137 25.550063038736578 0 1 0
94 1 5 0.160636 14.301296986361086 10.15418258998458 25.111755217553753 0 0 0
77 1 4 0.046836 18.06455423100267 9.598863358328181 24.456677031737865 0 0 0
64 1 1 -0.07226399999999999 17.100409012651202 9.981112162206442 24.812945990801634 0 0 0
78 1 4 0.046836 16.435100834281005 9.109937794274845 24.854709563159425 0 0 0
46 1 4 0.046836 19.087988877841205 9.32499675335843 26.456878620612358 0 0 0
16 1 4 0.046836 20.348264131151396 8.667631743083659 28.570570812535966 0 0 0
33 1 1 -0.07226399999999999 18.253210750524552 9.638674647928301 27.095792828001613 0 0 0
34 1 1 -0.036264 17.285347457766537 10.537762824890375 26.262406950917857 0 0 0
48 1 4 0.069836 16.307890659141695 10.429141828269874 26.74788344323427 0 0 0
17 1 4 0.069836 19.651526435704657 10.951893555650948 28.032057331791446 0 0 0
15 1 4 0.046836 18.91203440915665 8.42165723415703 29.557209322118876 0 0 0
1 1 1 -0.07226399999999999 19.624819931541357 9.182385384206313 29.215465218340253 0 0 0
2 1 1 -0.036264 18.878649830039958 10.257123628625255 28.382536925753964 0 0 0
47 1 4 0.046836 17.717111725933094 8.718619222277654 27.359565626358492 0 0 0
3 1 2 -0.011164 17.895667607143153 11.049621516466532 29.247603244121194 0 0 0
313 1 4 0.045503 20.933555552702455 8.953166543622924 30.94807652204092 0 0 0
314 1 4 0.045503 21.08585637144639 10.526522864932527 30.136928617416682 0 0 0
14 1 1 -0.09496400000000001 20.375284130477247 9.748987983183378 30.440825784580216 0 0 0
315 1 4 0.045503 19.675535919239188 10.185121418374074 31.16423331190402 0 0 0
825 3 1 -0.036264 33.89852829970106 6.969724694556355 25.18219900811117 0 1 0
826 3 2 -0.011164 35.27501538309862 6.31955544307161 24.939205686442858 0 1 0
856 3 1 -0.036264 34.88214357940869 9.420996593933918 24.95816701596188 0 1 0
837 3 4 0.046836 32.74655222290813 5.155579344349772 25.537414152274994 0 1 0
838 3 4 0.046836 32.05015245530087 6.584670911066871 26.25703687363892 0 1 0
824 3 1 -0.07226399999999999 33.0040365329055 6.068349332184218 26.08880428242306 0 1 0
793 3 1 -0.07226399999999999 34.17352703244342 4.22097409642656 27.488035604358338 0 1 0
809 3 5 0.160636 31.504015317462347 4.184655211476785 28.497694363424102 0 1 0
794 3 1 -0.036264 33.632932179031904 5.68271364660407 27.465741678904074 0 1 0
868 3 4 0.046836 32.946040507105465 8.841947159260172 25.778602739671523 0 1 0
810 3 5 0.137136 30.10385402135077 4.694890245659127 30.478528197296782 0 1 0
797 3 2 -0.09836399999999999 30.882750039276907 5.390789480849644 30.163125598557762 0 1 0
796 3 2 -0.120364 31.681435790903766 5.105072694354571 29.04325048532741 0 1 0
795 3 2 -0.011164 32.697145658211305 5.998862335046946 28.641722535921424 0 1 0
805 3 2 -0.120364 32.87065717571214 7.197998779001207 29.36468671704742 0 1 0
823 3 5 0.160636 33.63423385954344 7.910458146499098 29.06674484980062 0 1 0
855 3 1 -0.07226399999999999 33.96203800651175 8.430627712118742 25.732179607866485 0 1 0
808 3 4 0.069836 34.51429966871844 6.312505129831463 27.604589650365504 0 1 0
869 3 4 0.046836 34.29678400268879 8.398854808658584 26.77412806376057 0 1 0
846 3 6 0.102614 40.0922377034519 6.979571707056243 24.892764443805085 0 1 0
835 3 2 -0.09836399999999999 37.65214298927958 6.084137000600764 25.454831949052714 0 1 0
836 3 2 -0.120364 36.40209754316102 6.652678771664377 25.72012421176235 0 1 0
853 3 5 0.137136 38.506326468286495 6.382764963650445 26.05243478867193 0 1 0
845 3 6 0.102614 41.23295104903911 5.701276711104494 25.421249563148606 0 1 0
912 3 6 0.102614 39.52253465518239 9.743609987045707 25.263338204123503 0 1 0
896 3 1 0.090236 40.59269856183825 9.557049417836314 25.203596036098986 0 1 0
854 3 5 0.160636 36.32753034966349 7.359437965675554 26.539998451344754 0 1 0
871 3 5 0.160636 37.525769658984316 9.200775589033624 25.599304237082894 0 1 0
764 3 2 -0.011164 36.32570415961071 4.595761611511161 28.780908165872823 0 1 0
774 3 2 -0.120364 36.4677830088817 5.808792333834057 29.483908679050067 0 1 0
766 3 2 -0.09836399999999999 38.655505421747314 4.777469069250845 28.06463908703145 0 1 0
767 3 2 -0.188164 38.77711962229654 6.007864116771942 28.731251050827172 0 1 0
792 3 5 0.160636 35.627338312764124 6.214181148811514 30.040575614671923 0 1 0
773 3 2 -0.09836399999999999 37.68154383031231 6.516813033808381 29.448228629547547 0 1 0
768 3 1 0.188236 40.05904964686839 6.824038838464367 28.630431191131358 0 1 0
781 3 6 0.100836 40.36895642599332 6.934848660990744 27.589514827667116 0 1 0
857 3 2 -0.011164 35.674758114697134 10.282637972226325 25.94745625489533 0 1 0
858 3 2 -0.120364 37.04774111542724 10.022670433011987 26.121039406199035 0 1 0
769 3 3 -0.6068 41.257600617000485 6.2846297222986545 29.413419074153275 0 1 0
913 3 6 0.102614 40.973253507892714 9.24458731706844 26.179369308580558 0 1 0
771 3 1 0.090236 41.9130731521413 5.100395423794889 28.69217248527301 0 1 0
787 3 6 0.102614 42.23477092195379 5.397722232117452 27.691607099691684 0 1 0
1620 20 8 0.32 11.016966801133146 12.29238174948355 28.302579326870884 2 2 -1
1619 20 7 -1.32 11.662682602738519 13.034747105423017 28.32937396397533 2 2 -1
93 1 5 0.137136 12.396151401211073 11.545864888646333 25.85031738064114 0 0 0
75 1 2 -0.09836399999999999 13.192363224790167 11.991989206059097 25.255813858363787 0 0 0
91 1 6 0.102614 11.046450652096135 15.036587977139588 27.764984025838988 0 0 0
83 1 6 0.100836 11.457531843977252 13.557861141567193 26.209013519159946 0 0 0
70 1 1 0.188236 11.901350912552962 14.137258760521549 25.394309540359313 0 0 0
92 1 6 0.102614 9.998510222992959 15.719295510018878 26.497954824991535 0 0 0
89 1 6 0.102614 11.128985992319118 16.542238351498334 24.27573573812274 0 0 0
74 1 1 0.090236 10.972455978121006 15.798067804699881 26.982929057206256 0 0 0
85 1 6 0.102614 13.496601509011523 14.792847442025852 27.351569748549064 0 0 0
84 1 6 0.102614 14.235088785122498 15.681974110758626 25.98638547353304 0 0 0
72 1 1 0.090236 13.412476228686721 15.66462815587153 26.70229533275453 0 0 0
71 1 3 -0.6068 12.084007611144811 15.559880655163367 25.954198424314967 0 0 0
90 1 6 0.102614 11.09838933758031 16.78698616239254 27.42796668867907 0 0 0
73 1 1 0.090236 12.03981427029113 16.6385089403824 24.86727465458026 0 0 0
87 1 6 0.102614 12.081559414647234 17.620140229070014 25.347464864121985 0 0 0
86 1 6 0.102614 13.442244416647412 16.595231389163697 27.27434533191041 0 0 0
76 1 2 -0.120364 14.28383189423835 11.207321477287866 24.85134480127365 0 0 0
88 1 6 0.102614 12.924697717710687 16.554305473126416 24.23558119221119 0 0 0
45 1 2 -0.120364 18.85882208354319 12.527506751438212 25.84059666004932 0 0 0
38 1 2 -0.188164 18.166124344866983 14.804130644339477 26.396372909640085 0 0 0
35 1 2 -0.011164 17.625368779097762 12.029932903116281 26.299771518775223 0 0 0
49 1 5 0.160636 15.70018507060127 12.572906014020111 27.14303268399636 0 0 0
36 1 2 -0.120364 16.66493950332567 12.932931335419296 26.794469342961502 0 0 0
37 1 2 -0.09836399999999999 16.929115181869957 14.3057368292274 26.83713672192606 0 0 0
50 1 5 0.137136 16.164846036237584 14.969637899422903 27.217277821043243 0 0 0
63 1 5 0.160636 19.605535681267757 11.846890932838686 25.44379179428725 0 0 0
44 1 2 -0.09836399999999999 19.125825854170184 13.907131554707371 25.89059667352322 0 0 0
54 1 6 0.102614 17.805491236061247 15.509504247566905 29.00110252977528 0 0 0
52 1 6 0.100836 19.576096029420086 16.400036140315848 26.298891206670493 0 0 0
39 1 1 0.188236 18.493800324855425 16.293890928631626 26.41292018047574 0 0 0
41 1 1 0.090236 18.442865490318727 16.39382831465458 28.939122108530775 0 0 0
58 1 6 0.102614 16.033337667239866 16.6894254830511 28.060154516057 0 0 0
51 1 6 0.100836 18.08938269685446 16.791198029544645 25.53194376881857 0 0 0
40 1 3 -0.6068 18.11453999417499 17.140346795533254 27.64227378962723 0 0 0
42 1 1 0.090236 16.617366974143067 17.52360827175644 27.668441407747785 0 0 0
4 1 2 -0.120364 18.179606121324845 12.395999242369246 29.54670976863733 0 0 0
62 1 5 0.137136 20.077857642287082 14.287247353807663 25.526023960414143 0 0 0
53 1 6 0.102614 19.494675038569365 16.106895504247937 28.95597372315607 0 0 0
18 1 5 0.160636 19.068160844172677 12.873478181376116 29.144830897394016 0 0 0
1640 30 8 0.32 35.361455484992305 15.818506334339267 29.264499132396715 -1 1 -1
921 3 2 -0.09836399999999999 34.69779542313373 15.630404506333965 25.472682421935428 0 1 0
935 3 5 0.137136 34.59867231846519 15.670203777498807 26.55880159281952 0 1 0
885 3 5 0.160636 34.03037929775648 11.575514568765614 26.53217835525314 0 1 0
937 3 6 0.100836 36.717442651238905 18.283619863308985 25.313896153932436 0 1 0
923 3 1 0.188236 36.5836195102186 17.2768470043022 25.71229479822793 0 1 0
1639 30 7 -1.32 36.084811457851885 15.4381388109961 28.715643864569863 -1 1 -1
867 3 2 -0.120364 35.089794669160014 11.364659957268819 26.638276439814085 0 1 0
866 3 2 -0.09836399999999999 35.89797063503722 12.245072688538833 27.38036383995434 0 1 0
860 3 2 -0.188164 37.27978923323032 12.012795027664342 27.479915995716738 0 1 0
859 3 2 -0.09836399999999999 37.83977287769591 10.872076618176777 26.89766121149336 0 1 0
872 3 5 0.137136 38.904935983241174 10.683536896201991 27.00394421124947 0 1 0
884 3 5 0.137136 35.468960703087326 13.140215576031602 27.831352648255443 0 1 0
876 3 6 0.102614 37.65740227096407 11.119309545097666 29.928731568998234 0 1 0
863 3 1 0.090236 38.705840240205006 11.418325542995227 29.88754968897522 0 1 0
877 3 6 0.102614 39.22448510580201 10.795188547981802 29.156805830037882 0 1 0
882 3 6 0.102614 36.95118877486251 13.534551717063277 30.352575675813032 0 1 0
861 3 1 0.188236 38.20116230602505 13.070743775332815 28.053014086094276 0 1 0
873 3 6 0.100836 37.668953880377465 14.024428586362081 28.080788768496713 0 1 0
862 3 3 -0.6068 38.790883260637386 12.881636788170487 29.438208761785138 0 1 0
874 3 6 0.100836 39.04247402536889 13.210098417687155 27.365812683781698 0 1 0
879 3 6 0.102614 40.32650529128052 14.294129742456805 28.877546623589154 0 1 0
910 3 6 0.102614 40.05909957403574 12.195278692985363 25.936081660764863 0 1 0
878 3 6 0.102614 40.775195374166714 12.594511239610549 28.66438050340487 0 1 0
936 3 6 0.100836 36.115710562552295 17.3615836954349 26.6994577408921 0 1 0
875 3 6 0.102614 39.179886822267775 11.301126611757194 30.862214064754912 0 1 0
881 3 6 0.102614 38.06884656888895 14.83715696397818 29.978255541180754 0 1 0
865 3 1 0.090236 38.00717239931751 13.816611876692043 30.369405797297215 0 1 0
883 3 6 0.102614 38.407706196207506 13.770310461896793 31.381991570748518 0 1 0
880 3 6 0.102614 40.734478860599125 13.289846628940941 30.31126506912343 0 1 0
864 3 1 0.090236 40.264353514600224 13.298055356315166 29.32800396586604 0 1 0
911 3 6 0.102614 41.44025787214218 11.521649531557713 26.818069934920047 0 1 0
1663 42 7 -1.32 40.897597310288944 9.711849705869191 28.354337099044617 0 1 -1
1664 42 8 0.32 41.690300582416086 10.278391580408204 28.495815775651863 0 1 -1
135 1 1 0.090236 17.861424324900444 18.886799412445065 22.429266889681017 0 0 0
149 1 6 0.102614 18.15444656026156 19.930345403280636 22.305539226034117 0 0 0
152 1 6 0.102614 17.85652854601863 18.811315464354347 25.135077946172135 0 0 0
150 1 6 0.102614 18.69232435224447 18.33441804522318 22.87658565556366 0 0 0
1607 14 7 -1.32 14.259085249407999 18.341072148440766 25.596605956932553 1 0 0
1608 14 8 0.32 13.891798372047854 18.991886312425734 26.239205171461972 1 0 0
56 1 6 0.102614 16.262680730485826 17.79839213373996 26.670924100525973 0 0 0
59 1 6 0.102614 18.80880060821157 18.885147991065985 26.58848727235637 0 0 0
43 1 1 0.090236 18.96034045999403 18.415097632420252 27.56264294718187 0 0 0
61 1 6 0.102614 20.016979396472543 18.151214948500257 27.63800595945018 0 0 0
60 1 6 0.102614 18.676792513425053 19.09757008342099 28.36560652810363 0 0 0
57 1 6 0.102614 16.473987378744194 18.35766616923021 28.357289716645333 0 0 0
55 1 6 0.102614 18.200203759977587 17.027504274562112 29.79620453390471 0 0 0
943 3 6 0.102614 39.21206305608643 18.067951777788068 24.934290053955348 0 1 0
946 3 6 0.102614 38.6711772483953 18.064531437965385 27.432854159487587 0 1 0
938 3 6 0.102614 38.72898899613601 14.673665791403907 26.263841635097137 0 1 0
925 3 1 0.090236 37.794756091679616 15.143240071420726 25.965654806590738 0 1 0
940 3 6 0.102614 36.99866562568122 14.883521770165144 26.67052110410451 0 1 0
924 3 3 -0.6068 37.96310618790288 16.64320488168736 25.960547384505606 0 1 0
927 3 1 0.090236 38.48679709199556 16.993025539294646 27.357920745751713 0 1 0
945 3 6 0.102614 37.74925811606984 16.68675795772213 28.103716927175455 0 1 0
944 3 6 0.102614 39.414384649619535 16.43440088225375 27.525488895664974 0 1 0
1586 5 4 0.045503 11.413646224629026 37.22344308875855 27.149334885962517 0 -1 0
1325 5 6 0.102614 16.567024542158695 38.276019485395246 26.111033205570187 0 -1 0
1321 5 5 0.160636 15.771418877806948 37.94103589717618 29.980903060786314 0 -1 0
1327 5 6 0.102614 17.066868510490746 38.24471656511899 24.40873184236599 0 -1 0
1313 5 1 0.090236 17.332146882857106 38.60422577808952 25.406099799822822 0 -1 0
1322 5 5 0.137136 17.49500557678803 38.4209125984823 28.26988138703534 0 -1 0
1326 5 6 0.102614 18.307770094911167 38.203570759402474 25.680797454240533 0 -1 0
658 3 6 0.102614 36.33035001248868 33.45194209441746 23.208786205856285 0 0 0
1673 47 7 -1.32 38.215695026653535 31.520099410944287 27.808882345274213 -1 1 -1
660 3 6 0.102614 34.80026444825349 33.232766622027064 24.097319630659296 0 0 0
645 3 1 0.090236 35.81898006412742 33.623207086426326 24.15603748873221 0 0 0
662 3 6 0.102614 35.688180813761804 31.00298945323293 25.033279363625873 0 0 0
661 3 6 0.102614 37.22819995858626 31.00019641363491 25.930003284048755 0 0 0
646 3 1 0.090236 36.687594994123145 31.437224924283022 25.083841393081332 0 0 0
663 3 6 0.102614 37.23754734533433 31.23660310859659 24.163974218302446 0 0 0
659 3 6 0.102614 35.74393042352193 34.695936291918485 24.34247115917162 0 0 0
644 3 3 -0.6068 36.58052023463069 32.95080809005377 25.30394584233854 0 0 0
656 3 6 0.100836 34.80174740403626 32.89491481973391 26.49350473597898 0 0 0
657 3 6 0.100836 36.27676966359844 32.437888922930306 27.33935240355935 0 0 0
643 3 1 0.188236 35.85065307895028 33.16056997679612 26.63521065741936 0 0 0
642 3 2 -0.188164 35.96639932596122 34.54407859181328 27.25445158464558 0 0 0
667 3 5 0.137136 37.50598518122366 33.882038904103545 28.6178418684785 0 0 0
648 3 2 -0.09836399999999999 36.880837497529505 34.721691277846965 28.304654293721015 0 0 0
665 3 6 0.102614 38.50437251385873 32.98414530282743 26.26577583667368 0 0 0
647 3 1 0.090236 38.00712993727693 33.49939197703812 25.439142856279474 0 0 0
664 3 6 0.102614 38.56089518706806 33.3229784049046 24.51687487207803 0 0 0
666 3 6 0.102614 37.96091898670369 34.565350327467556 25.66587331792015 0 0 0
1596 8 8 0.32 2.978070038307614 42.69454654273334 30.857236864551993 3 -1 -1
1297 5 6 0.102614 5.130462968778534 41.821876230288815 29.793920746241355 0 -1 0
1301 5 6 0.102614 4.516005566089011 0.14821482505609532 28.185200265214323 0 0 0
1283 5 1 0.090236 5.359973987343543 0.7761716483200167 28.48857135988891 0 0 0
1302 5 6 0.102614 5.672263349808993 1.419836335309665 27.66514562221175 0 0 0
1300 5 6 0.102614 5.021455795247522 1.3734981825129051 29.339010278040025 0 0 0
1595 8 7 -1.32 3.1262236049009715 43.00545759875014 29.934664572686785 3 -1 -1
1299 5 6 0.102614 5.656499670797618 43.08349033557626 30.9077937656818 0 -1 0
1282 5 1 0.090236 5.996690644473385 42.40484714723176 30.1221240948013 0 -1 0
1292 5 6 0.100836 6.026378224491662 41.66065188630386 27.56662658786408 0 -1 0
1291 5 5 0.137136 6.971456375380338 39.72969588906364 28.85383895305615 0 -1 0
1277 5 2 -0.09836399999999999 7.961905369009768 40.12985635422454 28.652887900879282 0 -1 0
1280 5 3 -0.6068 6.519302761158154 43.22561155526703 28.934944016726952 0 -1 0
1279 5 1 0.188236 6.898788416963075 42.28108754218476 27.787034153422123 0 -1 0
1293 5 6 0.100836 7.102618523994231 42.8937028235878 26.906096679186824 0 -1 0
1278 5 2 -0.188164 8.10395850605964 41.40714787887382 28.076917187950173 0 -1 0
1284 5 2 -0.09836399999999999 9.390455090711301 41.90859738331207 27.820841537225547 0 -1 0
1295 5 6 0.102614 8.083506268926739 1.3188218249446575 28.528869245966263 0 0 0
1303 5 5 0.137136 9.538220346690668 42.89930700836829 27.397591586619352 0 -1 0
1298 5 6 0.102614 6.784273888879392 41.74679724319906 30.493691917633342 0 -1 0
1290 5 5 0.160636 8.98514397960445 38.40820245981618 29.469183504978968 0 -1 0
1276 5 2 -0.120364 9.103069165649107 39.381012790521304 29.002913963106575 0 -1 0
1294 5 6 0.102614 7.432596319890443 1.3821684881441834 30.19239179388715 0 0 0
1285 5 2 -0.120364 10.519189693035177 41.166429199141554 28.17466888578058 0 -1 0
1275 5 2 -0.011164 10.393236653020757 39.9034415156357 28.780634922907808 0 -1 0
1281 5 1 0.090236 7.727851064145013 0.7237974211286882 29.372777439684643 0 0 0
1296 5 6 0.102614 8.536241040186257 0.06512826126967995 29.706415646201194 0 0 0
1587 5 4 0.045503 11.097229856525374 38.79972314640038 26.385541898282252 0 -1 0
1286 5 1 -0.09496400000000001 11.875622574153997 38.16207177456275 26.821898119883482 0 -1 0
1585 5 4 0.045503 12.600901852492958 37.931969170102406 26.03215886429681 0 -1 0
1287 5 4 0.046836 13.012571581500913 39.80927613218775 27.63691391592107 0 -1 0
1333 5 6 0.102614 15.245424398717317 40.33426532705147 25.68021435864578 0 -1 0
1309 5 2 -0.09836399999999999 16.771319599017392 39.18765112224015 28.530501170947822 0 -1 0
1289 5 4 0.069836 11.364542739705042 38.17422649688934 29.624169764232153 0 -1 0
1308 5 2 -0.120364 15.796525793514215 38.91637969713285 29.504329782846586 0 -1 0
1304 5 5 0.160636 11.501478821586836 41.61331531018997 28.024909577673213 0 -1 0
1319 5 4 0.046836 11.630052428854178 39.86215347361392 31.25071326837076 0 -1 0
1273 5 1 -0.07226399999999999 12.577501908439723 38.87057911589248 28.00079461610996 0 -1 0
1288 5 4 0.046836 13.407522857434856 38.23121993831098 28.317818745519855 0 -1 0
1274 5 1 -0.036264 11.653459238708013 39.15194321658942 29.221046457841595 0 -1 0
1305 5 1 -0.07226399999999999 12.311443105285548 39.951484617588164 30.395993653366997 0 -1 0
1317 5 2 -0.120364 14.890440256817582 41.150096839608565 29.22285536869237 0 -1 0
1316 5 2 -0.09836399999999999 15.848141797132435 41.41422124535706 28.234914351111215 0 -1 0
1318 5 4 0.046836 12.304157008170442 41.02130599802386 30.160214151062426 0 -1 0
1335 5 5 0.160636 14.168334826058762 41.92952071791116 29.469621009884705 0 -1 0
1320 5 4 0.069836 13.726137948101037 38.47376358247094 31.040247216750153 0 -1 0
1306 5 1 -0.036264 13.745178689614265 39.55659454534592 30.873188199642197 0 -1 0
1307 5 2 -0.011164 14.835601753915913 39.88781599969762 29.84744376768435 0 -1 0
1334 5 5 0.137136 15.833798123234915 42.38487800986659 27.74349719545872 0 -1 0
1659 40 7 -1.32 12.373988665782916 0.2528306160137001 29.18328131632705 -1 1 -1
1314 5 1 0.090236 18.3908111364163 40.56634214448806 24.312717848858068 0 -1 0
1315 5 1 0.090236 15.994939398192022 40.63777954356496 24.946228900934166 0 -1 0
1331 5 6 0.102614 16.002779115436645 41.72403948121897 24.848667589200886 0 -1 0
1310 5 2 -0.188164 16.784378893251194 40.43051519087556 27.8717502504156 0 -1 0
1312 5 3 -0.6068 17.38209146436498 40.13978995372206 25.390839876433088 0 -1 0
1330 5 6 0.102614 19.379973973891765 40.17753613477117 24.55638579329279 0 -1 0
1328 5 6 0.102614 18.413741703976367 41.65449215257937 24.240209518961716 0 -1 0
1311 5 1 0.188236 17.772911666590975 40.713155809818204 26.756685801755697 0 -1 0
1323 5 6 0.100836 18.753435236987627 40.31103452131446 27.01911008226986 0 -1 0
1324 5 6 0.100836 17.8780023357688 41.79399575137018 26.637412914221784 0 -1 0
693 3 6 0.102614 33.32717152400326 37.35726752944156 24.128049711814903 0 0 0
692 3 6 0.102614 33.95934360018003 38.61141448604853 25.21702192105885 0 0 0
695 3 6 0.102614 36.23511328238182 37.70388538095458 24.88217856412629 0 0 0
698 3 5 0.137136 34.19571631992691 40.99787337122024 25.482087916720435 0 0 0
655 3 5 0.137136 34.45161735092792 35.48235920106082 26.017803148536004 0 0 0
641 3 2 -0.09836399999999999 35.16118233455971 35.617576770236084 26.8359667350507 0 0 0
640 3 2 -0.120364 35.25585500236338 36.85626929279786 27.497235393227953 0 0 0
649 3 2 -0.120364 36.975036528302674 35.956882803507334 28.961230160586258 0 0 0
654 3 5 0.160636 34.61032536432203 37.669672819014316 27.185548137884098 0 0 0
639 3 2 -0.011164 36.15050364770888 37.03129487609796 28.576258949424716 0 0 0
653 3 4 0.069836 35.44863835665272 39.015611925479604 28.88568351451755 0 0 0
638 3 1 -0.036264 36.19058573516845 38.35530145917165 29.344509221885037 0 0 0
674 3 2 -0.188164 36.0936428808804 40.30442434497648 24.69910524928462 0 0 0
680 3 2 -0.09836399999999999 35.24002985489191 40.79115347829399 25.702932051540838 0 0 0
671 3 2 -0.011164 37.047280532023315 40.61479775609663 27.341255728246484 0 0 0
673 3 2 -0.09836399999999999 37.445169607332126 40.060704805494275 24.99680745126299 0 0 0
685 3 5 0.160636 38.948041852867966 39.9619308921027 26.535918371072274 0 0 0
672 3 2 -0.120364 37.915101192150644 40.213393695944006 26.30862515612251 0 0 0
669 3 1 -0.07226399999999999 37.586935083135444 39.04953193300523 29.236889899586853 0 0 0
683 3 4 0.046836 38.208825942791265 38.493217895392334 28.524243896909937 0 0 0
670 3 1 -0.036264 37.55904923212296 40.54108747147831 28.788057135198486 0 0 0
684 3 4 0.069836 38.604062605329105 40.87870755621365 28.787129951541445 0 0 0
682 3 4 0.046836 38.115615662966384 38.97229489271616 30.195150552230587 0 0 0
1660 40 8 0.32 12.488039701853772 1.2213712410842068 29.300639142841046 -1 1 -1
699 3 5 0.160636 35.01115553297428 41.25785930587671 27.78215715521398 0 0 0
681 3 2 -0.120364 35.711225626359564 40.94169310027511 27.016150474636454 0 0 0
713 3 4 0.046836 35.75932253527448 41.15288511758482 29.861400240381748 0 0 0
700 3 1 -0.07226399999999999 36.81354765504157 41.4449830739753 29.80966096272761 0 0 0
980 4 6 0.102614 42.59037602602637 4.590869971190228 34.120031973722426 -1 1 0
1631 26 7 -1.32 0.041972309182696586 4.265129999032722 31.577546054877956 1 -1 1
1632 26 8 0.32 0.8264339493842591 4.861868376022853 31.600050006999634 1 -1 1
981 4 6 0.102614 41.871257549836194 3.420643192889891 33.016658374857194 -1 1 0
964 4 1 0.090236 42.04125860278533 3.648116401513897 34.07284998968 -1 1 0
979 4 6 0.102614 41.09193693193535 3.7386826054594824 34.599105810528634 -1 1 0
1545 5 6 0.102614 21.300439109200852 6.91581914465696 36.74568166460647 0 0 0
1605 13 7 -1.32 23.025747520074432 6.148980584423041 35.57780523036316 1 0 1
1606 13 8 0.32 22.655011419680182 6.519659013317543 34.74351449770472 1 0 1
1519 5 6 0.102614 25.028671843040872 3.3558323147264297 33.81651638396282 0 0 0
1517 5 6 0.102614 24.652086778011657 2.7523602348105065 35.46579375515483 0 0 0
1518 5 6 0.102614 23.888556308269017 4.248432503366481 34.865144121013806 0 0 0
1501 5 1 0.090236 24.79569683593845 3.6375066027544376 34.84533195281221 0 0 0
1499 5 1 0.090236 26.07469280218218 5.69343991729223 34.49910955255739 0 0 0
1498 5 3 -0.6068 25.951973846471187 4.46497676758716 35.406129378030876 0 0 0
1510 5 6 0.100836 24.836696502588758 5.698979511774386 36.711010740339404 0 0 0
1508 5 5 0.137136 23.04075643508105 4.22293310759107 37.23493195482602 0 0 0
1497 5 1 0.188236 25.61302767214797 4.93758335061789 36.82120092719835 0 0 0
1511 5 6 0.102614 26.30953716866505 5.365102119136617 33.482594435188375 0 0 0
1500 5 1 0.090236 27.26088573318523 3.6695275183346276 35.35719107694666 0 0 0
1515 5 6 0.102614 27.193257694416598 2.812466641065138 36.02809639281189 0 0 0
1516 5 6 0.102614 27.42835874615066 3.3291238488694206 34.33155912575131 0 0 0
1514 5 6 0.102614 28.092695265520643 4.315672344346671 35.643889449009244 0 0 0
815 3 6 0.102614 30.294632163490128 4.41012595354391 33.204255704793916 0 1 0
1615 18 7 -1.32 37.42286426293441 1.2936296826660068 35.91851516349032 0 -1 0
747 3 5 0.160636 33.546432686141635 1.4428572168858538 31.644625756318234 0 1 0
734 3 2 -0.120364 34.14144356505133 2.2375726076476607 32.08260964700749 0 1 0
735 3 2 -0.09836399999999999 33.70952613544141 2.8387846940530044 33.27364926656964 0 1 0
733 3 2 -0.011164 35.35663413143868 2.6320461025142783 31.48900416092272 0 1 0
748 3 5 0.137136 32.79852263423532 2.4918941273234707 33.755932194167826 0 1 0
736 3 2 -0.188164 34.47390944458527 3.8575198748555137 33.86598146630322 0 1 0
737 3 1 0.188236 34.079262158677906 4.398121643242796 35.22773902223729 0 1 0
751 3 6 0.102614 33.62395564168578 1.9940833996549185 36.47663164466216 0 1 0
752 3 6 0.102614 35.09846948406306 1.8605999960820898 35.459961675899464 0 1 0
755 3 6 0.102614 36.739853880962336 3.5613278276396607 35.40855045559764 0 1 0
744 3 4 0.046836 36.26452960950707 0.2066482051603127 31.506859225909665 0 1 0
743 3 2 -0.120364 36.09628107068003 3.6810507378814905 32.06548840389735 0 1 0
742 3 2 -0.09836399999999999 35.6482419536126 4.303550998933831 33.237361400043504 0 1 0
813 3 6 0.102614 31.967558812216314 4.840522792045771 32.741829025461975 0 1 0
749 3 6 0.100836 33.017461191261276 4.213860290270147 35.411976070014894 0 1 0
814 3 6 0.102614 31.500502405932735 4.761601016662127 34.476625250449786 0 1 0
738 3 3 -0.6068 34.84841115929734 3.776018076655998 36.3992757787336 0 1 0
739 3 1 0.090236 34.67991317922998 2.2532554188723335 36.39124066919093 0 1 0
740 3 1 0.090236 36.34600179857669 4.06953603270974 36.29394638496656 0 1 0
730 3 5 0.160636 38.612079854587336 42.839889664289565 31.710395777035647 0 0 0
729 3 5 0.137136 40.85654561234242 0.4710899091520621 31.95089278121966 0 1 0
761 3 5 0.160636 37.03485468116981 3.9985518916462603 31.618459669442668 0 1 0
760 3 5 0.137136 36.24300172094538 5.094625851713899 33.684910598309685 0 1 0
790 3 6 0.102614 41.72894574339286 5.594282531007308 31.394056043151938 0 1 0
772 3 1 0.090236 40.83900943033153 5.855291616665958 30.819379027247884 0 1 0
789 3 6 0.102614 40.31511992973968 6.67969423969514 31.30436993504342 0 1 0
782 3 6 0.102614 43.15055185962658 7.070576620707087 30.088441440788344 0 1 0
32 1 5 0.160636 16.495343586126072 9.424082215838357 29.557071943314593 0 0 0
1549 5 6 0.102614 21.870506018530165 9.247293996807683 37.38936066745355 0 0 0
13 1 2 -0.120364 16.725897760565452 10.463168740683994 29.771825761170085 0 0 0
12 1 2 -0.09836399999999999 15.849096487011103 11.219280308139743 30.57355759524044 0 0 0
31 1 5 0.137136 14.947092229991933 10.760233293256078 30.966244261223682 0 0 0
1512 5 6 0.102614 25.120636306340025 6.2315112882333485 34.50877972175392 0 0 0
1509 5 6 0.100836 26.495285969882804 5.429463265871372 37.23381329558352 0 0 0
1513 5 6 0.102614 26.875044511745795 6.3387872973739405 34.85923925882852 0 0 0
1544 5 6 0.102614 23.59965980954197 7.42339441477071 37.32198368917783 0 0 0
1645 33 7 -1.32 28.184425960722542 4.471256944740923 32.62182972046774 -1 0 1
1646 33 8 0.32 27.746598062399485 4.170334525134537 31.79270461686098 -1 0 1
811 3 6 0.100836 29.2590610872576 6.279709607913047 31.977421543808447 0 1 0
818 3 6 0.102614 28.858148586714382 5.966257635511924 34.23655711253355 0 1 0
816 3 6 0.102614 29.351537883232414 7.659949656220658 34.56714084780563 0 1 0
804 3 2 -0.09836399999999999 32.063296830868445 7.488823661040412 30.4776296971037 0 1 0
798 3 2 -0.188164 31.075890370421867 6.577190180073163 30.887409493167564 0 1 0
822 3 5 0.137136 32.203521519663184 8.420662438919512 31.01929886605764 0 1 0
801 3 1 0.090236 31.16871062928963 5.012625595223059 33.46468764637381 0 1 0
800 3 3 -0.6068 30.774398316809624 6.486115245391626 33.44865402138248 0 1 0
799 3 1 0.188236 30.182668124473047 6.856641934387356 32.08555642970124 0 1 0
820 3 6 0.102614 32.772753885577984 7.190302451002252 33.09433166944871 0 1 0
817 3 6 0.102614 30.102992098488667 6.311910130136581 35.4755091601796 0 1 0
802 3 1 0.090236 29.688753433362592 6.624538179587366 34.51226571139356 0 1 0
821 3 6 0.102614 32.33208240130642 7.039669014781908 34.81720101097158 0 1 0
803 3 1 0.090236 31.980352386271655 7.345292501783093 33.82837909052239 0 1 0
819 3 6 0.102614 31.685582806201545 8.394977462809951 33.85708706615081 0 1 0
750 3 6 0.100836 34.20114569965263 5.482637615879486 35.2761687490442 0 1 0
812 3 6 0.100836 29.902753173436306 7.910712466054555 32.11070862739855 0 1 0
780 3 6 0.100836 39.86998154501142 7.838084351041579 28.99452722977551 0 1 0
791 3 5 0.137136 37.769726568715356 7.4731216243308225 29.959079862303835 0 1 0
783 3 6 0.102614 42.572009400849865 7.735445120935293 28.520543929609307 0 1 0
770 3 1 0.090236 42.281217860916286 7.416931814210918 29.524522426967533 0 1 0
784 3 6 0.102614 41.814706582110176 8.273219061251984 30.019048842927386 0 1 0
6 1 2 -0.188164 16.137454744517303 12.567953582762815 30.853636467431613 0 0 0
29 1 6 0.102614 14.531350046567615 13.311051670108682 29.022704242103238 0 0 0
25 1 6 0.102614 13.180189579911593 11.906915579737364 30.438334163611973 0 0 0
11 1 1 0.090236 14.167961254766805 14.20003588108336 29.5393291685525 0 0 0
5 1 2 -0.09836399999999999 17.304687248680327 13.147220039673606 30.340431718992324 0 0 0
7 1 1 0.188236 15.214603364011575 13.460565729856558 31.669683154935058 0 0 0
28 1 6 0.102614 13.22856187755982 14.514012925114539 29.079122411639425 0 0 0
30 1 6 0.102614 14.911550175171104 14.999230252043752 29.487380874776584 0 0 0
1613 17 7 -1.32 16.122083218148177 16.41894904429227 30.653417077633513 -1 0 0
8 1 3 -0.6068 13.896254170382875 13.857279312063213 30.999530900183554 0 0 0
26 1 6 0.102614 12.64036716638996 12.451123276297055 32.064810335880125 0 0 0
10 1 1 0.090236 12.835944207983013 12.75303286756667 31.03572884508645 0 0 0
27 1 6 0.102614 11.92164289943436 13.133048077210601 30.56937944122617 0 0 0
9 1 1 0.090236 13.373742572265115 15.135428516855402 31.653872157809463 0 0 0
24 1 6 0.102614 13.173807476058801 14.955847322491095 32.710788086880974 0 0 0
22 1 6 0.102614 12.462310272129951 15.448126748518499 31.140539344735647 0 0 0
23 1 6 0.102614 14.135636296496193 15.914170546016852 31.54552132841528 0 0 0
19 1 5 0.137136 17.51532333812696 14.194544095670034 30.55219441574061 0 0 0
20 1 6 0.100836 15.745693327116516 14.402733066074557 31.849768206955346 0 0 0
1614 17 8 0.32 16.114375203412887 17.237653622258552 31.200145145119325 -1 0 0
21 1 6 0.100836 14.995010689524806 13.0126743240542 32.639497223917886 0 0 0
1358 5 6 0.102614 17.407004213843713 32.40320719254522 31.16638458872998 0 -1 0
1363 5 6 0.102614 16.9373011835201 31.890048154811915 34.20373189569912 0 -1 0
1346 5 1 0.090236 17.939128646130094 32.17861516048484 33.875261605855044 0 -1 0
1362 5 6 0.102614 18.41233611152771 31.366740341593875 33.320837914745155 0 -1 0
1364 5 6 0.102614 18.517000984362525 32.41385240596242 34.774814535735125 0 -1 0
1344 5 1 0.090236 16.95542109485379 33.181391798056566 31.785656147684666 0 -1 0
1356 5 6 0.102614 16.860985587664082 34.107099284928395 31.212877942348616 0 -1 0
1357 5 6 0.102614 15.967853634573192 32.861439037699256 32.126275529403856 0 -1 0
1365 5 5 0.137136 14.697016800530427 35.47386887393018 34.07026325135195 0 -1 0
1347 5 2 -0.09836399999999999 15.368813727315239 36.17827594980847 33.583958218560035 0 -1 0
1340 5 2 -0.09836399999999999 17.572301632786846 36.7410650281132 32.72934412747482 0 -1 0
1343 5 3 -0.6068 17.84298886190503 33.442493098937135 33.00477887864336 0 -1 0
1355 5 6 0.100836 16.368977521169505 34.00728550895448 34.41625160608152 0 -1 0
1342 5 1 0.188236 17.205691597306963 34.49908565658303 33.91164710823479 0 -1 0
1354 5 6 0.100836 17.91741335965717 34.70633274420032 34.715637919611645 0 -1 0
1341 5 2 -0.188164 16.699713801810102 35.80614687127486 33.31686722158783 0 -1 0
1629 25 7 -1.32 21.849209839583185 35.00037868193023 33.29823167548044 0 0 -1
1359 5 6 0.102614 19.772080099230006 33.03078520107431 32.09234773397254 0 -1 0
1361 5 6 0.102614 19.835707652174808 34.13510420001571 33.47841365151733 0 -1 0
1345 5 1 0.090236 19.264207716877863 33.858992772170986 32.58898859782793 0 -1 0
1360 5 6 0.102614 19.232821096566166 34.71546731342203 31.91598001548493 0 -1 0
1353 5 5 0.137136 18.616777332599487 36.49643202319122 32.55718798460659 0 -1 0
1424 5 6 0.102614 23.486445720981298 36.29133956925577 33.976867537315464 0 -1 0
1630 25 8 0.32 22.48257746143403 34.30825252606964 32.996076203766314 0 0 -1
1426 5 6 0.102614 24.991364225931495 37.191223780742625 34.33150876937352 0 -1 0
1425 5 6 0.102614 23.40091403246362 37.8601622741937 34.82221678341784 0 -1 0
1408 5 1 0.090236 23.934457235450125 37.28377689840787 34.067662895104135 0 -1 0
1450 5 6 0.102614 20.06204290918079 34.17453792898752 35.425552221703136 0 -1 0
1674 47 8 0.32 38.660241730523154 30.923271159047168 28.452871589790863 -1 1 -1
1073 4 6 0.102614 31.807988562762986 33.85085951997572 35.384161150945864 -1 0 0
976 4 6 0.102614 0.744359823684391 2.4699555896612035 32.89003954688417 0 1 0
1040 4 6 0.102614 0.06743682052913538 41.98492932891315 35.4164749430205 0 0 0
1350 5 4 0.046836 13.296649165602295 39.949178630127484 32.96022597491013 0 -1 0
1349 5 4 0.046836 13.955437281387873 41.328399704714464 32.10655743996395 0 -1 0
1336 5 1 -0.07226399999999999 14.063275710181424 40.242951532854725 32.233431099445895 0 -1 0
1339 5 2 -0.120364 17.13262525560742 38.05314070513959 32.486563034125155 0 -1 0
1348 5 2 -0.120364 14.941194829473394 37.499922234057955 33.37159426995821 0 -1 0
1338 5 2 -0.011164 15.834622829650336 38.46248021382597 32.864881037551505 0 -1 0
1352 5 5 0.160636 17.83938200573514 38.783386988488466 32.09932894473622 0 -1 0
1397 5 5 0.160636 17.276558956350165 37.44815416906608 35.229837041749875 0 -1 0
1366 5 5 0.160636 13.942795827967918 37.792121870448995 33.68368673939572 0 -1 0
1337 5 1 -0.036264 15.472949846035768 39.95820051118154 32.83384116249788 0 -1 0
1381 5 4 0.046836 15.772865817540524 41.7417210903119 34.03998733948437 0 -1 0
1380 5 4 0.046836 14.698581885309395 40.589432281087284 34.786233915233176 0 -1 0
1367 5 1 -0.07226399999999999 15.63936982935842 40.66920368793235 34.228856184378756 0 -1 0
1351 5 4 0.069836 16.189277661593547 40.45115882943679 32.16407932775879 0 -1 0
1369 5 2 -0.011164 16.287553269158643 39.12288407173859 36.16026630481054 0 -1 0
1383 5 5 0.160636 15.15456355895502 40.54260918913483 37.34081818489492 0 -1 0
1382 5 4 0.069836 17.490295421775034 39.643724377659524 34.45531405525783 0 -1 0
1368 5 1 -0.036264 16.805837680633122 40.14902379797476 35.13541561894651 0 -1 0
1398 5 1 -0.07226399999999999 17.681697138639947 41.258108094906646 35.80387691963808 0 -1 0
1412 5 4 0.046836 17.902623556837906 42.03909763186387 35.06585173827256 0 -1 0
1411 5 4 0.046836 17.120318576731677 41.740881420506014 36.61249915922641 0 -1 0
1379 5 2 -0.120364 16.618740673931306 37.76486263028086 36.02629305832575 0 -1 0
1427 5 5 0.137136 20.73247086331308 36.97057726812821 34.1088301451909 0 -1 0
1399 5 1 -0.036264 19.03241934275413 40.700342624853974 36.351333013292894 0 -1 0
1417 5 6 0.100836 22.016618075257625 37.04218296404635 32.19676119564993 0 -1 0
1404 5 1 0.188236 22.36639481217027 38.07772337475785 32.287052926187684 0 -1 0
1416 5 6 0.100836 22.323476052223175 38.53368400432068 31.296722311096467 0 -1 0
1428 5 5 0.160636 19.382458851626424 38.06395983030478 35.83983025798613 0 -1 0
1410 5 2 -0.120364 19.90833130878246 38.677073291417734 35.120037851746574 0 -1 0
1409 5 2 -0.09836399999999999 20.68950207650172 38.054452514303264 34.14645378433573 0 -1 0
1401 5 2 -0.120364 20.572923654575543 40.85069078990832 34.28201400293753 0 -1 0
1400 5 2 -0.011164 19.860527314103148 40.076722812095284 35.22065478782947 0 -1 0
1403 5 2 -0.188164 21.45087620806493 38.81648415246969 33.25319734921634 0 -1 0
1402 5 2 -0.09836399999999999 21.36875795393405 40.22266308522561 33.30187255473733 0 -1 0
1420 5 6 0.102614 23.95658074097982 39.95840504721429 33.61399885822897 0 -1 0
1414 5 5 0.160636 20.52560610465971 41.9352186175818 34.32583030192383 0 -1 0
1415 5 5 0.137136 21.93162807400289 40.82813211286648 32.59672748665073 0 -1 0
1405 5 3 -0.6068 23.837197284500967 38.00309165573344 32.72586292409284 0 -1 0
1406 5 1 0.090236 24.485811282974623 39.38468847038424 32.85157188169575 0 -1 0
1419 5 6 0.102614 24.442912868613682 39.89946884262905 31.89075021917402 0 -1 0
1476 5 5 0.160636 24.801382656216667 41.859457745586276 36.46351969176525 0 -1 0
1641 31 7 -1.32 27.09651671219681 37.97468249242184 33.95486810254367 1 -1 0
1642 31 8 0.32 27.667205234944436 38.12609727289897 33.16702710719976 1 -1 0
1422 5 6 0.102614 24.20071603823113 36.153702709032245 31.702712202104355 0 -1 0
1407 5 1 0.090236 24.642864132121574 37.15360552379382 31.74404300326352 0 -1 0
1423 5 6 0.102614 24.63076530733689 37.61411789345867 30.755144083197887 0 -1 0
1421 5 6 0.102614 25.671734711861486 37.085317729642256 32.115623259708165 0 -1 0
1418 5 6 0.102614 25.528630069356275 39.25976864254606 33.155274599027756 0 -1 0
1479 5 6 0.100836 25.890958568801988 37.420365638104606 35.821748021658436 0 -1 0
1477 5 5 0.137136 25.85937571455847 39.75560361385851 35.667175397401344 0 -1 0
1484 5 6 0.102614 27.653815974769145 36.24299635020918 35.217672862761226 0 -1 0
1486 5 6 0.102614 28.081946297537325 38.593290403680896 35.82684619807745 0 -1 0
949 3 4 0.045503 34.25880586259383 36.58513044302688 30.56170474470153 0 0 0
951 3 4 0.045503 33.58366944704525 38.2281656524769 30.454001518487612 0 0 0
651 3 4 0.046836 36.44532366450182 37.52167700374206 31.3465295437046 0 0 0
637 3 1 -0.07226399999999999 35.74009396729266 38.1775514344135 30.821124013599686 0 0 0
950 3 4 0.045503 34.037965382016935 37.55249963393751 32.03326857981788 0 0 0
650 3 1 -0.09496400000000001 34.31677332739714 37.60016316967848 30.9741804262256 0 0 0
652 3 4 0.046836 35.777619834673416 39.146466323377176 31.33304085840602 0 0 0
1072 4 6 0.102614 30.791406569647787 34.577245618419965 34.100317343192884 -1 0 0
1076 4 6 0.102614 30.6917931576077 37.096338899349476 33.925503994667544 -1 0 0
1071 4 6 0.102614 32.93365172493164 35.95929404529998 33.6475784292486 -1 0 0
1070 4 6 0.102614 33.701638873191115 35.19144210253931 35.06203422393866 -1 0 0
1057 4 1 0.090236 33.088871505540624 36.03027827131397 34.72501090383442 -1 0 0
668 3 5 0.160636 37.67608715503519 36.06253015443175 29.783332891343424 0 0 0
1442 5 4 0.046836 19.899856714957508 42.675573632521285 36.70662000436707 0 -1 0
1616 18 8 0.32 37.44874298172919 1.0386304388309058 34.96914284848181 0 -1 0
714 3 4 0.046836 37.21403786689464 41.24316350372761 30.809990951921204 0 0 0
985 4 5 0.137136 40.34512760570366 2.372135968188424 35.84227963745748 -1 1 0
975 4 6 0.100836 0.44825687762698563 3.629257343293146 36.26377714873744 0 1 0
966 4 2 -0.09836399999999999 40.65328249516242 2.6918130222219756 36.830582164933595 -1 1 0
960 4 2 -0.188164 42.005226799308375 2.899437344236824 37.172049883874855 -1 1 0
961 4 1 0.188236 43.17256634279019 2.7412037542285397 36.18852254682779 -1 1 0
967 4 2 -0.120364 39.638868719270974 2.9119778581765488 37.76926623085286 -1 1 0
957 4 2 -0.011164 39.92975491973265 3.323753282911897 39.082416709014815 -1 1 0
958 4 2 -0.120364 41.283446129433614 3.4813257862345486 39.43967954639078 -1 1 0
1269 4 4 0.045503 40.33443276986509 6.087707523680062 39.54625044298179 -1 1 0
974 4 6 0.100836 0.43876565590052724 1.9009509683041068 36.51015609906371 0 1 0
959 4 2 -0.09836399999999999 42.30630853215211 3.2781597510242384 38.493974192876784 -1 1 0
972 4 5 0.160636 41.54430488905512 3.7911855752460473 40.44722430907964 -1 1 0
1547 5 6 0.102614 20.031713785947495 6.822603140947186 38.00567572366585 0 0 0
1531 5 1 0.090236 21.086686319165434 6.6549610855675025 37.78594499776527 0 0 0
1539 5 5 0.137136 20.178699555853065 4.958591831035219 40.09536406514108 0 0 0
1541 5 6 0.100836 20.587716455176782 7.506655147894927 40.335841808332965 0 0 0
1526 5 2 -0.09836399999999999 21.1109117733797 4.837947992580577 40.640259967430346 0 0 0
1546 5 6 0.102614 21.353025384698036 5.607856206585395 37.93705253473467 0 0 0
1538 5 5 0.160636 20.710553248796007 2.789221565100959 41.1706363026978 0 0 0
1525 5 2 -0.120364 21.409204417738383 3.6126769178960676 41.261588436239414 0 0 0
1527 5 2 -0.188164 22.00155820937179 5.918788789946351 40.74646934783387 0 0 0
1534 5 2 -0.120364 23.496605708677325 4.540085935378934 42.079901802507614 0 0 0
1524 5 2 -0.011164 22.591496843190164 3.4641646429596333 42.01649596895715 0 0 0
1533 5 2 -0.09836399999999999 23.2046102473758 5.759381180567822 41.45230580622246 0 0 0
1495 5 2 -0.09836399999999999 23.717971297461943 3.6420596385759825 37.86127772924821 0 0 0
1496 5 2 -0.188164 25.101730361787304 3.868064850424859 37.774861070276415 0 0 0
1506 5 4 0.069836 22.423591999744175 0.9177986352007018 40.521554322160135 0 0 0
1493 5 2 -0.011164 24.074160105314608 1.9415236868423622 39.57609782639355 0 0 0
1492 5 1 -0.036264 23.517007108334727 0.9088724572944211 40.5678304690579 0 0 0
1507 5 5 0.160636 22.135662029647932 2.5263750252737034 38.79431570857578 0 0 0
1494 5 2 -0.120364 23.207996257591624 2.679931053001271 38.74635601767646 0 0 0
1502 5 2 -0.09836399999999999 25.97695916913182 3.1221710547987227 38.58118102491253 0 0 0
1503 5 2 -0.120364 25.46498515593734 2.1633291815170606 39.47353758391685 0 0 0
1521 5 5 0.160636 26.15160753732715 1.596573432353298 40.098737792980586 0 0 0
1522 5 1 -0.07226399999999999 23.90873602939695 1.2624027362872141 42.039628764762924 0 0 0
1536 5 4 0.046836 24.023797718842577 0.34028838937932443 42.623701394866586 0 0 0
1535 5 4 0.046836 24.903439938734248 1.7214755561493327 42.05978027833756 0 0 0
1542 5 6 0.102614 23.624126039819853 6.184299569470072 38.59425924879509 0 0 0
1505 5 4 0.046836 25.06348003662163 42.78415785836572 40.189860360408105 0 -1 0
1552 5 5 0.160636 24.42351522911159 4.433849203311124 42.635858731551465 0 0 0
1523 5 1 -0.036264 22.919604901658857 2.1894133216165788 42.8036621397391 0 0 0
1566 5 4 0.046836 21.323190415061124 0.7091162472850987 42.61965368074329 0 0 0
1520 5 5 0.137136 27.049268977550668 3.2909929724563636 38.52629773765335 0 0 0
753 3 6 0.102614 35.25789965166925 1.8238766153824961 37.21084592518736 0 1 0
754 3 6 0.102614 36.852113780146134 3.645416425107924 37.15867482002787 0 1 0
758 3 6 0.102614 34.77406807066836 3.9547458258555483 38.55736439049326 0 1 0
741 3 1 0.090236 34.26427165183145 4.367723044338134 37.686026914944556 0 1 0
759 3 6 0.102614 33.19370818429689 4.143314521417929 37.72204525891084 0 1 0
756 3 6 0.102614 36.51560572825397 5.145036719179307 36.23297724792815 0 1 0
757 3 6 0.102614 34.362450978591184 5.4558133615691276 37.655818896045126 0 1 0
969 4 4 0.046836 37.997509700896984 5.372238519484363 39.07518760389039 -1 1 0
1000 4 4 0.046836 36.827129933455225 3.022861290232857 40.740843959158774 -1 1 0
1001 4 4 0.046836 37.027567696540764 3.02296456014004 39.00919684742227 -1 1 0
987 4 1 -0.07226399999999999 37.53324556929337 2.761902497231738 39.94331729554534 -1 1 0
986 4 5 0.160636 38.618042884228906 2.737961688917876 37.45241587051246 -1 1 0
955 4 1 -0.07226399999999999 38.42552097253383 5.138819291873392 40.05818710560214 -1 1 0
956 4 1 -0.036264 38.81614407674103 3.6349492454377925 40.10227656161192 -1 1 0
1604 12 8 0.32 20.383924076550244 10.68688730119685 41.19328185740818 1 0 -1
1548 5 6 0.102614 20.605854245842856 9.207626603556914 38.66696662506043 0 0 0
1529 5 3 -0.6068 21.95351120538125 7.524235349171104 38.69881075438628 0 0 0
1528 5 1 0.188236 21.645228679489463 7.280768339810916 40.17431227524794 0 0 0
1540 5 6 0.100836 22.181317058253942 8.055041466552414 40.72898497708451 0 0 0
1532 5 1 0.090236 21.654027218285194 9.005861614682836 38.43170781851509 0 0 0
1550 5 6 0.102614 22.257280645864782 9.621095984081961 39.10551494021252 0 0 0
1603 12 7 -1.32 20.861036459894123 9.82544731926339 41.16769976977383 1 0 -1
1530 5 1 0.090236 23.421965113744946 7.236618535849716 38.385365661484705 0 0 0
1543 5 6 0.102614 24.060048293549276 7.876015331087982 38.99652451794623 0 0 0
1551 5 5 0.137136 23.900019898654715 6.59065352441152 41.5362934183529 0 0 0
1625 23 7 -1.32 31.999402848794976 5.840465880679772 36.59746191160335 0 0 0
1626 23 8 0.32 31.569322987434415 6.277111421561002 37.36860634208052 0 0 0
464 2 6 0.102614 19.19597396867913 22.48932636149864 41.63191836395455 0 0 0
452 2 1 0.090236 19.740100907516258 23.345099063580037 42.034696122476106 0 0 0
466 2 6 0.102614 20.814332109657542 23.223791987314332 41.85682728681798 0 0 0
465 2 6 0.102614 19.391917820705874 24.26749137051436 41.56548710709304 0 0 0
1223 4 6 0.100836 31.211383486933997 29.839749073021018 39.060264596227235 -1 0 0
1221 4 5 0.137136 33.028237621813425 29.95116159536046 41.04566335868256 -1 0 0
1134 4 6 0.102614 37.86144746968502 30.297218128313787 39.675089474074724 -1 0 0
1612 16 8 0.32 35.423744721908065 28.53293401388973 40.38531131060321 0 1 0
1611 16 7 -1.32 35.38617652750501 29.497705572273837 40.19003595807964 0 1 0
1393 5 6 0.102614 14.303074586762456 35.671047682397074 41.557214121464895 0 -1 0
1623 22 7 -1.32 17.01703908410288 33.282729565435815 36.47684836898315 0 2 1
1624 22 8 0.32 16.622332375933418 32.45726051940292 36.84358236490597 0 2 1
1385 5 6 0.100836 14.225170211302654 35.28575522386854 38.249418076079216 0 -1 0
1395 5 6 0.102614 14.201174982483293 34.10358470898894 40.69562889706175 0 -1 0
1396 5 5 0.137136 16.27516476021683 35.739688673483116 36.684997711282875 0 -1 0
1453 5 6 0.102614 18.250090050034007 35.0869416534457 36.85419542574667 0 -1 0
1438 5 1 0.090236 18.984331002496397 35.588014891674284 37.48844205728419 0 -1 0
1452 5 6 0.102614 18.615846298327977 35.63365903526871 38.51762693531351 0 -1 0
1373 5 1 0.188236 14.63797793563629 36.10499317817633 38.84416050719181 0 -1 0
1374 5 3 -0.6068 15.619999069490936 35.49178801998324 39.857951566780116 0 -1 0
1377 5 1 0.090236 14.87189159162048 34.89007452570116 41.04890725920687 0 -1 0
1394 5 6 0.102614 15.606292935969643 34.46144796723716 41.73708459077368 0 -1 0
1387 5 6 0.102614 15.814607853302693 33.52081947103521 38.93819349189262 0 -1 0
1388 5 6 0.102614 16.92203680687046 34.72914447970448 38.2944866360662 0 -1 0
1389 5 6 0.102614 17.23605822232719 34.04526956816675 39.89559266690194 0 -1 0
1375 5 1 0.090236 16.450151549191272 34.366354472450595 39.205104161787844 0 -1 0
1449 5 6 0.102614 21.71611526425435 34.01595886786339 36.0577759364893 0 -1 0
1437 5 1 0.090236 20.820140790486445 34.63836493838833 36.059711066805775 0 -1 0
1451 5 6 0.102614 21.07132115193075 35.6168647628627 35.6473563153341 0 -1 0
1457 5 6 0.102614 19.080105765326213 32.98700538303659 37.424192396332714 0 -1 0
1439 5 1 0.090236 19.87377986042059 33.40908611995977 38.04834358068311 0 -1 0
1456 5 6 0.102614 20.73921656212769 32.74678300440173 38.065998481799966 0 -1 0
1435 5 1 0.188236 21.26282180645687 35.44810810293388 38.451691092664895 0 -1 0
1436 5 3 -0.6068 20.270000171154138 34.77955079724963 37.48933992483871 0 -1 0
1448 5 6 0.100836 22.234271558881172 34.96562326501672 38.33748028003747 0 -1 0
1455 5 6 0.102614 19.488203322778503 33.548966357907844 39.0638737656995 0 -1 0
1447 5 6 0.100836 20.905505691790385 35.23737153842561 39.464335024502894 0 -1 0
1074 4 6 0.102614 30.206694204933918 34.50447799149204 35.79735715723792 -1 0 0
1222 4 6 0.100836 30.082647860886162 31.197646259389128 38.99155388629232 -1 0 0
1224 4 6 0.102614 32.29354776804777 32.407019169207224 36.46036483851906 -1 0 0
1225 4 6 0.102614 30.617094311407705 32.45254886131745 37.0679175551169 -1 0 0
1212 4 1 0.090236 31.539109658153787 31.863644022497986 37.036715754777354 -1 0 0
1227 4 6 0.102614 31.240892223084792 33.59108344280998 39.07054324134928 -1 0 0
1226 4 6 0.102614 31.35982492338602 30.885053186821857 36.58956225857224 -1 0 0
1211 4 3 -0.6068 32.066329486149485 31.698481020439587 38.45784316223028 -1 0 0
1214 4 1 0.090236 33.440645348186706 31.021727829250334 38.403625451580716 -1 0 0
1230 4 6 0.102614 33.36326125973519 30.034188168782915 37.94710185193372 -1 0 0
1231 4 6 0.102614 33.830574297931896 30.906307977789808 39.41634917345181 -1 0 0
1229 4 6 0.102614 32.86468278100311 33.67800985062574 38.341772919704624 -1 0 0
1210 4 1 0.188236 31.083926866070044 30.89584725163279 39.30748356196601 -1 0 0
1209 4 2 -0.188164 31.202523538214987 31.106210060098615 40.80907615196778 -1 0 0
1213 4 1 0.090236 32.219388448663665 33.111307277135275 39.01656670962513 -1 0 0
1228 4 6 0.102614 32.666082514152436 33.06054904483291 40.011141847973455 -1 0 0
1078 4 5 0.137136 34.667100551031204 36.10501739656918 37.159190875069065 -1 0 0
1068 4 6 0.100836 32.49154850521495 35.05191809941331 37.19278257981545 -1 0 0
1233 4 5 0.137136 29.447173069018504 32.36573487542665 40.898009269225355 -1 0 0
1127 4 5 0.160636 33.494808146398206 36.0767407425598 40.0784625082219 -1 0 0
1129 4 6 0.100836 35.30646781319464 31.72363238253262 39.68122280883551 -1 0 0
1118 4 3 -0.6068 37.25484652465217 32.288972542501796 39.08626641913007 -1 0 0
1120 4 1 0.090236 37.568237211261085 30.81819645583804 38.76021313387195 -1 0 0
1135 4 6 0.102614 38.35157771634341 30.748566653590956 38.00462854439613 -1 0 0
1139 4 6 0.102614 39.2749387053445 33.00195149415837 38.88847230783639 -1 0 0
1666 43 8 0.32 34.502275530848785 33.14091468111519 35.706209210078605 -1 -1 -1
1665 43 7 -1.32 34.20216784402194 33.65345713365367 36.492679841960644 -1 -1 -1
1232 4 6 0.102614 34.11811523299905 31.65006366044939 37.81857822095696 -1 0 0
1133 4 6 0.102614 35.833046195058195 32.46537761052843 37.47124818521664 -1 0 0
1128 4 5 0.137136 34.71279502561848 34.263902502909865 38.95519237244164 -1 0 0
1119 4 1 0.090236 36.7427754147193 32.97054297608428 37.806641139481975 -1 0 0
1131 4 6 0.102614 36.496259855529566 34.01495048409535 38.00440178549972 -1 0 0
1132 4 6 0.102614 37.49567949464636 32.91161840238727 37.0197728911557 -1 0 0
1136 4 6 0.102614 36.65282583890284 30.335215929498748 38.40239840189017 -1 0 0
1115 4 2 -0.09836399999999999 34.86277850412216 34.41954897155441 40.02092552973459 -1 0 0
982 4 6 0.102614 42.263445895173795 0.9888846708876049 33.358100368796045 -1 1 0
977 4 6 0.102614 1.5352549598707703 1.7618095004257686 34.33911340601441 0 1 0
1045 4 6 0.102614 1.143317108503169 40.00892725988421 37.30780711839778 0 0 0
1044 4 6 0.102614 1.5469677889977491 41.739148345946 37.23905276359016 0 0 0
1046 4 6 0.102614 1.0383261765004832 41.02028819998565 38.78310799098865 0 0 0
1028 4 1 0.090236 0.8926367921191363 40.99511649968301 37.70182274577626 0 0 0
1036 4 6 0.100836 42.34740917861851 39.967828229156396 38.92983373437955 -1 0 0
1652 36 8 0.32 2.494504205340721 0.17943694430572565 35.72322568350853 1 0 -1
1651 36 7 -1.32 1.5380432303750413 0.11013891344123045 35.95444830647995 1 0 -1
984 4 6 0.102614 43.02755056615885 0.4155998606004436 34.85934893227083 -1 1 0
1025 4 3 -0.6068 42.78494472588746 41.334673349792766 37.36651569396787 -1 0 0
1027 4 1 0.090236 42.52689425800732 42.76808713408429 37.87942333333297 -1 0 0
1041 4 6 0.102614 43.24122741465249 0.09335278095409313 37.40435726627678 -1 1 0
1043 4 6 0.102614 42.662427235674045 42.80085458661299 38.96115465515973 -1 0 0
1386 5 6 0.100836 13.816904501065013 36.54718516625012 39.41153411573202 0 -1 0
1370 5 2 -0.120364 15.432568625825015 39.49997154264957 37.216037056714626 0 -1 0
1413 5 4 0.069836 18.75588397736107 39.896215162397475 37.0444858789419 0 -1 0
1454 5 6 0.102614 19.183923388830422 36.59560340793852 37.13171276082984 0 -1 0
1384 5 5 0.137136 14.25350263308367 38.842604953066406 38.90499529575397 0 -1 0
1391 5 6 0.102614 17.271649920993823 36.85138617757083 39.57147838439836 0 -1 0
1392 5 6 0.102614 16.055765048045043 37.42082545587175 40.756937143435735 0 -1 0
1376 5 1 0.090236 16.60101748920861 36.55516952377312 40.381064739346044 0 -1 0
1390 5 6 0.102614 17.21035885945387 36.11898169022913 41.177224634758296 0 -1 0
1372 5 2 -0.188164 15.21821441780866 37.16811978635796 37.92021844545587 0 -1 0
1378 5 2 -0.09836399999999999 16.061372419116044 36.79171260147415 36.86664718617363 0 -1 0
1371 5 2 -0.09836399999999999 14.91318853266566 38.531882848789564 38.098871980593216 0 -1 0
1601 11 7 -1.32 19.07961066122741 35.09224166864056 40.693468140104955 1 -1 -1
1602 11 8 0.32 19.478467775740974 34.77805679994346 41.537649786238546 1 -1 -1
1458 5 5 0.137136 22.685727130155115 36.879051219421186 36.579159555183814 0 -1 0
1434 5 2 -0.188164 21.378412977083062 36.95725893021931 38.292721285972476 0 -1 0
1443 5 4 0.046836 19.273581847192233 41.89208233929204 38.1449531786931 0 -1 0
1429 5 1 -0.07226399999999999 19.844418242921424 41.71069656217937 37.22576775822489 0 -1 0
1446 5 5 0.137136 20.06256381824664 37.350111609582896 39.96109839558368 0 -1 0
1445 5 5 0.160636 20.061954477551005 39.81052081266022 39.63087504183304 0 -1 0
1459 5 5 0.160636 22.688514259122194 39.33506750787814 36.236902807145846 0 -1 0
1441 5 2 -0.120364 22.13424344147515 38.91423705290598 37.06895415354883 0 -1 0
1430 5 1 -0.036264 21.301339992769964 41.269012580329026 37.611066726415 0 -1 0
1444 5 4 0.069836 21.915442027274967 41.47936149872955 36.72721695891358 0 -1 0
1463 5 2 -0.120364 24.816598802225403 40.99004464353018 37.11420123545201 0 -1 0
1433 5 2 -0.09836399999999999 20.654596435739027 37.79391049601741 39.15967326899504 0 -1 0
1440 5 2 -0.09836399999999999 22.13326411651451 37.52200862049092 37.256886502728875 0 -1 0
1431 5 2 -0.011164 21.381869553107837 39.7611146238522 37.908992659081875 0 -1 0
1432 5 2 -0.120364 20.654943286163665 39.186118419633374 38.97040417092223 0 -1 0
1474 5 4 0.046836 21.562117183314076 41.704249802515385 39.732925130426395 0 -1 0
1462 5 2 -0.011164 24.205807548466026 41.04274800576698 38.38372497340328 0 -1 0
1472 5 2 -0.120364 24.261628844005116 39.90761791574973 39.21942917582047 0 -1 0
1490 5 5 0.160636 23.7947055796505 39.927241279254666 40.20023572024113 0 -1 0
1600 10 8 0.32 28.892694504310967 33.588643658444454 38.290235699452715 0 -2 -1
1488 5 6 0.102614 29.31064062957279 38.10690994299052 37.03482923945621 0 -1 0
1464 5 2 -0.09836399999999999 25.41516035219187 39.80415146837012 36.66229252531714 0 -1 0
1478 5 6 0.100836 25.37383591065411 36.51627007510611 37.2465065862651 0 -1 0
1471 5 2 -0.09836399999999999 24.862876571021914 38.72015181706953 38.768049758445464 0 -1 0
1465 5 2 -0.188164 25.41791768247008 38.661477881979366 37.47841996733562 0 -1 0
1466 5 1 0.188236 25.966867819785794 37.36904667495204 36.91151455507156 0 -1 0
1469 5 1 0.090236 27.849726312363504 35.94688923198452 36.25178292235236 0 -1 0
1485 5 6 0.102614 28.912248439524337 35.742784552637026 36.392031278814436 0 -1 0
1483 5 6 0.102614 27.29510242153886 35.03982725350149 36.49697245230998 0 -1 0
1467 5 3 -0.6068 27.43134239204725 37.07710980903481 37.196971558298216 0 -1 0
1489 5 5 0.137136 24.852057829453507 37.839076511750406 39.40363274357235 0 -1 0
1481 5 6 0.102614 27.047043629863154 35.74407314155111 38.84157978376503 0 -1 0
1487 5 6 0.102614 27.931748807391358 39.144830598158244 37.515250074404236 0 -1 0
1470 5 1 0.090236 28.255533428371002 38.32318955433661 36.87276331458446 0 -1 0
1482 5 6 0.102614 27.42483186543846 37.42867827428874 39.32773922070418 0 -1 0
1468 5 1 0.090236 27.66850702993271 36.61796804592935 38.638553010955334 0 -1 0
1480 5 6 0.102614 28.716721839607843 36.32035397289106 38.745690199059474 0 -1 0
1058 4 1 0.090236 31.080009920666182 34.63286297449479 35.15075142156928 -1 0 0
1599 10 7 -1.32 29.501724009165592 34.27837231214404 37.94081756370956 0 -2 -1
1056 4 3 -0.6068 31.737975368367042 35.980727227532824 35.44929275025093 -1 0 0
1067 4 6 0.100836 31.000609637625598 35.9276636662301 37.46476812379818 -1 0 0
1055 4 1 0.188236 31.97287205430802 35.98851167031308 36.96590626017494 -1 0 0
1059 4 1 0.090236 30.836467077124844 37.13719287845872 35.00717798325972 -1 0 0
1075 4 6 0.102614 29.867949604534708 37.04701655938279 35.49684664712784 -1 0 0
1077 4 6 0.102614 31.306142490844827 38.08287625644338 35.28605021072312 -1 0 0
1054 4 2 -0.188164 32.80377546934948 37.13885340916989 37.52007091476764 -1 0 0
1066 4 5 0.137136 31.121916294587102 38.38423044561817 38.069315427685225 -1 0 0
1053 4 2 -0.09836399999999999 32.20227721219765 38.28163344117805 38.075143308467894 -1 0 0
1065 4 5 0.160636 32.5122770628833 40.12039621554509 39.16506966185826 -1 0 0
1069 4 6 0.102614 33.59663066561749 36.96300675389594 34.977413972690435 -1 0 0
1060 4 2 -0.09836399999999999 34.20057849002616 37.0024812204846 37.56608282609558 -1 0 0
1052 4 2 -0.120364 32.992725976736786 39.26411796569288 38.70060398690114 -1 0 0
1061 4 2 -0.120364 34.988152935198855 37.9769938091938 38.19639455363831 -1 0 0
1079 4 5 0.160636 36.06079636768955 37.8232190715113 38.2643836057226 -1 0 0
1048 4 5 0.160636 37.743218658738705 42.48780609417182 37.20847462514641 -1 0 0
1062 4 4 0.046836 35.46267749147183 41.45371365136184 38.02538541567956 -1 0 0
1051 4 2 -0.011164 34.39069263607228 39.10343826170785 38.79587173431947 -1 0 0
1050 4 1 -0.036264 35.243444497390335 40.03327370963492 39.66850367567886 -1 0 0
1064 4 4 0.069836 36.2607476816941 39.62523007855757 39.68196273454144 -1 0 0
1020 4 2 -0.011164 37.90483660077901 41.68595354281469 39.22115955470067 -1 0 0
1063 4 4 0.046836 34.43276539055822 42.027802937660425 39.32817860536501 -1 0 0
1049 4 1 -0.07226399999999999 35.36243514501295 41.485450247422165 39.11761948436291 -1 0 0
1019 4 1 -0.036264 36.57702447852211 42.265126231545636 39.70966681596588 -1 0 0
1033 4 4 0.069836 36.542341775683425 42.14186545969702 40.79403248227303 -1 0 0
1030 4 2 -0.120364 38.35217794766892 41.910420212117025 37.905827205803625 -1 0 0
1047 4 5 0.137136 39.9278279813266 41.65338588343439 36.479920452982725 -1 0 0
1029 4 2 -0.09836399999999999 39.60963559396468 41.443761079687924 37.49475352858347 -1 0 0
1021 4 2 -0.120364 38.725891091110654 40.970290023145374 40.112890333394525 -1 0 0
1037 4 6 0.100836 41.78612966846251 39.44113835870411 37.351245136786005 -1 0 0
1039 4 6 0.102614 42.820931924887894 40.31366149355381 35.45984058628584 -1 0 0
1026 4 1 0.090236 42.65778767765948 41.32477627849018 35.836159239760576 -1 0 0
1038 4 6 0.102614 41.672803585357585 41.68503919394685 35.54136405213214 -1 0 0
1024 4 1 0.188236 41.84821470552316 40.303967224286644 38.01823826970922 -1 0 0
1023 4 2 -0.188164 40.45017650937265 40.7661305962069 38.40119751486533 -1 0 0
1042 4 6 0.102614 41.51177692641479 43.08041968578533 37.625307892712684 -1 0 0
1022 4 2 -0.09836399999999999 39.99258523339515 40.52287180045624 39.70940135026656 -1 0 0
1035 4 5 0.137136 40.6241553818069 40.00680067947671 40.429298773999726 -1 0 0
978 4 6 0.102614 1.3867952834560369 3.538087543833351 34.14754910742875 0 1 0
962 4 3 -0.6068 42.90443558840765 2.5355564221470774 34.687124231426026 -1 1 0
963 4 1 0.090236 0.9057668300359787 2.575881576088985 33.96654586726606 0 1 0
983 4 6 0.102614 41.35627145699646 1.0390212472365459 34.90363032330605 -1 1 0
965 4 1 0.090236 42.333618495347515 1.1445417596519134 34.434642746204695 -1 1 0
973 4 5 0.137136 43.34288414343721 3.4303053859170642 38.787171398529615 -1 1 0
1473 5 4 0.046836 21.450142811693595 43.12959182705441 38.72673643455258 0 -1 0
1460 5 1 -0.07226399999999999 21.89347303384625 42.12786928920188 38.777667360937535 0 -1 0
1461 5 1 -0.036264 23.450208153647786 42.30518146249714 38.806421791176675 0 -1 0
1475 5 4 0.069836 23.682829523120077 43.08331189432432 38.06916605449576 0 -1 0
1491 5 1 -0.07226399999999999 23.966979692610018 42.825610902805956 40.1822783291421 0 -1 0
1504 5 4 0.046836 23.638487679321322 42.13215354237251 40.96592602209727 0 -1 0
1032 4 4 0.046836 36.35178465805641 0.6520171935590573 38.42995112797482 -1 1 0
1018 4 1 -0.07226399999999999 36.49954584077325 0.44782879257342795 39.496593697925746 -1 1 0
1031 4 4 0.046836 35.61258157199207 0.8323958343034561 40.01390322148567 -1 1 0
988 4 1 -0.036264 37.763902981574795 1.2311714800431377 39.974138434856776 -1 1 0
1002 4 4 0.069836 38.533539179205164 1.005951952618398 39.227077705495766 -1 1 0
1268 4 4 0.045503 40.062336591535306 5.899066227405115 41.2980209431448 -1 1 0
1569 5 4 0.069836 19.762064846351482 2.2301176333304595 43.184627289114744 0 0 0
1554 5 1 -0.036264 20.49451795507173 2.1600162649616426 0.6422521678480366 0 0 1
1553 5 1 -0.07226399999999999 21.711552937411444 1.3867249270195605 0.03474353211770165 0 0 1
1567 5 4 0.046836 22.12184404636498 0.7279777655420836 0.8107999823789875 0 0 1
1537 5 4 0.069836 23.47916912228929 2.5140862034515914 0.3346244258249159 0 0 1
970 4 4 0.046836 37.63402452449875 5.323531881511624 40.79521019622291 -1 1 0
1017 4 5 0.160636 36.40417106122738 1.1005401724079824 42.38400959960865 -1 1 0
968 4 1 -0.09496400000000001 39.57872817843874 6.125652620478766 40.34011036660908 -1 1 0
1267 4 4 0.045503 39.19606762102843 7.152381210122767 40.38609380192673 -1 1 0
971 4 4 0.069836 39.208008374396925 3.4322520095691935 41.10704204741346 -1 1 0
634 2 4 0.045503 10.125933632090051 23.89181234729319 0.0884480090816887 0 0 1
636 2 4 0.045503 11.462371437232589 22.759094207848793 43.143592401461405 0 0 0
614 2 1 -0.088964 11.191032083027837 23.705970423652868 0.2705340727994272 0 0 1
635 2 4 0.045503 11.765241387934848 24.510023165992607 43.14866172097808 0 0 0
1655 38 7 -1.32 22.87037384152502 22.97867732941012 42.98281654872641 -1 0 0
1656 38 8 0.32 22.737935850016587 22.21861449022257 42.37084030348266 -1 0 0
467 2 6 0.102614 17.41279098162957 22.845828271035476 0.13802277618060904 0 0 1
392 2 1 0.090236 25.67825532459669 23.262125991697577 42.69098675188696 0 0 0
410 2 6 0.102614 25.144833427951124 22.330855947806196 42.903819892322296 0 0 0
408 2 6 0.102614 26.547497427555463 23.068726204667094 42.06109763325632 0 0 0
469 2 6 0.102614 17.68040956167448 24.607337941209718 0.08040773601127481 0 0 1
409 2 6 0.102614 24.967375710380626 23.917536271905007 42.17831807427054 0 0 0
1208 4 2 -0.09836399999999999 32.26817338103779 30.55398662580647 41.5425065886032 -1 0 0
1215 4 2 -0.09836399999999999 30.254163393315174 31.905619512682666 41.465219120076945 -1 0 0
1114 4 2 -0.120364 34.16507234838208 35.45193969344913 40.66134702798501 -1 0 0
1117 4 1 0.188236 36.14795236635197 32.23470794140866 40.14477438421573 -1 0 0
1130 4 6 0.100836 36.475563751607154 31.545454581089995 40.92842281263378 -1 0 0
1116 4 2 -0.188164 35.64932759423473 33.527744802141825 40.76808627064321 -1 0 0
1121 4 1 0.090236 38.48814220353346 32.99311070369287 39.645748604676264 -1 0 0
1138 4 6 0.102614 38.21462928481119 34.01557241795049 39.91707931020249 -1 0 0
1137 4 6 0.102614 38.82922565757628 32.455642504234156 40.53362200932164 -1 0 0
1158 4 5 0.160636 29.146885582714727 37.81348033272899 42.61910783944259 -1 0 0
1125 4 4 0.046836 32.817446000562114 38.04317294210563 41.22648803462897 -1 0 0
1155 4 4 0.046836 31.41011894494849 36.31366595508591 41.901210886575925 -1 0 0
1081 4 1 -0.036264 34.819769881005094 38.59928699943135 41.81468887875785 -1 0 0
1094 4 4 0.046836 35.325532943621155 40.703982518924704 41.74445220619072 -1 0 0
1095 4 4 0.069836 35.25252980035509 37.91316476973678 41.078952093695484 -1 0 0
1080 4 1 -0.07226399999999999 34.742867487712445 40.00180546657672 41.14259452946247 -1 0 0
1093 4 4 0.046836 33.718069287662786 40.38844310492366 41.1874231453608 -1 0 0
1034 4 5 0.160636 38.4031157940191 40.805819146737186 41.139247346682666 -1 0 0
1590 5 4 0.045503 19.510515144920095 0.3435840024030853 1.3600448401855476 0 0 1
989 4 2 -0.011164 38.276565543670756 0.7657631396321539 41.34004941054098 -1 1 0
990 4 2 -0.120364 39.5922887375008 0.2757618340118354 41.46287687278032 -1 1 0
1003 4 5 0.160636 40.254200108824776 0.2826210907327705 40.6011128488198 -1 1 0

Velocities

1570 0.004453076521724302 -0.026356222860793307 -0.027022100430561122
1571 0.004886911425706888 0.012173245164533143 -0.010671059687849767
1568 -0.007219155707520025 0.00635569629334967 -0.0066138120683731155
1589 -0.010620269589709352 0.010768003811099056 -0.017830511784675696
1555 -0.00485978408925014 0.0009074009773834869 -0.0013493477507349816
1556 -0.006239286621029378 0.004578285904488297 -0.009807294267912239
1557 0.00523641185819849 0.009254096098887015 0.0021336179468806897
1558 0.0010834623954880797 0.0051860602530710434 0.0003050543175547736
1584 -0.029062182520022208 -0.015463179606222078 -0.02261279066777265
1565 0.003910459354697273 -0.004556165830996532 -0.007284476375788021
1564 0.004229772129116912 -0.001122744052189005 -0.008223092874150928
1583 -0.00784828327325316 0.0047461956278540855 -0.007053104799653775
1579 -0.00261669748764868 -0.005248673020580078 0.011145521682581917
1578 0.0031086213657688074 0.006651879441994146 -0.011870083250971698
1559 0.004207518210162394 -0.007198656910088091 -0.011908212797235739
1562 0.00424216558015717 0.0005843415542827874 -0.007384493144909169
1573 0.011605354682293347 0.012326158053201584 -0.019681038681533966
1572 0.021779240943805886 0.0014276018075592997 -0.0029425935892344194
1648 -0.006960452352881622 -0.010922377638935556 -0.02428043446350524
1647 -0.0064037095365264 -0.001566031467633418 -0.004847440880144627
1163 0.006082514573517999 0.017013978150591975 0.024932041189000668
1162 -0.01950099976461485 0.0028449786867351494 0.0039030567030524533
1150 -0.006212713223340766 -0.0036767047792295115 0.003894539664809793
1164 0.005707431866779756 -0.004820097243164981 0.009795717167721915
1013 -0.0034585357206117634 0.021528690178005783 0.023440773211478024
994 -0.001361595738246482 0.003724288167242566 -0.004126003679535194
1011 -0.010416383875649042 0.003757770341870242 0.010959878728827607
1016 0.005606209562888437 -0.0071919075412074825 -0.019314487644242265
1012 -0.023172544048402712 -0.009942691916773657 0.02806584925271896
1010 -0.018293168503639646 -0.005332739294226448 -0.006534729477135386
996 -0.005685766385821912 -0.0027165245360851746 0.005724282509376398
1610 -0.018356341478666157 -0.0036429209555620496 -0.028298860054468605
999 0.005507095935530046 -0.0005192902013294343 0.008458411394106288
1015 0.008696760909598467 0.019414757728552265 0.0010912557898957928
997 -0.0038480471841521903 0.001869271502349884 0.004621824106016476
1014 -0.004097165513688975 0.005714782605372983 0.015887809748696947
1582 -0.010573517289074635 -0.004779286234955219 -0.005860539311573528
1563 0.008707108082878674 0.0026672743498074485 -0.00520382264413706
1580 0.024415647892701838 0.00572598409835719 0.0010056735421415963
1581 0.02463062389912068 0.01628791678153685 0.016500323108940625
1577 0.0032890166766727795 -0.0016167095589961224 -0.014211279326595829
1560 -0.002398785018321812 -0.0024199605792941743 0.0041359912043750545
309 -0.013404221893815443 0.004394951707668848 -0.017359501112064236
1576 0.018342977477841527 -0.006223287132317178 -0.010058840675373867
1561 -0.002116595366661464 0.013661583854473022 -0.00047929966539686226
1574 -0.014887288185590037 0.010699647009261619 -0.0025958997056112912
1680 -0.025852715478772027 -0.0014851180567829574 -0.01737544476082799
1679 -0.006828039274436301 -0.012350654817102954 -9.691753014247883e-05
302 0.003240845194769754 -0.019676048957516287 0.008578205697377734
289 -0.005081306521952425 0.0022154066188524784 -0.005155713710315174
303 -0.009417816374147256 0.013840701094405744 -0.010375156340833106
304 -0.018304303476521167 0.015889349174089594 -0.0019157287386507324
1638 -0.0162437690605641 -0.012238354502542617 -0.009940693976371593
625 -0.0023428705370422964 -0.0058272176883091675 -0.0024575919795409903
626 0.017310110897708536 -0.024089475440202516 0.007953574734311276
609 0.005236088193925327 -0.00023402466039856086 -0.006905942473046321
628 -0.0008479651233266562 -0.004233683531078033 0.0003481288440178559
301 0.0021219463496062437 -0.00854407728461113 -0.015524413721836402
620 -0.015164732622838293 -0.0045346366816069305 -0.016466643232331907
623 -0.018525926768468252 0.020049094593339277 -0.0016494546465743328
1637 0.0069181647608642415 -0.003994343652504697 -0.004952999903757732
607 -0.004239940076522774 0.003191529640093076 0.0020683130606511503
608 0.00014867268838031212 -0.0021407162823867316 0.0017350162615797074
624 -0.005622751918753383 -0.003384392695983106 0.007442478662558965
606 -0.002038102577535991 -0.0002389474490656744 0.008221674951803534
621 -0.0015755935547234253 0.003485450778070961 0.02592638353555092
617 -0.020961293858607136 0.001073232102395001 -0.017868026759628782
602 -0.0012930040161720348 -0.0034803155197472044 -0.003228036987335569
603 0.003327501525974905 0.0047792618051320885 0.007110506218936462
616 -0.022481194761268954 -0.007796294539635157 -0.007316133500153534
601 -0.005225323234842251 -0.007423471080273018 -0.001651299754695765
619 0.018687261252328013 0.0046995661812977655 -0.015466144662849577
605 0.0004131135816590674 0.004535140651861493 0.0016535681383939467
604 -0.004008614622657792 0.0030805494599173526 -0.004166827780710646
611 0.0017074343549617955 0.0038093971362725045 -7.729271416576748e-05
629 0.0004879753419318473 0.006671243457020713 -0.02047847433684627
610 -0.004767866748382433 0.0018934271446429366 0.0032837498571376238
630 -0.008331943584464518 -0.01461996084996629 -0.006027600604796048
600 -0.004017349370139137 0.00452686079378327 -0.0034339563057681904
598 -0.008920272695764897 -0.008571199373561015 0.010517029324339119
583 -0.007626707153973605 0.00954650668417462 -0.004888855173297384
581 -0.015134134210675604 -0.0018910592699621885 0.005013257605220259
567 0.011437598786934447 0.01561335401821417 0.018263180328702267
549 -0.0074355415853218036 0.0046450013684482825 -0.00012499841437295617
536 -0.01258519304980908 0.00237597753266346 -0.0042362690538195556
551 0.0015197510489300238 -0.008185177569769381 -0.007502692179712339
539 0.004792507853161028 -0.002843260479879644 0.0032493563946823074
613 -0.02174700741139946 -0.022125799382513724 -0.02008232659830037
599 0.007834485425977707 -0.00984170138591388 -0.000429644648246947
612 -0.00591527069015525 -0.005072085036657738 -0.0035369918994575746
569 -0.004506843876929407 0.0044322410716973425 -0.0024044720934529597
582 -0.02570649263191021 0.006713253203845927 -0.00015517190520482034
568 0.0016909713183434253 -0.001298259080794862 0.00171886914752898
538 0.0014641752258107818 -0.004092933361475942 0.0031395234500860222
537 0.0005516469036282771 0.0006368722838999105 -0.0032157989075984224
550 0.0038506853724384208 0.017163933726131765 0.006835073762935695
552 0.020398968805811643 0.0025851003781201497 0.0019392058301193
470 -0.028198734281734816 -0.0017167430754852515 0.01314136180749202
468 -0.007951916739431941 -0.005739625712034877 -0.0013077494453630832
461 -0.01262388027699721 0.011435248823133452 -0.0046497109165078085
460 -0.018044553023257366 -0.001680914749235314 0.00062797523045736
472 -0.024969942789248824 -0.011860122523664592 -0.006744077899696902
471 0.010959539570004562 -0.011843326881976913 -0.007202231459860717
454 -0.0056226450244673066 -0.006577163819030829 0.004438123403096382
451 0.0015009448501763106 -3.0729476736421915e-05 -0.004960564256764488
453 0.0027930889775865586 0.004932069888382193 -0.004679339029619503
400 0.01511895405366736 -0.011465206982684427 -0.018881971330818988
407 -0.0018086398311629535 -0.001552324524782614 -0.021783174035813178
405 -0.004237022938908201 -0.0006600922043763459 0.0028406234104713015
399 0.009003712885219197 -0.0005654121133888083 -0.021425732421129353
391 -0.003105916886174362 -0.005605385633801323 -0.0015890115213845462
406 -0.015160474486755674 -0.03140103784362358 -0.0017843193788242085
615 -0.009280704280308001 0.0026114599049199567 0.013605285528602453
580 0.006907643397362962 0.005088030679374886 -0.002851125221220747
579 0.0016942221323177698 0.0029304629989921824 0.0007068910476246173
570 0.003785996874830262 0.004281396619933954 -0.010632105228655575
571 0.001169288680450544 0.004318135994556444 0.0010439183369311484
584 0.015164064740985653 -0.022218003079067853 0.007025635287308332
572 0.0003781884065572104 0.004809085996264331 0.005440076570033779
585 0.00654148088770146 0.014216337603786646 -0.010865064300361042
573 -0.0020609592908456065 0.010590675530741512 -0.001531413500882241
1628 -0.017286435378168506 0.020609105112211926 0.00870117498977415
1662 -0.0019465393382511265 0.01790395056615681 0.00635373621589401
1627 -0.007467880741863433 -0.0032616258302271503 -0.0017180546020531917
449 -0.0022745194972049057 0.0014575469820964299 -0.006491136008369084
448 0.001118381749924047 -0.0039546735859191905 0.0017733654053321138
473 -0.005510740320744943 0.013272202553524268 -0.005279896248473179
455 -0.0001809868196262968 -0.004075331375913743 0.00816618673715122
443 -0.009104074711449577 -0.0021322214604662755 0.004789675105843565
447 -0.008650162290844482 -0.0009530597566074698 -0.0002859030388044898
446 -0.000369877549843291 0.00289961048652273 -0.0017515183287718623
456 -0.008633167746256422 -8.436687146213748e-07 0.0032713006821793486
474 -0.020894757602784142 -0.005564108554200745 -0.017992567018723815
425 -0.002449609757047031 -0.002659863578580177 0.0019930064671265326
428 0.0016542307810834312 0.015020298829322414 0.008289737638293087
442 0.006067844023594641 -0.010650710373838954 -0.025241098453094114
424 -2.600067824942135e-05 -0.0017391018303896328 0.0038566604613723366
462 -0.012856008828887253 -0.018521739962788608 -0.016053943952781643
463 -0.0049033473274425945 -0.009203982656467685 0.007283433765239095
450 -0.0027729298529122226 -0.0005190208868396277 -0.0035542472235574867
389 4.981018782067493e-06 0.004300586958523613 -0.0018273479808271072
388 0.006662648704401728 0.004617318674839824 -0.009915123354995208
390 0.006438345489683756 -0.0008466135029633038 0.004442597891669495
401 0.003248702186398845 0.009829614378423304 -0.0001989757464064474
403 0.033210654405271475 -0.019697337009413635 -0.02086026502167605
411 -0.008655763291836798 0.026176503772121947 0.005368292633620814
386 0.0038055017605849377 0.0031458803952843814 -0.009344816306543323
387 -0.0028531466180111327 -0.0019286324119100365 -0.004538459588944477
393 -0.0006342004074608269 0.006062207531208948 -0.0028653851566384893
385 -0.002350205180026041 -0.0022449166865970965 -0.010017094357225127
394 0.0011361463263910737 -0.0007396541679878339 0.0038337187072780402
402 0.001103648519180188 -0.016051183392790033 0.018141644246186254
412 0.008720482144907627 0.017995616217999746 0.004044275488694522
384 0.00593919871684229 -0.0057806686184449785 0.0018153596107458344
404 0.0017828270414794226 -0.004307836964875451 0.031244349264086077
1248 -0.0007335762220927974 -0.011772630957734335 -0.025283023510705903
1252 -0.009063077338259371 -0.00893202257259941 0.0001432533108168435
1272 -0.006431141517523821 0.0025087367776259594 -0.023931445533321622
1238 -0.004238217140645938 0.0008372567147622408 0.0022612500405826876
1250 -0.008743546965931737 -0.0024744377763626724 -0.005354458419256714
1263 0.0016257153008587752 -0.019995085980301898 -0.012050131209217246
1262 -0.005973768209747736 -2.501070837183472e-05 0.009995687589021888
1258 -0.022169943667545804 0.02117604297918272 0.005189312351741766
1256 -0.00716818694250075 0.025926735322485815 -0.006916894747435262
1243 -0.008027781604139438 0.006220111166929383 0.0015981556227160662
441 -0.0005806296844074105 -0.022843876543464526 -0.027378514834878107
1190 0.010850179953390845 -0.0005023777614673645 -0.0013170220200169791
1189 0.00433426171104314 0.007824930015299766 -0.020583861599537914
1177 -0.0017369639078596043 0.004147484162788427 -0.00350852524937122
1249 -0.0037648358559879426 -0.017167063973361672 -0.013054075964989581
1235 -0.0055476915040134364 -0.007202956596747972 -0.003964475065023955
1236 -0.00681516052031927 -0.011677590041609995 -0.006115204350816452
1237 -0.004406545171141296 -0.003273278173616584 -0.0010694488351092866
1234 -0.023196744387320098 0.019870365221709135 -0.010708641666461646
1176 0.0022846069039233127 0.0006417656444312973 -0.004843905929984322
1216 0.003588298748605367 0.0018739218029810874 -0.010138517664114898
1206 -0.0016387268001915231 -0.0011214183626876545 -0.0036909082234792305
1207 -0.002228277185690184 0.0002617120186972338 -0.0022230357663013955
1220 -0.0020988325422668626 0.010021466151023893 -0.011709793249934371
1188 -0.011626304798473248 -0.01375221849566241 -0.0025445224155784237
1218 0.008318457090694906 -0.006432809002629414 -0.02592055492667339
1156 -0.01414431374268755 0.007449932617368938 -0.012224093095604408
1142 -0.0025110138662160445 0.007963822069576259 -0.002660561944932198
1205 -0.0005009792509477171 0.00029044105580020257 -0.003132943929521107
1219 0.00819063687780441 -0.015188282789303256 0.018995624374679655
1204 -0.0008067308124901364 0.0024325162010881726 -0.005594590450483627
1175 -0.0017142141458661177 -0.0071469366943424685 0.008069481071767172
1174 0.003875055991959821 0.0025727737865188175 -0.003092529948428091
1217 -0.01450250440099488 0.005684037154833688 -0.007066601449896495
1173 0.0010481895098425958 -0.0021809616248034576 -0.0029142396080884423
1186 -0.015241675285716249 0.013130193839286722 0.01315103904252361
1251 -0.0037060652227303486 0.011988994984559713 0.005037557956643917
1185 -0.0029158067508471856 -0.0026525516382981196 -0.008036347136071719
1113 -0.010531859542632898 -0.003745861803023734 0.001316065956665839
1266 -0.005040825501043611 -0.0021619783885861014 -0.010258996674519717
1271 -0.00013984401162250165 0.006343568584474265 0.003648521074617899
1203 0.002418975983850341 0.0021353413688892384 -0.0055538825615392955
1123 -0.01165284201231488 0.005686913900103402 0.003760200351495888
1122 -0.011038173605108382 0.0008988507395881275 0.006991269329907309
1141 -0.015835666485098685 -0.003938922669982558 0.0049513769581991645
1140 0.0021246299037506675 0.01816350277440728 -0.00022451607812758092
1650 -0.008625864399782347 -0.010645753374957724 0.006651130804887749
1167 -0.022001127356294684 0.011177210222465811 -0.005235245077908811
1166 -0.024121526390053116 0.020052243231099106 0.007464959531436187
1165 0.014661541306759354 0.005884276682474444 0.015178134462153488
1151 -0.001996326294373487 0.0085347645171472 0.0002404237937859059
1169 0.013490132686963655 -0.004323869461803537 0.009324091220203777
1157 0.0004407022065851286 0.0011720282250486515 -0.01022873383557495
1187 -0.005381391613651347 0.010714791360311364 0.002284655923543131
1143 0.003337785866785504 0.008513747188866085 0.0043632435804048025
1126 0.00509076915391661 -0.012864903068049355 0.00352919915209723
1112 -0.003430433228018705 0.0025643487586949395 0.005513889622854296
1145 -0.0028911730697798975 0.00013144842406447938 0.004802778633533371
1144 -0.0068160700042345064 -0.0018629881937290678 -0.0030854036427245164
1146 -0.001529390592098953 -0.0025168889316664017 0.0031104525386469874
1159 -0.021914630366023875 -0.00563264276296862 -0.001963950248891813
1147 -0.00948751988404199 -0.002062404083761076 0.0016400318770454312
1154 -0.0013918347618200814 0.005555094758155206 -0.0017600950150857828
1172 -0.012712324581069547 -0.017157697949559955 0.0041196951005464865
1153 -0.004171261591131861 -0.0006964446121681671 0.0030218291226138103
1170 -0.03257636072249737 0.007557691146826422 0.021804333464644353
1171 -0.009032884640209972 0.004317282132777012 -0.012490824939239685
1152 -0.005518911577210427 -0.008357928064088948 -0.0023222386982950567
1168 -9.736941365872656e-05 -0.009032557578379475 -0.0011418069883563208
1684 0.01005023220042948 0.024529327984082867 -0.032411230428964384
1683 0.0066069721022424715 0.010862500399938552 -0.005723879595644593
1111 -0.003234955335022901 -0.002286697160533427 0.0033563284843838356
1124 -0.010106981096888411 0.004994863693872165 -0.001297667996180828
1005 -0.0017236752213215037 0.00284017247715685 -0.005009183141939103
1110 0.004281210821873412 -0.009709788302096027 0.002789808670550787
1092 -0.0022884959439480644 -0.0031264039104829415 0.0016297276716269878
1096 -0.010799178875764082 -0.01345547567928071 0.010629850114269184
1082 -0.004116936816939019 -0.0009056823491161503 0.000523567992546991
1091 0.0038194721374168283 0.004826162356345746 0.004300646126634657
1109 0.010611077292699016 0.02139389411515306 0.007850161671181318
1083 0.00014275973579749217 0.00371791160069934 0.0006047135453695778
1097 0.0005902536283858063 -0.007643687709739164 0.0016204673956519249
1084 0.0010462377338463003 0.0006146297862525566 0.0020687432500673957
1085 0.005196773494945863 0.0014290672682042258 0.005859190112252211
1104 -0.022806455465966415 0.00832036315602549 -0.012972076976832675
1106 -0.021534085486511326 0.006503204959160628 -0.002306143609886296
1086 -0.0035981208317258525 -0.0016736303533577915 0.001981400142735474
1098 -0.019786380533022573 -0.0133514647491444 -0.011142278070034279
1099 0.0038148609422017214 0.0262560537991875 -0.0008104103027233255
1107 -0.0309424623361391 0.003767162847824046 -0.020458602836918752
1004 -0.0007393126000858188 -0.026472337494540615 -0.012909935248781215
1649 0.009184728989941857 -0.008798703978744897 0.004011809120021978
1588 -0.02572708614997812 0.0035510548699156297 -0.008922831590788894
1149 -0.004746761808564909 -0.0058051173214629295 0.001692344183667136
1148 -0.0023413193925032744 -0.0007747063907465282 0.003433849732358211
1161 -0.013155216211620397 0.02463003754165803 0.01214149668093399
1160 -0.002215117957158994 0.027730953877292484 -0.029233240947849192
991 -0.002266329033794981 -0.004568656527988596 0.0009553339730283171
995 -0.0039334532770090875 0.005794440504027985 0.006699659676285154
998 0.00034872551305854447 -0.0024745142412878865 0.006542405556028942
1006 -0.009476337637413977 -0.001440919202059476 -0.006615151626884829
992 0.004620337366284485 -0.0064566547976091385 -0.0016114312559059286
993 -0.002252111013430004 -0.0004698638612606237 -0.0010366455039019786
1609 0.0006345526181776963 -0.004468397452861055 0.003095414195593012
1007 -0.028248068831796203 -0.009254546491505568 0.01138436653771218
1009 -0.011443473808625804 -0.012676765142696462 0.0046347093848357265
213 0.00679775294055393 0.006215963061863918 0.01571780297931446
208 0.02121329395097475 0.011747892060784781 0.01756234721743125
308 -0.008562169623915265 -0.00668712911512177 -0.0036424549070201615
1575 0.0017252824011155412 -0.009287119953410385 -0.007694638214604186
310 -0.0020645797163091743 -0.0016607539923451753 0.0056124571356727946
291 -0.007965667545597264 0.0029276703903273376 -0.00458109826006283
290 -0.0021142939051376846 0.006886712452949839 -0.008554526674187934
305 -0.010679170812579207 0.001937370518357788 -0.012675413548724961
306 -0.0005671727918423793 0.02562988044187666 -0.005124835422973786
307 0.0015335552679732324 -0.002019054236729486 0.007324703322637941
288 -0.000661141190382031 0.0035879923484281474 -0.0009622475416947857
287 -0.0005271699731822861 0.005756453855127611 0.0017874694070428912
300 -0.011298676132450773 0.011338294289617495 -0.025502322288995263
299 9.819358375530874e-05 -0.006153458706892529 -0.020263463303199426
531 -0.0075046912333200195 -0.01068175854264071 0.00804485353070749
534 -0.02038518987083138 -0.021527245108727455 -0.011780456321049064
526 0.008201413957042755 -0.01953313160934549 -0.0011467558019508277
1675 0.001181361039064421 -0.0025344483704448227 -0.005006925484631807
1676 -0.01656133745982774 0.0100085987987052 0.04060854344118128
515 -7.821958071292396e-05 0.0012045321175828945 -0.006439839881072691
530 0.012297095012043109 0.00407741113475853 0.007724039907186816
529 0.020266663496624517 0.0068840862544403145 0.0204391996427529
532 0.009720485092820978 0.006611052134906331 -0.010315546904658282
524 0.0015064756218151106 0.0016267920832298143 0.012083661267005014
517 -0.005494444981031725 0.0005100372156111473 -0.005522809282084093
535 0.0034619530459236735 -0.01317048989826362 -0.008962464821750143
511 0.006800580784827461 0.007757507706433305 0.0013913241506349257
516 -0.0007725405869961919 0.001971083204711207 -0.00806524283912147
533 0.012968547805973325 0.013529053905984183 0.0029449995643027384
514 -0.005604140382496494 0.008186510336292545 -0.004276830443906851
513 0.0011845677780485586 0.0010080488635634786 -0.0033607126751807144
512 -0.004556323447378169 0.011106029536202999 -0.00846078575472881
525 0.0166246750986042 0.01342398135264279 -0.0001532530944938057
528 0.00028289065283792613 0.003674682762107393 0.015659597480944268
216 0.01323936464191712 -0.014690150065347591 0.005123621366489124
1685 0.0028830720404856873 0.0031432998654979194 0.0042881672991097715
1686 -0.013533090393180486 -0.0044883876453510295 -0.010116434832645396
311 0.02567547050327868 -0.0040765038520034404 0.0005349954561368131
292 -0.0020415503466789855 -0.0018047088223807986 -0.000455710810440024
312 -0.003768679178638385 -0.01030912262407057 0.007348341949335396
293 0.0014839926335473085 -0.00024228198615995806 -0.004548462471559823
249 0.00745838241106008 0.006600497733004989 -0.000400228752572118
230 0.0015711108530016525 0.00034267881537690425 0.0010663032014144474
248 0.008556684618524114 0.01514341255201396 -0.007123134819771596
224 -0.003455924045753712 -0.0005269959143873962 -0.0022645272171079346
297 -0.0042165369002576565 0.01083486900453083 -0.0043405090126361
282 -0.003785653980206765 -0.001022638917054126 0.007718937225700237
286 -0.0057418470887274165 0.0008700240300736871 -0.00035494470524521915
285 -0.006990043842112459 -0.0018593780222757857 -0.007527348807174105
283 0.007032051455790124 -0.0028248311028534843 0.00014239770087605495
284 -0.004695409230172263 0.0016943421213591642 -0.0022364813309250866
298 0.0012467630897317668 -0.008727180369040155 -0.013928262992781082
318 0.0119693846012173 0.011545151464889401 0.008310353434224553
622 0.0274691612113107 0.011665387687169355 0.018272931035167073
627 0.0007745251613797469 -0.0023591935545499727 -0.04390858929796193
618 -0.004514525874940294 -0.01346950540978622 0.01099623513904406
566 0.0011077276969823349 -0.005984123581436648 -0.01971161453545132
564 0.0042498004820719845 0.009135063612962437 -0.008268030799634597
565 0.004279918302789039 0.021506672159248345 -0.0019586600737522253
547 -0.008137032271599317 -0.00016102308110367065 -0.0097876224912691
563 -0.016070420324477266 -0.005697209367966017 0.0034229725594467275
542 0.001530083980498444 -0.001101481609627641 0.0018929977389563139
556 -0.023568886501278346 0.018025736891870998 0.0030084404315890486
544 -0.0018393110420063077 -0.0009681884175391909 -0.004513751665264437
543 -0.003538877300105102 -0.006466021785650768 0.0043894324394878155
555 -0.01096231397388409 0.0025627785150160553 -0.010969376564885508
562 -0.016303377481474632 0.0014910599670756206 -0.01585059136332918
546 -0.006844487200831317 -0.000988199624943706 -3.052501499163025e-05
561 0.006963537778289517 0.01724918869524741 -0.007849700274008636
560 -0.02664384815787641 0.018549680763129378 -0.00535528210862564
557 0.011212474605154935 -0.020711484016042097 -0.004716866991366165
558 0.02203502489519906 -0.005596897305042538 -0.01123019144502975
545 -0.007523512505838877 0.0005715606580105122 -0.005049060277039136
559 0.007099981412189706 -0.012460680738580254 -0.007477854021320134
518 -0.006039810222371352 -0.0005211886146694762 -0.005515396344390691
548 -0.000139767311849926 -0.002620196510908818 9.781584275384556e-05
508 0.004856498596254858 0.0003057068393494683 0.00544456107284978
507 0.0043891032061224924 0.0015213564289204068 0.006510794361099185
521 0.014561873665452758 0.005519158167934652 0.011458889657958975
527 -0.01594977706464465 0.0038833535485190444 -0.02146334664799822
541 0.0057794368086183405 0.006523598017943361 0.0037925944547092527
554 0.009146946493543608 -0.029203787394678306 0.001096777295209122
510 0.0009808867843453823 0.00039492339457968873 -0.001322642618173448
509 0.007249630191869695 0.0010467198488186627 -0.0019992805293872163
522 0.011449983509069823 0.008651381411433217 -0.004760524759970007
523 0.007482614132385815 0.014564149636371973 -0.024149862566932613
1677 -0.010360567045564931 0.003705828605278895 -0.008339370105143122
540 0.0032281566049354978 -0.0026060592480137536 0.0059162251121461056
553 -0.001028630675983271 -0.010482342510258525 0.016266239015175564
492 0.007425850883674457 -0.004707543051708024 -0.0019637427045518943
478 -0.0024884284734034224 0.0004354772296528761 -0.0012665501848752039
519 0.0034364908137530996 0.01728522621126751 -0.004797681561273534
520 -0.010934344042826276 0.02088770713657463 0.014841148166438162
506 0.0008756985819774481 0.0061748238885939504 -0.000884302528462027
490 0.015577056248842864 -0.023638336700460935 0.01123110497079581
488 -0.004288810757286 -0.00686372065457932 0.01146698618298639
476 0.0004220782673963364 -0.008176459525763692 -0.007608460361041312
477 -0.004301013412965485 -0.003933669049712188 0.007193493801520206
491 -0.02325648611554377 0.006505964364376362 -0.012546278134768215
475 0.005133987430679425 0.0010840782514635028 -0.0021409736335182687
489 -0.014559138828082864 0.014352745353693729 -0.018776210059108768
1681 -0.004353767149456157 -0.00722478887135864 -0.0005315517359864999
241 0.028998057866660487 0.002394985648984239 -0.0025582372517895108
227 -0.0014439859071497846 -0.004965006146362803 0.004818865215991296
240 0.006544724364276567 -0.005269947878994497 0.011379887207225084
239 0.00731224688420132 -0.010767591277932682 -0.0065286757240347075
225 0.0022772200125181054 -0.0014457161802292138 0.007776112301617922
226 0.002051966852768457 -0.0013269658541905916 0.002767910303110309
237 -0.010118225051552125 0.0014088925746243675 -0.025505711341205987
238 -0.0012825952684853746 0.011460206770096277 -0.0005100629193848932
247 0.005879509323535347 0.008551115742274712 -0.005756156766345685
229 0.001739407330037647 -0.0028723533171873456 -0.0021210054615543187
246 0.0058021591907656085 0.012421971881655869 0.016127239443440754
245 -0.006137275474152806 0.003685633057138802 -0.00802890074379366
244 0.019325591029096513 -0.0021209155895889602 0.017314133622518837
398 -0.0012060344161650572 -0.0018994573754662833 -0.013119523464246859
1682 -0.03971757306847885 -0.014103934153389166 -0.014006312480971473
597 -0.0009745691237861807 0.0013298148766869083 -0.012065773028719393
586 -0.00029767194700383776 0.0009341270350055257 0.014744130472170549
594 0.022701589773586387 -0.005668510954863229 -0.002677083862254888
593 -0.008349611175567337 -0.01234047720402192 0.02876839705026267
1636 -0.01411953010608819 0.0026851941221864425 -0.023085656063791104
1635 -0.006953964240886273 0.009799175549589563 0.014945139585085079
574 -0.0004799489084878269 4.967283357387031e-05 -0.003544113230112687
587 0.007576764132283449 0.02686394057933832 0.015800587989732853
432 0.006010299573325579 -0.0033255614918789103 -0.01663575521516549
431 -0.0163431669230137 -0.017788881470642524 0.004529820596226965
1661 -0.011237399372184648 0.0033687298501077377 0.002713778872898492
575 0.005335843524176769 0.0038923742685855675 -0.0010631212528666202
589 0.03142976518032883 0.010150770631285038 -0.0028244874108747956
578 0.003394627953386448 0.006920206524411608 -0.0007996112056680997
596 0.006646716595067909 -0.002388409769332505 -0.023555828696004553
595 -0.002844874447223506 0.009781814092061204 -0.005216004663393424
487 0.0065319816835412905 0.0014775670949818943 -0.007637652635044925
505 0.02462485729490874 0.014695639740860371 0.005126598346560837
480 -0.0022825538158571367 -0.007396841586586613 4.25574935539198e-05
479 0.0007748679982038828 0.0035988493500208043 -0.00097423266151983
504 -0.0077440360360550055 -0.016864306676328853 -0.0032273185585345136
486 0.009971238121052326 0.0007965471892181045 -2.234997636359475e-06
494 0.0028927141212594463 -0.0014582184612728522 -0.026800951592049142
481 -0.010632332541726176 0.005874321241631614 -0.002378257749106075
592 -0.0037475687478780114 0.007786354384111278 0.03576279040991654
576 0.001960967420531641 0.005015866493813179 -0.0007615463103613389
588 -0.015434988589628232 -0.014684663809127921 0.02080464300156396
577 0.0004316969255111301 -0.006573783273477491 0.0010247631109576772
591 -0.011805812750278076 0.009289763956690168 0.019558056661708817
590 0.008248502034998804 0.003720106912274867 0.010090365441524295
501 -0.019707111832517624 -0.013224962226084807 0.013566531920512936
415 0.0029821555005711767 0.000494246915008531 0.0002891740617292663
445 0.003441547252734119 0.005789558510617919 -0.003366412633209535
459 0.023736103943852765 0.01163882714550546 0.015658190732144035
414 -4.412703823695521e-05 -0.001470242311194756 -0.004905590561856019
426 0.0030856863498961795 0.011667722375487938 -0.025625818725963808
418 0.005150063863765107 -0.001321562851041572 0.00151480484351541
417 0.0029045419012949224 -0.006478788258582141 2.493268757855854e-05
430 0.01935376167481459 -0.006149914007791711 -0.0014005098055925188
416 0.007674954160909658 -0.0016445355079197325 0.0015415918876635951
485 0.0013005880144283163 0.00117068746045827 0.008043610244137224
458 -0.02470042038154368 -0.02127025715263914 -0.010027227670249864
444 0.004434142153103931 0.0011705845525537015 -0.0038397479201074066
457 0.005243228446909023 -0.0016057302408121548 -0.01257383659260993
495 -0.012420635358698343 0.010753067833469236 -0.013114407716130642
502 0.010953522437098318 0.006401899009127591 0.012515851857080419
503 -0.004990129794106689 -0.008153139275059442 0.013936365783141795
355 0.0020818234913851765 -0.009348683678342852 0.0007848838020729689
356 -0.0029483244882304175 -0.0035125959382914526 -0.0033332713981350814
413 0.0063570794150189505 0.004111853307612814 -0.003473827768653269
427 0.004472213055234446 0.01206716702545709 -0.016399274988408135
429 0.0085131199234887 0.004316076179632998 -0.0068103292890416755
370 0.0038437388883080714 0.001152456263950938 0.002169967124816814
362 -0.002509054184109024 -0.005720397636853323 -0.0006069217854138062
483 -0.0030485158347908483 0.003059698976023658 -0.003264851031183989
357 0.0010220696438543882 0.002966851577611502 0.00012930088619712425
397 -0.013002205710659628 -0.0022170581931675723 -0.002699422380994634
383 0.007363235629388691 0.001990833205327401 0.006604564544869389
396 0.001893163899099817 0.004421006135254198 -0.02367493522537608
395 0.003262060114246621 -0.007666943332371185 -0.007515119095174524
366 0.0017794775414568358 -0.013461839366637897 0.021108196237406215
334 -0.018310847702953423 -0.006225596298975297 0.006709354794729574
319 0.0001383282186017012 0.0012975339487776565 0.002741649340617881
382 -0.002624498212013073 0.0010942411021643054 -0.004879203112258668
352 -0.0031682097272314096 -0.004797344316948109 -0.004087920548254786
353 -0.0009601285065812485 -0.002838439677103652 -0.00023314007895808018
335 0.013515352889197363 -0.00225170976208373 -0.005182870653094586
320 0.007298404136668985 -0.0028997901113115743 0.0011940010845067255
365 -0.0012345694089141383 -0.012719192369403727 0.009825026522779178
351 0.003995506402906762 -0.0027093672780212665 0.0008405776069043717
367 0.006391673865178784 -0.002675618683661375 -0.01735663283663155
333 -0.009326037890453833 -3.418750706957077e-05 0.00406031398238974
354 -0.006205898663527914 -0.0015954127365133536 -0.0005132618622615871
364 -0.005341511930035722 -0.01150735042292426 -0.004170776458463512
381 -0.003196043770271086 -0.015387795875217712 -0.01743650546764475
363 0.009208826210035246 0.00024973363320222945 0.005024636534213369
1270 -0.02287651199203353 0.010809727390380157 0.018805150711542033
633 0.005261133746577868 -0.019938018929313826 -0.013244892907279154
631 0.005229718772242561 -0.01649737293679685 0.015931207490062667
332 0.0005231181830250876 -0.0036023847272936634 -0.0024907811995719172
632 -0.004377844443381898 0.012587687783410828 0.01868329323061581
321 0.0036933075784821795 -0.013722952347132701 -0.001583621996862357
331 -0.0038186908256120024 -0.007277084541889318 0.0002305413306686157
350 0.004141766004744599 -0.009131869439689896 -0.0052703553091118845
330 -0.0037767662043138085 -0.007880836579637111 0.0005206654923168321
349 -0.002032627172131329 -0.024812353268600738 0.0026619041136750417
1239 9.039076736799118e-06 0.0005204718822682951 0.006470590354053033
1253 -0.003107957255978714 0.014357785210067612 -0.016037800698347968
1240 -0.004901536489127971 0.0010560010457248432 0.00041887149849696774
1245 -0.010126103356086623 -0.006375259468888836 -0.0020682530888405234
1264 -0.010091224674498116 -0.022061464018033834 0.009898664571160806
1254 -0.011467863709196911 0.006278613780700132 0.032316299163177076
1242 -0.0052882009317250225 -0.0004969939087234446 -0.001820164374380873
1241 -0.012934930139610144 -0.009124190169642546 -0.00023130137046490176
1244 -0.005351112455887292 -0.005867770000243713 0.0037867457457565644
1259 0.0009608729654624947 0.005692658072720985 0.0034409489108350433
1261 -0.0138877453170588 -0.0052509171675791865 0.016199513941466088
420 -0.0006045875050669678 -0.0037364691810290026 0.002593439759609303
433 -0.002226567947822279 -0.008019594946441402 0.01048499652202953
421 0.008391962858545822 0.0049003953068579185 -0.007304208522704664
419 9.879929175914197e-05 -0.01244221209253193 -0.0006860711470688678
437 0.016012846524791492 0.007388917015875011 0.012430929137738033
434 -0.001504383867020165 0.0019288672583372226 0.012085217343065146
435 0.009275180082089336 -0.008841409105772977 0.010843366363225969
423 0.012128046145463247 -0.00822684837142233 -0.006343987832997713
439 0.012863286479214128 -0.015054128197593471 -0.014613728756907555
440 0.0029080874674890203 0.010178510919142016 0.02533643946605164
438 0.011626515953556708 -0.012001306817451726 -4.5004109353763855e-06
422 0.004235992652391767 -0.002688969263383187 -0.003846519319050215
436 -0.005992283302561357 -0.003072048210588985 -0.01860979302986546
1687 0.010869942286159196 -0.006669076604029986 -0.0027513880902941337
1688 -0.00374104299404019 -0.008167608353736217 0.03228156959183155
380 0.0056801862842926825 0.0012728745012728206 0.0030469876656027115
376 0.010574419087590662 -0.02394824831767203 -0.015239613139402666
1192 -0.017652040692719896 -0.009636655257933984 -0.0014834032725175575
1179 0.00701064018568183 -0.0025173546868283003 0.008757930595784778
336 -0.01928040914211068 0.004389797915020822 -0.02554226201073182
1247 -0.008146631092731161 -0.0064637221135302025 -0.004936289159540469
322 -0.007887741046491056 -0.0050226462666934455 -0.003458116102622794
324 -0.0030220588256091824 -0.0010991805385411437 0.0035032972084445644
1178 0.004900100080984946 -0.0049351888749440045 0.004898172268303751
1191 -0.013468899483206839 0.0037497294401625464 -0.003914854095592146
1184 0.0034320080087185127 -0.004445191726074652 -0.002506579353608469
1202 0.003250766807520323 0.00424094018150561 -0.017042298441144788
323 0.005317560817301089 -0.016788527286551447 -0.0026117875849289377
337 0.024850234069899495 -0.0010255972424183702 0.005370620667909733
338 -0.013117084519448222 0.020963755951172388 0.00047157354294454206
339 0.0024728672035347304 -0.016518872752990642 -0.004841449126756516
348 0.0002934975114137967 -0.004035035219327513 0.0005983595658278864
325 -2.4378128416046273e-05 0.000551698466128025 0.004433355376007415
1671 0.0012330408767910407 -0.0032989701277152447 0.0073308907742908325
1672 0.001705246536041074 0.02448121505120696 -0.0060039739072872385
1246 -0.007892194052569076 -0.00613779901795653 0.0011611643353028546
1265 -0.024915559495236585 0.006688778065532648 -0.010931172454512316
1257 -0.02690338023061949 0.007923247426181992 0.00017787811388580554
1260 -0.030162181930899038 0.009772874622745342 2.808886406202387e-05
1255 -0.008996532348948063 -0.007472014348914379 0.011340650927140601
1594 -0.007364539850819981 -0.01375837480171747 0.0475023228442689
1593 -0.0002944406550669472 -0.005687733894721457 0.010031639461408353
1196 0.010234507543172872 -0.0020370709109212614 0.030790188366602963
1182 0.004789203825767744 0.0008291033121158148 0.007730182501549993
1180 0.00571427909926565 -0.0053839221473292774 0.0005111174651624759
1195 0.011564205521364751 0.014954073712662662 0.023921267528766995
1181 0.0019323224765257635 0.0010265800413835587 0.004883458595431815
1194 -0.009563902743665902 0.030519814987200074 0.006617771468458218
1193 -0.015827553175435223 -0.006405289643923817 -0.029503148000449366
1198 -0.0019229841289366248 -0.004364542785694158 0.04453660977790949
1200 0.00500311412208051 0.005592407484605708 0.0032986819609627403
1197 -0.0030291322179278957 -0.014682246454527603 0.018966840539986728
1199 -0.012505034756796141 0.0007779497100147649 0.01318688832309065
1201 0.003867840257420152 -0.0007648860725851373 0.020111999854658585
1183 0.004710864699012864 -0.0054196299654990865 0.007645132734271413
1105 -0.003465686277617764 0.008019784355578907 0.008203643328517331
1103 0.005367342043792051 0.002777056642723513 -0.013166594769366958
1089 -0.007846461049822728 -2.932504792890284e-05 -0.0010138474271921636
1087 -0.004222699065916235 0.0006931441475795765 0.0008598801491255614
1102 0.0009801969633612074 -0.0001975683766904054 -0.0013488287975820265
1090 -0.0012380897289082469 0.0007439931006976204 0.008113942250778085
1108 0.008312030608727209 0.008949342954231908 0.007655268494959285
1088 -0.00855041668669749 -0.004607904792078163 0.0020577994228762895
1101 -0.03691619983584997 -0.012868318331948285 0.007628291132848628
1100 0.003492786528467403 -0.006837084526604593 -0.003781601379740502
1008 0.019244148330640955 -0.0019940013983487793 0.009465826617158841
1622 -0.01590768491261025 -0.001494733643141711 0.047317661907566366
116 -0.009233519381083516 -0.005237467652863914 -0.009512445590409417
117 0.00047242910352653794 -0.004713316722853104 0.02307435177999415
1667 0.008756143176539138 -0.002796608511195742 0.014587099034348688
1668 -0.002332616520940529 -0.026027675529640873 -0.011320067753930678
211 -0.015039749871078636 -0.00957389029411983 -0.0056309033124459775
197 0.006576013948446607 0.001512506579531547 0.0011249161557320122
212 0.002798636307801431 -0.0006885315645852999 0.010282252167453348
122 0.020422054953923467 0.013113308485988202 0.005380962226821977
105 0.0043715167817357185 -0.0031370170138969146 -0.0004999753124189438
121 -0.017117016114065506 -2.6499510772621523e-05 0.007993245402346218
123 0.011675882547698557 -0.002294641205357567 -0.0048730114156807615
196 0.0012908642896406397 0.005770223219828315 -0.0022495173363424647
209 0.040482778203886745 -0.0016497570104789696 -0.010557001645994794
210 0.013126552557224676 0.0223348303152813 0.011916155058128352
206 0.008857270175143046 0.006724389654041648 -0.01777974481978569
217 0.013161555935999839 -0.00932394371571657 -0.005011214368882313
199 0.0015225007264324337 0.003488243735365211 0.005683030518240988
218 0.0061347910796691685 -0.011968499895079183 0.015704186393736094
187 -0.011486835294098705 0.013577339661563414 -0.017746769793792663
194 0.0017259105410084158 -0.0010882800632387715 0.0033550808399607115
1621 0.004394271442333045 0.016051006494934756 0.03270625678623337
103 0.000550130004720051 0.005485397125513475 0.0023344544903584888
115 0.010505116999607786 0.00016310441525079508 0.015030391289222813
113 0.011536826447860629 -0.005193029166554116 0.023357284324526172
114 0.028954658097116788 -0.013418883974663905 0.011032989139861385
101 0.000761033715974782 0.004601123040280689 0.0039789688632542695
124 -0.003760180435057275 0.011831745283327703 0.0025147999602894
102 0.006141899715424111 0.004358787276258653 0.0025520773001471296
100 0.0045761093861686085 0.003341043436088014 0.003844830139707288
266 -0.0016872241075314089 0.00030914341914238183 0.011856235846251232
253 0.0013898276301422283 0.00020635203134610099 0.0021323911256696834
267 0.0051808714249309915 -0.007703794321243759 -0.02330349872977618
254 0.0068984930512621485 1.1034577689773015e-05 -0.0004989665889204428
186 -0.010691950657509204 0.000505937410045911 0.004730983169814386
168 -0.0007359725685128223 -0.001990379130113838 0.0015212829140793852
169 -0.005638002236941607 0.004456290792168215 -0.0035676337849342033
255 0.0006814972593685586 0.0020688537758077516 -0.002687165718029905
269 0.008721800183487062 -0.0015076449067179852 -0.014435595739631293
214 0.021550251193883364 0.00041575827156106445 0.010235414574434332
200 0.005436293071739634 0.00431050033900483 -0.0008466163585871797
172 0.012780539712577373 0.009020584582174857 -0.0020140273905842085
198 0.007908928391589635 -0.003738729495380839 0.00142344276650057
215 -0.023818661435658486 0.008863610255832896 0.011000948561719072
195 -0.0007281534469294807 -0.004346171191170413 0.0033647176944695276
193 -0.0034950600220453364 -0.005231611712225333 -0.0009286894069921076
207 -0.004712821718394935 0.004469890296226085 -0.014693969343873136
192 -0.0050245957253581145 -0.005876336120912555 0.0023652970675463697
190 0.0012751564272111984 0.0045332505662222045 0.0056549959551486905
205 -0.0026064589326026963 -0.006052250799064324 -0.02081089698635942
191 0.002832853951623718 -0.007659247534802257 -0.005433262929887479
204 -0.00949691264466781 0.012718215395107462 -0.038698456449026475
232 -0.007401714271813366 -0.008032793320463654 -0.011065353425688939
264 0.007180717113901332 0.010403556452806887 0.006597478364431566
202 -0.0041949615931972046 0.006679946753272509 -0.008190115047664577
188 0.004458720441937938 -0.001332513258430777 -0.0056245932746342
201 -0.00855727297870505 0.009488822496649124 0.009776361936308197
219 0.001617981191219928 0.004372237883589037 0.004989046289023086
250 0.0032455519448286625 -0.0035489452876452136 -0.0027139259870705215
233 -0.0038954535981826897 0.0011164390841314619 0.002163616243219797
263 0.01370248411808924 0.0018104770690068317 -0.01696612330058317
231 0.006464998777729917 -0.0016054414385050415 -0.00026661554069643245
189 0.0011483281460855188 -0.0023731498087223345 0.0033629820316470388
234 0.008464615251078271 -0.0017491575504848611 0.008028763858749026
203 -0.009243824665051085 -0.01048935284857075 -0.013686834732085238
220 0.0027718426709827312 -0.004751800797229904 -0.002905645574705223
221 -0.004934194871045657 0.0011339354764651273 0.0037396816905413575
222 -0.0045567702866534795 0.006321798132925694 0.0036269378624702526
235 0.0030093653906584266 -0.005283714561888329 0.008442199795602474
295 -0.012637203862843735 -0.009943128632977204 -0.003361635887009504
265 0.009928869983956576 0.005471082910361798 0.004840640900903724
251 -0.00829696911022324 -0.005136733068608554 0.005834178065713104
281 -0.0042553603701937425 0.005898480174779931 0.0006934327823953269
252 -0.004549625857652048 -0.006216339867882361 -0.0049060569114001105
262 -0.0034917708199240765 3.967833848206938e-05 0.0011429500925121626
158 0.0023001685767325645 -0.005449991182848569 -0.0005993817072117173
294 -0.012228003166057112 0.001585335671263178 -0.011776797296539004
296 -0.0009519595619155568 -0.006442878427113136 0.000979048825434546
316 -0.0009705281014635776 -0.016530880528540147 0.019063757929908002
317 0.03065483912173771 -0.0109957282672991 0.009310626318077391
280 -0.005366093376828525 -0.0035390850065461213 0.004090198938290947
261 0.0026062298918721333 -0.009244828923401479 -0.00028150676072419956
1678 0.0034727702955097027 -0.02145660490370658 0.02292834739030767
223 0.00492820805373528 0.010351929826722438 0.004463461029104469
236 0.022574757533499017 -0.002908129898116842 0.018439907278001866
242 -0.024600453436568172 -0.013094592855747494 0.0029909042816982346
228 0.001191108341342705 0.0019206760692748043 0.009149642128832505
243 0.006148782163205789 0.00737885107028562 0.011950221442980259
493 0.026794128132664737 0.004297141812476309 0.015544178831079416
498 -0.0008308691896202268 0.001191520808960879 0.0031680116994132713
482 -0.0019310050537074354 0.002951151691815048 0.008043649804679406
368 -0.017575998898337677 0.01870208694131096 -0.011614829085050992
1689 -0.010454961470744163 -0.011318611181478016 -0.004186539002357548
1690 -0.0037853810788819006 -0.011770563980973845 -0.004431906192863519
497 -0.0144788285439589 0.005930055927933068 0.0016601892590316892
484 0.009155275345813983 -0.00011035939876546334 -0.0006495695790094715
499 -0.0029191412483528644 -0.00044091664649559606 0.025027196075728203
500 0.007730648008978146 0.03715878401814122 -0.022147943855931072
496 0.00841764181583601 -0.0031311943140105523 -0.023891007191453376
379 0.007135127209883584 -0.005577377931386811 0.01894470664379408
361 0.009799257041322684 0.0030194168055299704 -0.0031005446978681363
377 0.008018501849432596 -0.0021163517343917686 0.01113690861191683
369 0.011384864883034893 -0.012919345399516268 0.009455637007395132
371 0.008205486943791878 -0.031026059984652327 0.005635999678997196
378 0.007377503171459978 0.004910090938285235 0.0030707950913434986
372 0.004064088898304632 0.004302047214991265 0.01788035834232712
358 -0.0013664362203275925 0.0010643097483926786 0.0033603807561962845
359 0.004015230877586986 0.007359964991225434 0.0011487795535386684
373 -0.011264737019902287 0.0030730852885329386 0.012984965295973552
360 -0.0066572448504293195 -0.0054797765643922235 -0.004962145299770958
374 0.026418761765902417 0.007733579453387071 -0.022939098986992097
375 0.00805786651815317 0.004953073386447372 -0.004693880258715399
347 -0.01421817540891029 -0.0124660049738031 0.03291613805907335
343 -0.024466298772205443 -0.013689806187436161 0.00018292569890966323
328 -0.0009752983391262393 -0.0016632836591061908 0.00820150657746672
326 0.005945127889416961 -0.0003610640271656033 -0.0002606583731668847
327 0.0002680595285987448 0.0037347842987490495 0.007791152489914004
329 -0.001014405239549434 -0.007788695448457388 0.003949948959959825
346 0.004801748405996256 -0.03484709454255014 -0.003467651767732037
344 -0.00800685294588811 0.010835220450426555 0.00047935646408748265
345 -0.011576168965375298 -0.032022478503860294 0.004323823114256619
340 0.004350268304278333 -0.008700803761433236 0.010129037655026752
342 -0.0010891663759567615 0.01632194454063063 0.029785122518111773
341 -0.0038940035769918988 -0.011561522982260935 -0.015175149723304698
118 0.005809643811734027 0.00599665011025009 0.0011719887312113065
185 -0.009430389097092784 -0.0013609071319912937 0.008781892178965672
183 0.006722156736131846 0.0173136534245656 0.01411037606326021
180 0.012172544724255035 -0.002728750136456839 -0.025561758688283295
181 -0.011449094336857204 0.00977183650790309 0.02014496579965963
166 0.008943634229291647 -0.004452565056315064 0.0024962643561301998
182 0.020730743503300522 -0.037481967941239286 0.010441782740383942
848 0.0001948492691137586 0.01782339768082889 -0.008717637300226693
833 -0.008164022872148166 0.0015781090175580944 0.00042065603897380963
843 0.0048625814052914605 -0.005196760550436705 -0.012097766461656265
830 -0.0013426763451553345 0.0016293507026063799 -0.004434956335038808
841 0.005167495004773634 0.002305033303348792 -0.005244765517736984
847 0.02364930222940966 -0.029167393523358724 0.013179141626991069
849 0.005026397216708509 0.00861430765928514 -0.0023717050427271443
907 -0.02686915810362547 0.008810414432453024 -0.010263101636407123
894 -0.0018513385197016382 0.009148371051187506 -0.008155011559978873
119 0.02184041815245143 -0.014827011869207183 0.010036642379727406
104 0.002660849739698957 -0.0056246890814702 -0.004469193293412144
120 0.020437781449532313 -0.020368823991429946 0.0019941793832468843
167 -2.4738553847607593e-05 -0.0024722536355042788 0.0011200130420380937
184 0.018730870049572804 -0.0018532696082596161 0.012861043169799158
112 0.00597180947019807 -0.007450198667870014 0.02980469013074456
99 0.0049276872427987265 -0.003575531922309636 0.004624853239189435
106 0.0045794159118960395 -0.00035096368193363904 0.0023391483219440162
98 0.0027538898753517666 0.0033715424248399887 -0.0056308106546891406
97 0.001741706395113566 -0.00168859674200313 0.002473492353125348
107 -0.003304971013455715 0.0007289253405604887 0.0049105061245837515
139 -0.017407726010788698 0.01699176668314548 0.03268617220183563
125 0.003743738740401696 -0.003946522909832146 0.00815459030749539
111 0.009384533029845547 0.0019599354798880957 -0.019701229756012583
96 0.0027682190240112346 -0.005199595756623401 -0.0007123258959480685
108 0.0017095321016214243 -0.020607000878090843 0.011184698980233637
109 -0.001496474342523475 0.017418931797281118 0.0031091746626585046
95 0.0026370944289761723 -0.006173742698629356 0.00037276350999114303
65 -0.00554500765208395 -0.004441746615795513 -0.001976193258421645
1592 -0.0023660970879668046 0.009372849869413403 0.0077796829767785665
1591 0.0021783829031296253 0.008394781910750354 0.008047184479104989
176 0.027215174735923237 -0.002705885067547406 0.01716933707009821
164 -0.0027381302585240274 0.0020849895871937084 0.0010515739988637255
163 -0.003057350805424454 0.00015043389510114406 -0.003193986080691713
175 -0.006729193206077658 -0.0020827794660710644 0.012576863773305955
165 0.0036609342879333575 -0.0034492214628117053 0.000176796537718211
179 0.01275472292861336 -0.020432349374184852 -0.010956631882232297
159 0.00047168183875145517 0.0010022778329343658 -0.0017844060105317496
160 0.001388531729301712 -0.0007145172896540347 -0.0014872957220978835
162 0.005248020708977549 -0.0014986701119014364 -0.0038568991453655278
161 0.0009936871502473751 0.0037432711973672903 0.0006117211368239285
174 0.0007013276438920732 0.0072764493765155635 -0.007162407412164357
274 -0.003157283084702508 0.00823863265203509 -0.007059379915072238
177 0.006355074770663964 -0.0012408423845106915 -0.005600026876755683
275 -0.00683290982407084 -0.021318859478450494 -0.016716912377963404
276 0.014175116963104823 0.011230564106226179 -0.035768667467682154
277 0.018443072849951277 -0.004064309547216343 0.00878930596219844
278 0.001861174459172697 0.0034664525071985237 -0.032704037138103804
260 0.01186714238738132 0.0035458165595555384 -0.0035752512006007467
259 0.00710692524021313 -0.004792146868412217 -0.003051165380620325
178 0.0015273104751388944 0.004176140806308797 0.019270958591072376
1633 -0.0019532681946642064 0.016237858183444292 -0.0053335297265545666
1634 0.003049382218171908 0.01128915981333182 -0.017152663830732516
257 0.0033688155167936554 -0.005096383780338332 -0.0004962301998992591
273 0.0014795634928333476 0.005284690368890628 -0.01811103586134928
256 0.006022645350579545 0.006532656387889384 0.002459864925355765
268 0.00483888446885508 -0.001987635702933599 -0.014507806634435103
258 0.004559189521093626 -0.0005250807096624121 -0.0005448976506504593
272 -0.008209416342856445 -0.0025495131466958766 -0.009624607624864537
271 2.1101319182313975e-05 0.011651431505857707 -0.008518431026749658
270 -0.00614472954040635 -0.014500685781502062 -0.004075571161985401
840 0.010458600800584581 0.009908816525237445 0.0030635652623840206
839 -0.007863069090038413 -0.00875250014724011 0.003584288499895975
900 0.002985107874144918 -0.01752055624008848 0.02644031777045597
886 0.0001765174623199029 0.00609606309023054 0.005072464534797589
852 -0.0045723143131383365 0.015464044257974981 -0.004704481521915607
850 0.013741479691398167 -0.020863171089483108 0.0065394656412830045
834 -0.001016308737793635 -0.00631877234324211 0.00030934877098905464
831 0.0016010872412050988 0.0013650839523939276 -0.002168191934381076
851 -0.011198299633268372 -0.026812307413690287 0.007371856065661349
828 -0.011137609490932664 0.00285892301551573 0.006042404951779239
829 0.0020288667268944537 0.007873357057461084 0.006431334614423931
832 -0.002056983227007022 -0.0007188734321369985 -0.015615433530717015
827 0.004168416205623762 0.006233607928020475 -0.0005059673238225766
903 0.000189734392926179 -0.03797703539708008 0.018881161421925606
870 0.005378384047317787 0.016724822712346144 0.008296718955251088
902 -0.013162555855574505 0.0268199701171264 -0.02083147624046745
890 -0.006383074077493775 0.0004776648220326319 -0.004244397158354918
889 -0.0011574958568563685 0.0037752096562517386 -0.009667674449339511
1669 -0.00017435180209866006 -0.012655436422191182 0.00016151866166530925
1670 -0.01495854994321375 -0.02945250847658723 0.034154826431973165
914 0.026467605574106427 0.007315287054141969 -0.003953173249902596
893 0.003310213900710859 0.007074736108042523 -0.0005798793717884572
844 -0.006645924766172651 0.011837178024244865 -0.02773354332393109
905 -0.006918453034061902 0.009758079475955849 0.00036822849354028244
906 -0.00785574535374577 0.010957812654348614 -0.029916232916084834
82 0.024124549671638924 0.025947735794255973 -0.025811794596101178
69 -0.00851024611105788 0.00695357662853729 0.004744414523837573
141 0.013762008239131401 0.0037694846681591344 1.201457512381432e-05
157 0.004231252104851161 -0.0007304216340077237 0.0026577700091923477
126 0.001958208727090788 0.006042725360650603 0.008206989346673793
127 0.004845880069424443 0.0017793401815197596 0.005579851442122391
140 -0.0096267436408184 0.009227912949076413 0.011341002226622102
110 0.017026636625063943 -0.003100192451537574 0.013672368483551337
81 -0.005547202124081914 -0.0012732096448153708 -0.0062491870350922215
156 -0.008532161025376558 -0.002922069044832501 0.0012433584301151566
138 0.0015779947428310773 -0.010517769509928842 0.0028517674504253436
155 0.00996017415010798 -0.0023865676302198694 0.04099351465135772
137 0.0016954398889349488 -0.0008343975647537366 0.0037997625486118586
170 -0.010528012057219103 -0.0016916046968007312 -0.007671827742077684
128 0.005817495985564099 -0.00023927545040199419 0.00020503377778017913
129 0.007665955315100358 0.00342794605410117 0.00020596989297202745
131 0.006088582561712506 -0.0018601109889646657 0.011946075341433663
130 0.005168664924980588 -0.010262454614155016 0.006075642909958166
143 0.0028968798409761973 0.002183390967051934 0.009466063808124626
68 0.0033285133542904632 -0.0038453111273650444 0.0019983541042715588
67 0.005164492119945231 0.002589487447006712 0.008505597283587867
80 -0.008303306130302095 0.0007966011627212988 -0.001456847407753949
66 0.00793686262425962 0.0002966490034335676 0.003110403788486802
79 -0.015230694679626452 0.004925375309067095 0.008430061134984585
173 -0.01936849112608525 0.0012348191934696056 -0.017138357068785907
142 0.011804494291914847 0.01092657353379712 0.004928170037868711
171 -0.014125207171406744 -0.00855457111682529 -0.005773350097169613
279 0.015749161934472008 0.00942103907248817 0.008506667705876252
954 0.014158543856494121 0.0013226691486595632 0.005380469213930719
933 0.01149013666998614 0.020205961019826697 -0.013844201173613877
952 -0.006802249385262769 0.0052442597224458196 0.007727755131993473
953 0.0001161344426634449 -0.007552954896926919 -0.0012297813825643536
932 -0.004867076282600144 0.0034129659224356994 -0.00539760575503968
918 -0.004094709634043933 0.004885165510585918 -0.011066051744655699
919 0.0016943132696401076 -0.0007855684811111587 -0.006832255596738099
899 0.0006794104778577821 -0.03074102676616282 -0.00344211833501982
934 0.0020831172376164337 0.0022527160945715555 5.1214448390110145e-05
920 0.0029725480286863846 0.005241454931212729 -0.002959642090129143
931 -0.006573072198804709 0.009833303443382964 -0.01789731412349216
917 -0.0033935337072336503 -0.0011583945184568737 -6.261782419611061e-05
929 -0.0031969571349158106 0.009216575350496803 0.0019717154082298034
948 0.017051533213206838 0.017037271259235105 0.0037658070317723455
928 0.004177571715337263 0.007405165530028665 -0.0004623444950897312
922 0.004298780550206736 0.005445678929426086 -0.0018568744873323664
892 -0.0006968610959369534 0.0013942651666251703 -0.0014699140628239736
887 0.0019418028395429372 0.009885087042581975 -0.0010534009163335914
888 0.003537764682876087 0.0038042442717570605 -0.005263164092614001
891 -0.00169694633252182 -0.004079265116023422 -9.947970559434508e-05
898 0.0017281706934794564 -0.0018728925831014765 -0.0031693645887528816
897 0.005835196865474902 -0.0015716318693830785 -0.0042576052541787235
930 -0.0048934521260263495 -0.0025600201821224886 -0.015237736561050326
916 -0.003884829696933348 -0.004000507751009862 -0.02303337916984723
901 -0.0038778297734665605 0.01865876102495028 -0.0012723479496446416
915 -0.009450171004892037 0.007903189061409664 -0.01788468838945763
947 -0.008339514932707931 0.006593883074700415 -0.006197737966328506
904 -0.005493025110425369 -0.0016166575528238998 -0.007972324828976104
895 0.0033016042809776 0.004012884152853024 -0.005540813252933263
909 -0.021110934192943805 0.011925174837373168 0.004069482443922583
147 -0.0051662278553197254 -0.010999360723766324 0.010922622752981429
148 0.009221675499152173 -0.024969892457459432 0.03503992590976435
134 -0.0035195185110450597 -0.00512289327797102 0.011140465584915523
146 -0.023495125810827928 -0.004872623751172761 0.016024301581384626
151 0.01692325625220621 -0.008477439819723355 0.015360841892498256
145 -0.0029887111469448693 0.012891996962649397 -0.0029473913363362463
132 0.0014806719382670123 -0.006411386832269603 0.003921372863907525
144 0.034647311527676534 -0.014876093937622742 0.025132160953735015
153 -0.0033657711042460337 -0.02388244346495377 0.019805187743689022
136 -0.0007698059163596205 -0.004341285411513492 0.013605838784551127
133 -0.006635847722048459 -0.0055274084444500845 0.006829003006720763
154 0.0015251907495898729 -0.017024339496820442 0.007265428361283693
1653 -0.019085550821638587 -0.013176619419390799 0.0034692434218544337
1654 -0.009690064344707906 -0.01676154531746161 0.02265171826122876
1597 0.012775502984095499 -0.008305871901970558 0.0018188218118817068
1598 -0.00231594872409557 -0.021129831752311506 0.010279928483299675
939 0.02848030118368818 0.005346685928697627 -0.00562010278774402
942 0.008906100823675432 0.021933960995921938 0.011891894788934827
941 0.014177471678039639 -0.0022564155835005824 -0.03187511137364194
926 0.010694860428546603 0.009221853992212363 -0.0013653954091818197
1658 -0.029953165212135258 0.006763495328105721 0.0017734074812435045
1618 0.019682004582417444 0.011192458122336624 0.004400026178378361
1657 -0.012094977951666657 -0.0005566054825746899 0.015606902090169105
1332 -0.025605466322796786 -0.00457440674691929 -0.00768672175817672
1329 -0.013135528343348912 0.010001737203226162 -0.004939961175451689
1617 0.0017108056260760958 -0.0006952977636184644 0.0002429608747238596
694 0.0061498895713361906 0.027551471588186487 -0.01550650801853104
678 -0.000732155699220263 0.0037109815202119216 -0.006605739748108502
691 -0.01926562264092202 0.0035160832757712623 -0.006889390918429299
690 -0.010134131984209182 0.026177465815983802 -0.01946544540715671
696 0.003108616059817656 -0.025727328824825632 0.01831452901689565
677 -0.0026578402720347427 0.0049990663058745895 0.0015874579775098045
676 0.007829285506145627 0.00026701706595908144 0.0022124902552778667
689 0.02225025511502921 -0.026993493364876026 0.012567332955023417
688 0.01091188636342985 -0.002771152161491499 0.014347474329648714
687 0.016067891149824483 0.010761724347247922 0.008097961647958908
679 -0.0007675354866517912 -0.00353208117902516 -0.006548995358706684
675 0.0029278445897363927 -0.0036692756431350986 0.008017794099041032
697 0.009260148611939169 -0.001269708476353003 -0.012742975772726558
686 -0.010203786153293867 0.00540457668160315 0.004172086418637163
721 0.004280840369454026 0.006027629378944214 0.003376785088178148
720 0.026642371012869627 0.006694776612164959 0.004300834733168415
708 -0.00704526362221393 0.007684566748402056 0.0018931556960215053
726 0.004189636396373915 -0.004999556652647544 0.00217470429455795
723 0.007023018672808837 -0.005690961264222309 0.014775627048108215
722 0.00750386234806843 0.02716517538617623 -0.0009015263620448587
709 -0.00530016841857808 0.005192284780642929 0.007574142006852788
724 -0.002801452631673647 -0.02237355865089379 -0.012620573246339892
776 -0.01358144696569765 0.009153100873233953 0.005576646265561685
807 0.00243988001092687 -0.0020295035806883973 0.024187865553859017
806 0.019194163090777788 -0.012190460436145727 -0.006038004934641798
715 -0.008874716155448697 -0.0033639363495651066 0.003095753249524884
731 0.0060484504546517584 0.009365367303322767 -0.003487265872544297
775 0.011165217925402591 -0.011753505552377976 0.006949870882931232
762 -0.005879055215014483 0.0058083499251412795 -0.0005174478708349457
732 -0.0009638487681999721 0.007343448031869041 -0.006530115245587023
777 0.01645871774309482 0.0070119123969407055 0.009258867089326535
763 -0.004842052912068898 0.0066094463991439 0.0005529204378233915
745 -0.01634969513383717 -0.00014958293247572304 0.0037666796846473473
1643 -0.004029634708294454 0.005262544284960452 0.0029812264357364157
842 0.024851924053661715 -0.000941601117471516 -0.00832413902684908
716 0.007772740905261902 0.015837373068207997 0.01963208649045567
703 0.002283020918631252 0.011705953997484274 0.006269296412682923
717 0.0033969171075191877 0.007151348400356991 0.007483473298764618
704 0.0018692868636774052 0.0023178059516321308 3.298366448932651e-05
778 -0.0004033290013585824 -0.0005801772580547586 -0.00927391231419666
701 0.002912813084257021 0.008096412758279369 0.007728936681273873
702 0.003002721033760396 0.003885779467771206 0.002914470390122126
712 -0.0004845495404418156 0.004854874663241825 0.005701546385458103
711 -0.007027039786010626 0.005465927186123058 0.007377115431371843
705 0.004106753312557933 0.006553675227312156 0.0009624527624613024
746 -0.01409976898313709 -0.004599697418605665 0.004009247523484952
765 -0.00039696106427349856 0.007830262804948614 -0.0016161729844846643
786 -0.00865033721448814 0.012402531229744617 -0.005556586399611286
706 -0.006071676870868014 0.012197905689772985 0.004440933319057098
718 -0.010429956573132226 0.0012385017956124526 -0.00443796143801148
779 -0.025918801367884232 0.0010671558084886926 0.021773474011666516
728 -0.0011884703326705286 -0.013228737224636212 -0.006280813419830929
788 0.008383781835274228 0.00035599699228325635 0.01573149757527335
1644 -0.03178110360669686 0.015189708424518606 0.021947961258859915
707 -0.003191669078818216 -0.0012592025893703811 0.002870084558182585
719 0.005069917910021685 -0.013434268980096031 -0.0016242898470337883
725 0.007683759304967584 0.012679051353250396 -0.012059489126381351
710 0.0002960428612301266 -0.0026940224074863835 -0.0019406239828949243
727 -0.017191915569028087 -0.017518630940125908 0.008973939673817655
785 0.004989325561294462 0.02739752246597332 -0.02071559409264577
908 -0.012329919459896449 0.010400319995614575 -0.01664263104541594
94 0.017928012773412473 -0.014034394626334698 -0.004720446037117438
77 0.009906048606722836 0.024660193624653468 0.014110690141958789
64 0.002708419426138417 -0.004948202983565115 -0.005912636382700283
78 -0.00203870931596208 0.00449979989913376 0.011126552627891846
46 0.028072415957187496 0.006807351122108417 -0.0038087437904633986
16 0.006461405379572127 0.005665362173889852 0.010999108769265846
33 0.0033901856417486893 -0.00015174656896045863 0.001375787292905788
34 -0.0018069016020204097 -0.0013319190325295955 0.001372816966300113
48 0.025383453434822685 0.004647243307089673 -0.0031094689928613988
17 0.027249590996033548 -0.002298678228854112 -2.6718335152074724e-06
15 0.007948797230632963 0.012028743668057186 -0.003587659522068207
1 -0.00468905583887503 -0.0020096855889267995 0.00968493898556044
2 0.0053297788361160526 -0.00375630819662775 -0.0011966608256057348
47 0.0013202165343120533 0.007765985922796637 0.026988351343341512
3 -0.0032210704236214907 0.003688902713797611 -0.0005819787647373003
313 -0.010579661697170646 -0.006086532739616875 0.024325921880071336
314 0.011012575956409875 -0.02391357501971202 0.016003795750767897
14 -0.0020207525451090475 0.0005746877598864917 0.00603183991689364
315 0.02094841662671112 0.0012720055920966509 -0.006929256117555065
825 0.005421575395688695 0.003908115845553997 -0.0032077682499703206
826 0.009484977438111896 -0.0024627290286803015 0.0024863736849046413
856 0.005068380710884808 -0.004245592754290288 0.00369086711700338
837 0.004620482890331002 0.009166684350496904 0.0033682591965012885
838 0.009157406063651806 -0.00031499478737471174 -0.0026882978824377436
824 0.0029608438168693026 -0.0018059180528366605 -0.004052879489968129
793 0.0003910419922810424 -0.0013603228923118793 0.006551677109624916
809 -0.021369480026936692 -0.009991071189388627 -0.011565445110498784
794 -0.002673733302830106 0.004591281716722747 0.005844907050795321
868 -0.004881804963672802 -0.009331469529166756 0.018807346440628432
810 0.0028829358984418752 0.0004679247546071051 0.0045182902029685295
797 0.00011056227960447399 0.007227555267702568 0.0027294162968535766
796 -0.0025045041378760347 0.006719541249850236 0.006350048193691181
795 -0.0006515707171116198 -0.0034927973398061773 0.0077415885981803245
805 -0.009832693384830117 -0.0040499347399114635 -0.0004520938156409168
823 -0.012958142917518931 -0.008720617181590772 0.002494280010194944
855 -0.0005485815312314686 0.0028248113320647446 -0.001527131711062426
808 -0.0059255228017207 0.0025959556728314516 -0.008829030270170027
869 0.013284360370470347 0.018777743253246885 0.004565422472228346
846 -0.0036316349301104755 0.00911975664073289 -0.011092617290987011
835 0.010729725576221191 0.006977178143141986 -0.004086209927000304
836 -0.002081425182301978 0.007861104730235081 -0.0034199140171638823
853 -0.0024486341547994067 -0.011800632127531978 0.013021635764917697
845 0.011800583811312135 -0.004908141596556642 -0.03204201256593596
912 0.003710444656484622 0.010678075826419432 -0.0030688658599604688
896 0.0031119338475677116 -0.000839882830252269 -0.0003264905720521381
854 0.0006279256860665756 -0.012161980858413378 -0.016362008084694887
871 -0.0005909122688319357 -0.002004220128976778 0.019914365613360515
764 0.00039861488921301284 0.010987657773541534 0.004841188571248736
774 -0.007919790092755384 0.01071381566056108 -0.004429780473785361
766 -0.0005399776085533635 0.0027897820607747765 0.003986045212240196
767 -0.004470990743719876 -0.006445668303080216 -0.0004123557469336046
792 0.012660966321606367 0.008033701542418729 0.016413047774938246
773 -0.007342505453151439 0.01641111237951988 0.007691667772668434
768 -0.0022062335497882108 0.0047375847895742736 -0.0029060099901034564
781 0.008282241500899132 0.018692801513213966 -0.002102920193671756
857 0.0010632603279672685 0.008579053146313836 0.0016023492682749312
858 0.00982135911179132 0.0036602666701584957 0.007510241833411081
769 0.0030045275751948894 0.009010811280225064 -0.007413598129865869
913 0.006987179584446195 0.006645728360147253 -0.00963220112433821
771 0.005698175047382044 0.004905012265040658 -0.008302187051499918
787 0.013805648302937897 0.017194399871022854 0.00797363202156881
1620 -0.012264167223746137 -0.011255002972134488 -0.03649470245129066
1619 -0.00184834035966313 0.013562686797200798 -0.00048806350287654147
93 -0.028728486587490953 0.020309804410513277 0.0007951284699057965
75 0.0023156904200600462 0.00040060175962890475 -0.0011684129413238344
91 0.004387457156790129 -0.026165770474321882 0.02043581385027948
83 0.004494508507700616 -0.011047503261898874 0.010198051882234837
70 0.0010912144221550837 0.001007696339630312 -0.001376406124297455
92 0.01709721784266928 -0.00020116060469420457 -0.005576189080928943
89 -0.02477988722777002 0.0040958479284397605 0.0031910095314381867
74 0.0032076849759699474 -0.004629475136315155 0.0045977006467973125
85 -0.007787495757036408 -0.011140910919687 0.025599885266324528
84 0.0062193845464886145 0.018593719088079594 0.00945530528738673
72 0.00894933997649188 -0.00018870907018713072 0.002805820323650499
71 -0.0005581144885907669 -0.00388643254587373 0.004132196807929173
90 -0.001631561590970062 0.0010111352548685345 -0.010330080281316933
73 -0.010899791698083618 -0.0027563502010042418 -0.0051109069363379205
87 -0.01680940069531937 -0.007059585748093384 -0.0031214985681875013
86 0.014557197729072595 -0.0018615638766271872 -0.00731890867906466
76 -0.005409757483164453 -0.004019780001746166 0.0009379342919094036
88 -0.003947867267574193 -0.0030314142701941874 0.0028267765506424566
45 -0.00036014221205948784 -0.003037180024434792 -0.001785635929127025
38 0.008589340639940234 -0.002256085129332039 -0.00150625109145963
35 0.002147668793119918 -0.0013659662992659277 0.003820404065087477
49 -0.0015688774425805284 0.024323307427405835 -0.005334884130622955
36 0.001392386129836482 -0.005630934325285351 -0.0022651042661703865
37 0.0038283612018497476 -0.002779014985472429 -0.00816177067786761
50 -0.01579437655178147 0.0047063318023563856 -0.003573134639433641
63 -0.0033151155153204135 0.00999618786249009 -0.0019489020279328598
44 0.0033473663692617987 0.0004416916007179705 0.004957459771259093
54 -0.001835929238193998 0.015560941246773118 0.016929457102918925
52 0.006475009822697487 0.007221983119388353 -0.008189961170191872
39 0.002780885453630227 -0.004095548960613591 0.0012567340072578567
41 0.001863783659915503 0.0008730219117510426 0.006358528764033813
58 -0.039860629889565534 0.018870229696028223 -0.01581658188397357
51 -0.01191762522759881 0.005075890032911201 -0.0016752580409215914
40 0.001682780273581375 -0.00723958235841568 0.008927760389326276
42 -0.0011213727379804006 0.005222100930387199 -0.006578333559178412
4 0.0007324113463211484 0.0027381310841165488 -0.006589683258507872
62 0.01143686326282517 0.007848867021882094 0.0002815958239620745
53 0.0003129575748346645 -0.018453257597155603 0.0036035045568022623
18 0.015472566785207415 0.01084857927044028 -0.008158008839787059
1640 -0.02240680092670424 -0.016501296978158955 0.02932778209416242
921 0.007187361948045152 -0.0016048887702777457 -0.00630760687515318
935 -0.010097585652393305 0.018131691625400622 -0.007122179860544573
885 -0.02287947902610855 0.0028776783458731043 -0.01136950614734183
937 -0.010299545196936936 0.006969002572405795 -0.0011161521992464852
923 -0.0002894709728003381 0.01139716037749799 -0.0028157330823608308
1639 0.000542720295437868 0.0009300830213362651 0.01056457063776291
867 -0.001733664364383159 0.010185230052112961 0.001716534228470166
866 -0.006939035401825898 0.0006869365209772419 0.00022117407034913513
860 -0.0061377787899603254 0.010323665335010609 -0.00700248247189321
859 -0.002576468593109459 0.008957490265441924 -0.00538769386607161
872 -0.000822205486974913 -0.024363957471739948 0.01582258596114128
884 -0.024490698237220093 -0.0009992767803506967 0.019582754306046904
876 0.012183239007133551 0.0019599171939826956 0.007914417298227151
863 -0.0024468268227345424 0.003105803877234506 0.0018076004342138566
877 -0.003970471152619989 -0.009215980464542166 -0.013000216327019568
882 -0.01953837944518888 0.002600693378346711 -0.0017493073261567607
861 -0.0003869478513577058 0.006430034580066937 -0.0061242280685031274
873 0.011875390696504187 -0.005399522795090998 -0.012676830887807557
862 0.005619171089988565 0.00014126835135874115 -0.00155185740950127
874 0.005400121504088636 0.0011279251364527728 -0.012512410447002718
879 0.02927096294663646 0.01259466519642444 -0.015107960407915766
910 0.005276460467950281 -0.0017746416687740405 -0.008104233206757398
878 -0.006647137286657174 0.017483268265219138 0.005506334849680088
936 0.004905625678793723 0.01848682027759626 -0.031224053551005004
875 0.0116497228648693 0.004437166373935804 -0.00869455828291085
881 0.0061207838065109755 -0.00017860935500506976 0.022758765640164647
865 0.004671736580628314 0.0058576749419750745 0.0025427584919167807
883 -0.01445411493805675 -0.009611190080944477 -0.0044408425228868635
880 -0.006264598476048407 0.006536343557964463 0.011046451828915622
864 -0.004394247495848323 0.004169457023006603 -0.00045620948361754657
911 0.008194897012260186 0.0005053373730168672 -0.01270173083767849
1663 0.00376149970207521 -0.000983562030854801 0.001766791536139943
1664 0.03334506970168073 -0.025391404509173723 0.016421960822514008
135 0.003427415418008686 0.006751252426252242 0.0031523036211011353
149 0.013186961193163267 0.02060524724877116 -0.004413229382272325
152 0.010604864828047306 -0.009527437974961283 0.024778632989568068
150 -0.026326225760138964 0.004744938404931533 -0.0211752253699782
1607 0.007513074839516239 0.0073291545838245886 -0.001630723386869155
1608 0.03674099979425623 -0.017351820865944854 -0.011340687718985422
56 -0.0003646627286361913 -0.007877564062626647 0.010024434120092632
59 0.005664809569741305 0.001266612056258296 -0.025397824795528545
43 -0.005367436305011061 0.005362776283973788 0.005870928319236462
61 0.008352785730875906 -0.007977804225279493 -0.001520724967514858
60 -0.005822828230700456 0.015060349098387611 -0.008415572528038272
57 -0.00866491339143189 0.010244711129028541 -0.020250941450818374
55 -0.015022647391435467 0.014474985422020074 -0.005866854758975436
943 0.003990759366304383 0.027712738905213224 0.01484988090676989
946 0.013670500961673064 -0.003370230279375061 0.011037650807882295
938 0.007602747130580125 -0.006398829938545076 0.00721983066806608
925 0.006785972163355568 0.00082212883743181 0.00023962524515185106
940 0.00461469496984252 0.005711711939366597 0.00032929658816913273
924 -0.0002039600156491173 0.009559274908320408 -0.0013358407922576597
927 -0.0014264667129620188 0.007179757665402446 -0.0036503110500246978
945 -0.015935978494428696 0.013059550679522414 0.005607767180569914
944 -0.015431238885542943 -0.02130410572919738 -3.4972687221954775e-05
1586 0.004695553663980643 0.010515337640092791 -0.00042357002932212054
1325 0.0016692955865324315 0.025590626213128274 -0.016037665728723602
1321 -0.012659285523660496 -0.019783788753050053 0.026589112136806085
1327 -0.023514566919733283 -0.0047215612681888305 -0.00506585770708529
1313 -0.0065696917173308144 -0.006589330841106215 -0.009522910096768344
1322 -0.019853288564096225 -0.006232974394289779 0.000900224629453307
1326 -0.011076459246166633 -0.01149120124729055 0.00950440163418913
658 -0.006433458562798151 0.01647129859259935 -0.007440106306404329
1673 -0.0005389126179010264 0.007955736827315018 0.00012703556007904318
660 0.003946138601078095 0.024872353506141517 -0.016036797084462574
645 -0.002607862333873526 0.00878112024148245 0.01078425521400486
662 0.009062181213229204 0.016555823784667828 -0.018869219555435194
661 -0.0035936436492968243 -0.01142763504130293 -0.011329600098776859
646 -0.0020061505753435007 0.003728937341976242 -0.0028899112390041283
663 -0.035788605418350175 0.006049978015537321 -0.003970013378339905
659 0.01101667539501847 0.015842149404790243 -0.009510556697668385
644 -0.0011911878242179365 0.006657872582279396 -0.0022254548224317694
656 0.016937261773959995 -0.00854292068585208 0.002966049136997614
657 -0.008053678352021148 0.006493179711628814 0.016825311930144273
643 0.0020065167212818054 -0.0015497702710884533 0.00259403379369796
642 -0.009477247155581695 -0.0007055815941502247 0.0011908859377886263
667 0.03835989434367644 -0.009826270186317843 0.01636532355271115
648 -0.004889381009781804 0.005078765932575963 0.0027275684814438293
665 -0.01303930150807375 0.007816098274823479 -0.021151494465131936
647 -0.0012047727519488506 0.0025106344308516394 0.0047250470088032554
664 -0.014159216806268693 0.01734887172994749 -0.01787887590524856
666 0.004158944431941569 -0.002520148782391142 0.008792841577239254
1596 -0.013570879042258626 -0.039326246588006014 0.010226344970421231
1297 0.002599612925777913 0.02946490463774829 0.003351262914281672
1301 -0.02380156046600501 0.003457869667037314 -0.006001099699618488
1283 -0.01013646544325081 0.009394887660506855 0.0067496124455347604
1302 -0.015124509558912149 0.020133775859159483 0.015358201753282985
1300 -0.003164178855286345 -0.0015501212348276814 0.005923088194990524
1595 0.0066511226892443645 0.00011815451648531562 -0.006366963263344905
1299 0.0038905779469521258 -0.0022807769321905595 0.006881973818962139
1282 0.0006472528985053086 0.0015226254715193287 0.010549147819411051
1292 -0.011555845693802934 0.004726681871761744 0.010496500993108532
1291 -0.0043934766449969425 0.006170235121202244 0.02297810877393951
1277 -0.008859924068618375 0.0002777085809341893 -0.005882705320523055
1280 -0.0028991971767749506 0.006188175290547608 0.0021174933864325164
1279 -0.0007309465235402189 0.0003120125971334208 0.0047394162784005
1293 -0.012971116508893593 0.00844566855354199 0.0045644806190760475
1278 -0.0030360037369722773 -0.006423210195954912 0.007467920324561133
1284 -0.0032269536798865375 -0.0013848742437722402 0.003806233798061772
1295 0.010904621876719298 0.0059061892049815275 -0.01422057273221927
1303 0.008092614888147285 -0.0074750711979555025 -0.010412326453297528
1298 -0.009786818605537453 -0.013743359658999994 0.010189195324248692
1290 -0.006356593880298573 -0.002931374322801238 0.008461242474374336
1276 -0.0069780546161484144 -0.003498427445834166 -0.0015728838751778657
1294 -0.0076940420044513 0.025769995335393207 0.013974002193801698
1285 -0.0030700489325310165 -0.002388063401624906 -0.006379754739824328
1275 -0.0033943017405088497 -0.0024938914026576805 0.0007419996725678371
1281 -0.0012711477477997666 0.0069138626067919064 0.007650400706631938
1296 0.004387375632937957 -0.008286861079418879 0.00020923553393283566
1587 -5.657083291105147e-05 -0.00502094141196515 -0.009372900169943063
1286 -0.0047429662996821085 -0.0007486358667320239 -0.004441797656023329
1585 0.016728053959778937 0.02168532126764843 -0.012304708217685208
1287 0.007818064138602955 -0.007039100978825903 -0.01270902038476144
1333 -0.003994488354990546 0.0052547862762982196 -0.0020742722295833244
1309 0.002590318435256976 -0.002076079241072678 0.01054397906593997
1289 0.005880532607807999 -0.024052709313637503 0.00536502484674857
1308 0.0015893129331009594 -0.00366768086488047 -0.0015280888182758914
1304 -0.0039688615968034606 -0.00012510702451561367 -0.000471137310533563
1319 0.011832283950912134 0.0060920571533814305 -0.0038711159923793407
1273 0.0005360936924279798 -0.0051178674820068475 -0.005862209466612662
1288 0.007329853008807057 0.008087636276231321 0.014656805107810826
1274 -0.008153734719629302 -0.00800660470600555 0.003146320642574999
1305 -0.003898607390470698 0.0020401526767968056 -0.00043229326171853686
1317 -0.006353979028588149 -0.006265896504272966 -0.00587820899569851
1316 -0.007201807844933435 0.00023465277593752345 -0.0021399875557037828
1318 -0.0077777219754839606 0.010024625155283027 -0.01175270178921782
1335 -0.007763708071513206 -0.0204526674218535 -0.005737486212965837
1320 -0.010920041937804527 0.0030148464821138374 -0.0006903718468023118
1306 -0.00027483294502895204 -0.0003302052111850822 0.0014947612485003748
1307 0.0020510887647685614 0.0009613214463468607 0.0005094150072438757
1334 -0.001217786231329666 -0.016325865913047723 0.008497684213177951
1659 0.012943737426861206 -0.0019733125127612407 -0.008166812206726843
1314 -0.0016448976306544497 0.0007511493671213188 -0.004571912230713843
1315 -0.0011061875296443633 -0.005464533297864205 -0.004236671941957613
1331 -0.032836217547024676 -0.011829689490242053 -0.025939287191154684
1310 -0.01225671470327051 -0.008406858619266901 -0.00030074941906891694
1312 -0.0032328245670263317 0.001188906507348805 -0.005997723989449679
1330 -0.016238071023741567 -0.027932586861208728 -0.009771043159113571
1328 -0.006278001035763756 -0.0018937600642997274 -0.0021811187017774184
1311 -0.003108220765693034 -0.008963095256794253 -0.003511308395813082
1323 -0.026819796088544408 -0.0007065270374985873 -0.005812382246011809
1324 0.023484033088790136 -0.005702196741691344 0.010809621256814885
693 -0.003484384640472231 -0.00028454989500544827 -0.013387936146527266
692 0.008932184189338034 0.010172916637973092 -0.0060887276528139725
695 -0.002664620161892634 0.0043198676302631835 -0.002344449806960046
698 -0.004559039480104703 -0.004198495900199696 -0.01661640029037769
655 -0.024724321412964958 -0.008224599642998856 0.009642639345722107
641 0.004322588269007829 0.0003391201601174793 -0.0034151152430879034
640 -0.0007384055827253935 0.0036184963754727624 0.0023944435776989395
649 0.00435611877969356 0.008708704606200246 0.0019039401850835802
654 -0.007282536389606384 0.006339982420540582 0.012720642707248578
639 0.004564830228944785 0.004839994977362506 0.00464768670083932
653 -0.01856687152511485 0.022841252441347923 0.021129327440933387
638 -0.0009378230345421931 0.0047195655163473245 0.0007382113376395141
674 0.00020938047143393757 0.0028154311934393793 0.007090161422594583
680 -0.0010298316255504913 0.0052523047171765674 0.003270207179394402
671 0.0072020785721566075 -0.0005548638321206374 -4.67643076417322e-05
673 0.0051346043999762085 -0.0020274093588735537 -0.0034359519470398532
685 -0.003594996252485655 -0.00939878272140432 -0.007864762155104597
672 -0.00035181084240692523 0.0074900127654106835 0.007127459709546197
669 0.002313395585226661 0.004130676479285249 -9.495935424351303e-06
683 -0.007268946418985528 -0.009060384034738623 -0.00310916983694605
670 -0.0031610173725506604 0.0026253519813488 0.0014381134665591034
684 -0.00524502170154364 -0.03257702243857478 -0.013687588578131541
682 0.002366922940137549 0.012759027077680746 -0.0032264527087484916
1660 0.004610888280479132 -0.010491055053354187 0.01487979950008982
699 -0.009218382992767725 -0.0037302860098802617 0.009155835612349653
681 -0.0027683010085738603 0.0011743982340632047 0.0007821950494726709
713 -0.005468478763948392 -0.009552655191532814 -0.005816023229657451
700 -0.005579744998106157 0.0048067137915225695 0.008288893288061273
980 0.015486764221430565 0.01719177278103447 -0.022639177722450356
1631 0.005887188817910109 0.01413703828894142 0.0026729903789779784
1632 0.007379837807945903 0.010031263265083072 0.014877482887642145
981 0.01756332681439071 0.011556578766556748 -0.011127390314453575
964 0.0052709779220779795 0.00015815994438612112 0.001386108508908895
979 0.008483544767668338 0.030961192752821977 -0.023207290498508504
1545 -0.00675375375845528 0.01421443327844364 -0.025438839310398385
1605 -0.009327996710992199 0.008121104488387848 0.006541110997632721
1606 -0.011184780627568261 0.007598882499116965 -0.00502772329442117
1519 -0.015530281009829863 -0.0253504987686938 0.025265823444189362
1517 0.02414295632857915 -0.011412910871735387 0.00745806409837877
1518 0.002372172975605507 0.011474412550764722 -0.0035909315343417786
1501 0.0011729422295842682 -0.0022960680572099426 0.008131468124089042
1499 -0.0007582381014612644 -0.0011100801193853818 0.00410551453969547
1498 -0.00300861633752882 -0.006566382681187556 -0.0018991162059525048
1510 0.0044032985967628465 -0.013077925354410378 0.01276107394177701
1508 -0.0067682811573124176 0.0069851949282647464 -0.008175222967122035
1497 0.0029935217398658898 -0.0006229144063974561 -0.005494106476947464
1511 -0.03215300464850739 -0.004053734245908983 0.0019143337088367292
1500 0.0005795735886766365 0.0018357529713487824 -0.005833479585020862
1515 0.005598864679209438 -0.0005443205980531062 0.023257098085548586
1516 0.003471908045409636 0.012492658918635106 -0.0007320507428481316
1514 -0.019778325402825363 0.020972005531961987 -0.02062578371234172
815 -0.023121928037570273 0.026286799566764545 -0.0013044288614193279
1615 0.02020209854276204 0.005466232192230195 -0.006538126942227971
747 -0.011952383477645736 -0.005099108076863831 0.009789491386023
734 0.0015240076723509138 0.0002163073452322542 -0.00723670192109271
735 0.0024431815996925374 0.0009333997671571239 0.0014600720331884782
733 -0.007861655366883848 0.003341075822609147 0.003257199610384551
748 -0.02176694078016468 -0.00042292100171231533 0.007475236352498909
736 0.006652251145484084 -0.007142542449763394 -0.0016061591638575781
737 0.004625823813392765 -0.00028931237810518384 0.0032295187008834067
751 0.018507302836767176 -0.016345752627547245 -0.017709874621737974
752 -0.012065000440762353 -0.0125750071336788 0.008944599097185812
755 0.01612625514985457 -0.01020396419747996 0.00495624355925684
744 -0.00796503020678603 0.016699605935067675 0.012306224967010277
743 0.007045601498440466 0.006157499269998339 0.0002232312721045087
742 0.0026951450036958717 0.008199600688958062 -0.0038582545752960202
813 0.012993641996396837 0.018995387042455392 -0.004279168746186944
749 0.0058930635792020895 -0.011305656943961549 0.009032993776383162
814 -0.007358749377744001 0.01577487075672399 -0.006601933269550384
738 -0.001324051824560848 0.000477399376192232 0.0014804131896663862
739 0.0012332931865710554 -0.010517267993686798 -0.00393249940256112
740 0.001090136605927491 -0.0031421203418413243 -0.0021610336297416695
730 0.027719627351553467 -0.001725645058035252 -0.005623224618222372
729 0.012144756705204564 0.011395143877090126 -0.01293047403425069
761 0.014253217984058304 0.02391485154834594 -0.0013818299634107004
760 -0.012044952935060667 0.02240470837394683 -0.02009664806789171
790 0.0024657279872294454 0.0030561671054789674 -0.009113909504828889
772 0.008315677458922834 -0.004113330569534962 -0.0020798532906234042
789 0.002139211860975892 0.006071228600727096 0.011475017527704344
782 0.01701691584222395 0.016512038769215982 -0.0032070545332084257
32 -0.006333286783123566 0.013401474228815671 -0.02073492012741285
1549 -0.031051168795433376 -0.0010607644183860513 0.00994859061825651
13 -0.0023264450105390734 0.003592717773283519 0.008090663854687832
12 0.0044111269875291605 0.011411265837860885 0.006766156740440902
31 0.008151037348803385 0.02092554603895582 -0.0031928288907107313
1512 -0.0022265460953286905 0.0026328874722920605 -0.0060048219008111995
1509 -0.012295666132699553 -0.011950114488485809 0.007957876188986218
1513 -0.015478466499165369 0.00038381682503328164 0.010169283677808321
1544 -0.0070741518625511025 0.01861354120267566 -0.020818183032056726
1645 0.0027547096400423994 -0.0064808203139747455 0.005282216919100814
1646 0.004543347466469221 0.0030559473752084006 0.014909915189486821
811 -0.0019509149711089981 -0.012419086158991554 0.015323360035434308
818 -0.016601913403333425 -0.0009860998119741611 0.0178959863176009
816 0.010938193257470325 0.01343022396389648 -0.013901508460058987
804 -0.003770361647080686 0.003918069126498 -0.006454932419313199
798 0.005315982122416892 0.0077767278553255255 -0.006896745040127125
822 0.020591465511590922 0.008722700600224882 -0.0027509569967619422
801 0.0005484081223329271 0.00493009710922439 0.005460331093261106
800 -0.0054543994232569585 -0.0007091295195977323 0.0024165132085061033
799 0.0005128047909174349 -0.0028586246806541374 0.0024662945033576615
820 -0.005800386283435523 0.005458881115484232 -0.010212622250446016
817 -0.008704785018246317 0.001035854313300823 -0.008004787316076633
802 -0.008565769250764042 0.008358019718498687 0.007932205811716322
821 -0.010316898754537736 -0.006932014748337449 -0.020313030505452755
803 0.0023817193788741274 -0.0018039907304341937 0.0013414172757836669
819 -0.00931666871316743 0.00625513925675564 0.0029348224103423943
750 -0.0032327475570333416 -0.0036533853135341634 -0.0008432824882776569
812 -0.007946794738626804 0.01243825519883714 -0.0015154769157734354
780 -0.0009273589591380219 -0.014937677355046204 0.014231714252685098
791 0.003738323352589127 -0.0005031657945424588 0.005439130733890607
783 0.027481683236284304 0.013193841667297257 0.011196475038054023
770 0.007056608028435173 0.01075471891220537 0.0001192285194329085
784 -0.006053935190825355 0.026708551813882223 0.008755539054556344
6 0.00510005510270622 -0.002575677786967688 0.0054752836324855
29 -0.0157468061503396 -0.008140867960771044 0.010410877455747345
25 -0.004653663966004886 -0.02333970970906078 -0.01156449259687721
11 -0.002274826150240127 0.0053733382923461005 0.001770743677065586
5 0.001447087553033729 -0.001100265612562855 0.0010666413994156422
7 0.0003640218122164913 -0.002452914142406754 -0.0036874008444172587
28 0.00872303045621403 0.016247540901883524 -0.012469937244524174
30 -0.008885516993400316 0.019343420568220037 -0.011500332181042454
1613 -0.008343795932416359 -0.005608060062451346 0.008626032532566334
8 -0.00036060520705474716 0.003707166795140906 0.0011644222037874633
26 -0.012902975052149237 0.0033182996337468348 0.00029938891120847655
10 0.004741376101360213 0.0006972872552882774 0.0024808234493949124
27 0.010943322465806345 0.006583133709116297 -0.022812409772360705
9 -0.0042007836738427945 0.0008806581316356531 -0.001780511313668101
24 0.0213605793450853 -0.004815774886090434 0.0058448559561049065
22 -0.00764325134560189 -0.0011226719185132078 0.0016711164201685456
23 0.016253960601093746 0.014353407638828187 0.015090200827815727
19 -0.007004738710779005 -0.006471579304653613 -0.024131940879405917
20 -0.010520201491432419 -0.004621647005664352 0.011873550767373434
1614 -0.01898750973248737 0.003674779630159197 0.031865036141167404
21 0.007824825629395776 0.00021243770830506846 0.03374292234489631
1358 -0.014632030641848197 -0.010936830807801376 0.0030508368263800936
1363 -0.0025794457430848416 0.01674445017498591 -0.0012752836335159158
1346 -0.0018425257238800304 0.0017280672472034945 -0.007695652072518668
1362 -0.0020732751559922676 -0.011588889709027984 -0.013414885643103083
1364 -0.018062489121045175 0.010107487926856671 0.003947826193119991
1344 -0.0025407492166661617 -0.0037279350025701315 -0.0006901323395822272
1356 -0.017436716761246068 -0.000518231676554415 0.002773214727390741
1357 -0.0004556171228960451 0.00010500448359775788 -0.007332826999509613
1365 -0.0027391810117567 -0.013241594133951231 -0.0067958998679970364
1347 0.0016572862605713922 0.0012074412066415945 -0.0026017844152111
1340 -0.004223271074397508 0.0017282485117339048 0.0034468198308869207
1343 0.00030100955230472873 -0.004265835353133716 -0.006197479467231816
1355 -0.002195104076998861 0.0046268826922200666 -0.015857091698782612
1342 0.0005607476464028782 -0.005418192303928981 0.0023303417051065796
1354 0.0006848643654109531 0.03028751737744426 0.01157704323292573
1341 -0.005607670728229987 0.0008052568876421581 0.0006047448347046131
1629 -0.01267799040428093 -0.008071071753930115 0.0030077378127435677
1359 0.008966627454084313 0.014277177022515932 -0.004432982703475025
1361 -0.001618313158475749 0.004175075124591775 -0.0021134168210314858
1345 -0.0038730856861107334 -0.0032789801667367268 -0.003073264174740553
1360 -0.0011362341545430987 -0.017461822215017558 -0.002864004153092958
1353 -0.012414871417102905 0.00799646505108755 -0.007319694485389329
1424 -0.010696619712146896 -0.001556265738043727 -0.0007085043555730801
1630 -0.01148384660528046 0.02522281847270403 0.021452585326023708
1426 0.0026755876722364055 0.005723913053635929 0.0010046127779795668
1425 0.003202512538942557 0.00953982323482934 -0.0034250735763220624
1408 0.0006374768528229043 -0.0021411481920820103 -0.0035210553323084424
1450 -0.008316944855355725 -0.00870512289055359 0.007596097204205214
1674 -0.02499812651489074 -0.016810617975868667 0.010078020470100578
1073 0.012430110456128995 -0.006552618649051271 -0.009180480652357442
976 0.011547676006091112 -0.0035760420567759695 -0.009899380588859827
1040 0.005199107061258027 -0.002228806437395696 -0.00309047654034848
1350 0.009851272904718657 -0.01865370926274153 0.008996679963854358
1349 -0.016421777501931457 0.017912912913165553 0.02954192648179614
1336 0.0008138364958588547 -0.001473818787444559 -0.0056035685451428
1339 -0.005233424432822668 0.005705271753913304 -0.008292669429906321
1348 0.004436342283413327 0.007555380931248877 -0.005493176492790947
1338 0.002476992603303969 0.0065667125649685595 -0.000656408430899294
1352 -0.0019462355149618992 0.01450898863609964 -0.0029158946911873357
1397 -0.00836242544029947 0.0030392292820324027 -0.022824561295234032
1366 -0.0071140631311196615 -0.00589432638929578 -0.002944274630590552
1337 0.0027410945055948896 0.008756162225014437 0.0031168999632977417
1381 -0.0257977511079953 0.017836253228549703 -0.0024440943123177554
1380 -0.002973711893302031 -0.006355277760424707 0.0029131955171614846
1367 0.002762016646393712 -0.0034743680935799695 -0.0007787266860688137
1351 -0.019750897819522596 0.022126788270787488 0.0004678625355241763
1369 0.008070086582862545 0.005309059057935597 -0.003953387420720242
1383 -0.020898262709431036 0.012963686311807877 0.018265263165519505
1382 0.0007598058985242018 -0.008019493826026219 0.002808040128745099
1368 0.00287872794660096 -0.0007448247466087042 -0.0056550590107744755
1398 -0.0026168208250600244 0.005247081500698266 -0.0018784690623084189
1412 -0.013324465529728857 -0.0022610695799734166 0.014408324182971681
1411 -0.011677280164585812 0.006885367405139239 -0.0026429381557758966
1379 -0.006807656496697712 0.005567457544690247 -0.0029557894666790174
1427 -0.009165139032645332 -0.010577577968804852 -0.0051897073920486566
1399 -0.0016607812439895975 -0.001173741226385884 -9.160344675767051e-05
1417 0.03280047386916484 -0.025713537765213998 7.374253525817536e-05
1404 0.002703350033521171 -0.002677625538116555 0.00034340931657454374
1416 0.0004732194953187312 -0.009715249913345813 -0.004873871762941273
1428 -0.004531962038405833 -0.005583541066624684 -0.011857535575939479
1410 -0.002587560866365456 -0.005579167298462152 -0.010309219026889171
1409 0.0031907622322588833 -0.0013726071832338808 -0.005039400043264645
1401 0.0019314447213587636 0.0034394444993733246 -0.007229097968711364
1400 0.0022880283851574347 -0.003127229679385839 -0.0005860814953096232
1403 0.0026189336804711876 -0.002080354352110226 -3.7082425838559966e-05
1402 0.0006738699504560586 -0.006559102989197382 -0.0020266105373301603
1420 0.005880541082768791 0.005336322570514606 -0.019357892808955047
1414 -0.002553636367114104 -0.003889680287242251 0.004409690472746148
1415 -0.0011805720765842905 0.00021236818145083808 -0.007295184896986755
1405 0.0024989074205508353 0.00538937459416868 0.003313362376573498
1406 0.003952574098680172 0.01415167991225388 -0.007485943340628725
1419 -0.014943784341224129 -0.006198392115269484 -0.014927927141275965
1476 0.011523072844769958 0.003822148241600116 0.013603391269107553
1641 0.00810770879283897 0.01522803052341605 -0.008385905745284071
1642 -0.009125936380134427 -0.002108647807228592 -6.681378247862994e-05
1422 -0.006347269381037002 0.005185024570019272 -0.005405978069512499
1407 0.00040362810320150936 0.002114034065682873 -0.004131055652152882
1423 -0.011837980847389285 -0.00651882048646921 0.01920636896152594
1421 -0.015447054611899425 0.009489488749762548 0.014157434792203017
1418 -0.006800627529676015 0.019056612843318773 -0.013372445566943131
1479 -0.0001477510004542961 -0.016497796737649707 0.013803767879197458
1477 0.03136893195816377 0.00018507570040197073 0.01149549696555003
1484 -0.006771594258402065 0.0004733926004741656 0.013108930222830715
1486 -0.016073022776528778 -0.012557937933355636 0.007912030904125353
949 -0.001496380200181456 -0.0028441551702867926 0.008355788984503872
951 0.02689152393718867 0.016967716993719146 0.015677992946382613
651 -0.0067026544769338186 0.02323782202734918 0.019496612493410868
637 0.011188335690926027 0.010268888592355722 -0.001739566772743558
950 0.0020865395557203375 -0.008646603606364711 0.00101749118614541
650 -0.006565596466246498 0.006078995684478544 0.0049768410087232045
652 -0.0015448281830578515 0.019563996783709677 0.011762511553796921
1072 -0.010627365402467382 0.0014626093161668806 0.004930205993009713
1076 0.006363001223180224 0.0024191920588951614 -0.00041231920644092725
1071 0.006786591125673674 0.017125557327383745 0.006305296446443691
1070 0.02062221424087988 -0.007037043614738933 -0.006346914658648026
1057 0.002090529353368783 -0.002175907637181141 0.007576655623985757
668 0.01151179159518261 0.00571889426341027 0.0016398377751441744
1442 -0.0018730920997926523 0.018208160038329917 -0.006330037283178849
1616 -0.011710229321807323 0.008258287621759081 0.004530742041868635
714 0.008328340201652617 0.020739427063509 -0.005506366672241729
985 -0.0015872065393558576 0.016555681012600805 -0.0007249271689096142
975 -0.014459878649005347 0.010029052067396594 -0.005266428412486871
966 -0.0026353444762791194 0.0030563663398360036 0.0041096896467592734
960 -0.0034808695264090693 -0.002199404813077793 0.0045251957388458275
961 -0.007300583490741385 -0.002481193347782698 0.0018110745250098624
967 -0.004616252504975277 0.0015882914086815304 -0.004221434584541519
957 0.000997043987079879 0.0028074794774611187 0.009565819558579733
958 -0.005865430068358499 -0.004818659029007252 0.00025088116286265977
1269 -0.004460640013547674 -0.012341921886276388 -0.01605137472485322
974 -0.023609548870520483 0.006202222777995689 0.006255580341486258
959 0.0031211351629242654 8.997953941356624e-05 0.004298884874547813
972 -0.0074501740248824775 0.028854928164800113 -0.005460856025256063
1547 0.003088577891712534 -0.0019319305449344451 -0.024807721315931223
1531 -0.007103753857189526 -0.0051396379780464145 0.007107523658163046
1539 0.010480098003618642 -0.0042523297231433985 -0.012574907059387066
1541 0.008567020215816352 -0.003956770234290784 0.011421918773572098
1526 -0.0003800576758526781 -0.006472202452623094 -0.002483025995502097
1546 -0.010221351684276427 0.004199777408022421 -0.011708042506663031
1538 -0.021596027142979618 -0.012710334100550464 -0.012607845914013325
1525 -0.0060511849568999345 -0.0012020064228658932 -0.0006747771649588687
1527 0.0017903536923897074 0.002461683304667588 -0.004563224675566932
1534 -0.006787927932359227 -0.0028905770767973945 -1.748900284395479e-05
1524 0.0008945338699098332 7.248430839682776e-05 0.0007824072663285786
1533 -0.0010116227118621064 -0.0013694481741880766 -0.003916504934214074
1495 -0.0007746123147228457 -0.0010474821261932821 0.004480783932712327
1496 0.0017805777451116564 0.00018707248428143645 -0.00013083187936564048
1506 -0.016799151966591985 -0.008432950073093956 -0.03096144877568005
1493 -0.007079635191002707 0.006585448805023066 0.00020187549327229428
1492 -0.004832271814546333 0.003253491462971049 -0.008146744608736194
1507 -0.019081040082333866 0.019236750037146467 0.021293654225030823
1494 0.0037579131013344537 0.005657505145095005 0.004752013531078353
1502 0.00309096931969204 0.002370470877044962 -0.0020942641517971276
1503 -0.003564603351046352 0.0004410566690431492 -0.0015370539690114638
1521 -0.009138846032101211 0.004013756689644299 -0.0020880434059352853
1522 -0.00490941737535122 0.002709689694633738 -0.00317026744675878
1536 -0.012453377102923976 -0.022617532596033673 0.002461672324444834
1535 -0.022823357388276448 0.013588388568638787 -0.019172708839787257
1542 -0.016901100652091317 0.0017523539621074919 0.016078079639909176
1505 -0.028377379372039307 0.012098367886848479 -0.01013868969378567
1552 -0.010521716979701598 0.0035192782429152355 -0.010773223362520585
1523 -0.005239085737342878 -0.0017632900176255512 -0.0029092340471775424
1566 0.00440466433188748 -0.007704248645136448 -0.00288815420789074
1520 -0.01145404785186252 -0.006717091977052478 0.0013938995966350663
753 0.029977963923212423 0.012836317897281633 -0.005340892593314179
754 0.0034281290118203618 -0.005116307596593183 -0.011234154056028376
758 -0.001998414616757234 0.027266852363427754 -0.011879203174695124
741 0.0021698068466758954 0.00807479889125681 -0.005158969400970696
759 0.005193785561031866 0.01249197051914548 -0.00550197072530332
756 -0.0017829442289373785 -0.0037367885638976204 0.009716636592773425
757 0.011503566281795025 0.0107601263633168 0.02265993045738087
969 -0.0023062844186358695 0.008886889128279018 -0.023629465230676307
1000 -0.002106423663765576 -0.01579976878089271 0.026398835530507495
1001 -0.0018487748201995989 -0.012848070476884129 0.013722372127508816
987 -0.007698198164085613 -4.915027419965417e-05 0.008329384142059902
986 -0.00433018238873865 -0.011174548301407652 0.017249998389811554
955 -0.006323049260802139 2.4334721338004154e-05 0.004235173522101406
956 0.0016136451573777726 -0.010503953834496225 0.0059361620509517515
1604 -0.03207095807477388 0.006444109366483863 0.01257506200242984
1548 0.0031854316886015897 -0.011210373801019006 -0.005534428332101773
1529 -0.010347924952563677 -0.004903178568343788 0.0036018747063184305
1528 0.008548489645352052 0.0061508198215601065 0.003503210349008264
1540 -0.01065717020906866 -0.0027045655270974992 0.011722943131061413
1532 -0.006255425696697777 -0.0028411043098756483 -0.004310784827441972
1550 -0.023412255024823816 -0.014028148798606074 -0.006944816761763481
1603 0.000494686813181318 0.006250271240891862 -0.014643206458244606
1530 -0.004169814513140619 -0.0030979686797196885 0.0033768810949818882
1543 -0.006788596524619003 0.0023541537489291664 0.003979503675526156
1551 -0.017063325757810367 -0.003734651289632707 -0.004426231787948277
1625 -0.00851622459649428 0.001853420217919015 -0.0016118758972649856
1626 -0.019987552059496986 -0.01823822445696587 0.03539003867139277
464 0.0034998427959704098 -0.004017600122299347 0.003882778707615061
452 -0.00961833908603045 0.007781695192959018 -0.0010431058022040164
466 -0.006938298937563509 0.017459864040012287 0.0013796535120593244
465 -0.003468607863274056 0.0021566830119762394 0.008722598297456434
1223 0.019881769977670532 0.0026184527554452795 0.025464464125308478
1221 -0.008249074736499615 0.008355759845320243 0.014131107658376389
1134 -0.01910525650460338 -0.009130419388910911 0.021979153148922043
1612 -0.003615640201315097 -0.012116933374835543 0.020088069110453858
1611 -0.007428900423333801 -0.0019270796715524546 -0.006154198830758859
1393 -0.017779883128649945 -0.0037626309268659064 -0.006318858122875918
1623 -0.005675507856395711 0.008800577679775904 -0.0013858130732889383
1624 0.0049813967170749315 -0.024789827516664274 -0.026675866634146
1385 -0.008655693329512585 0.009873465082393082 0.019712486833668382
1395 -0.005066140354164941 0.012062740749800125 0.013543771920671325
1396 -0.016266189532890534 -0.003982634701884862 -0.01650391432688811
1453 -0.02710002517388973 0.009674156779653659 -0.0060028052314601826
1438 -0.001838786517971746 -0.011273892340827494 -0.01077378734282836
1452 -0.004134963660345192 0.009045253556427196 0.0020996763404113076
1373 0.00651727302062504 0.001112218632885698 -0.0006307632768226415
1374 0.004606674900038936 -0.002109107994698669 -0.001107381696480566
1377 -0.0002807194572536975 0.004254316357867878 -0.011271120536439472
1394 -0.002329161676081163 0.020286195309745354 -0.0026223867975734474
1387 -0.007232477780358791 0.0006726034545005823 -0.016474407162712097
1388 0.00993003155817535 0.004013878308356162 0.0029657607166113736
1389 -0.0050804180205147025 -0.005642589046511961 -0.010185509514701655
1375 -0.000819077064808659 -0.00040622253612407783 -0.011361102202409119
1449 -0.005371818163758412 -0.002473508733456097 -0.004012253043289843
1437 0.0018297486061606054 -0.007842636536687032 -0.009960425036433244
1451 0.003875358319888787 -0.004271743230950791 0.002398449594044089
1457 0.003274529647327722 -0.010779905524256736 -0.014550441191191248
1439 0.0021199780647720504 0.0016539728707889228 -0.0032118159648465133
1456 -0.005426926472533829 -0.01201349343256472 0.00808364898263298
1435 0.005371191855846012 0.0006650699372512398 0.0015469267008267863
1436 0.005745769022855794 0.0009541947523963707 -0.003663765163818674
1448 0.0006617483878714652 -0.001746888876495073 -0.03300003619769164
1455 -0.0167874458148454 -0.013094009632314777 0.008275237143367916
1447 0.00802453254904578 0.03595878027015477 0.014629613542659105
1074 0.0025908636092973033 0.006947597404113671 0.0030865165950442947
1222 -0.02025004729968674 -0.009943596637251998 -0.019771328259310876
1224 0.014198455723695913 0.0033268155500514813 -0.01320362359293335
1225 0.002820662660350733 0.0055181997671400135 0.01188625029296611
1212 0.004909054428977759 0.0008146189720995338 0.004119208253732341
1227 -0.026080127439608778 0.0029994962498158793 -0.015957738053893535
1226 -0.002037328093920523 -0.002843643997051795 -0.007700183347610716
1211 -0.004701618782359919 9.362894061925339e-05 -0.0011689063283286802
1214 -0.0029969669425652682 0.007908848594929062 -0.004312037612343975
1230 -0.006191901478087315 0.008062491408139617 -0.0019965453149456587
1231 0.010348595440351353 0.004606888191832921 0.00032547660551885457
1229 -0.005911123808043761 0.004942648121146833 0.009383381700972153
1210 -0.0029010392879102844 0.002097532375543246 0.002806813856282473
1209 -0.005400538361018707 8.147831297179454e-05 0.0019392063110040044
1213 -0.00623808382808164 0.004865753970961451 -0.0007672034995947224
1228 0.0003684982866971375 0.019388087386949825 -0.002723929676193686
1078 -0.0016676982503483605 0.0050177409014892415 -0.0018969637931904385
1068 0.022695510686610992 0.00013525499987201463 0.002377650419274749
1233 0.007689641106949501 -0.0009913169819325046 -0.011936755135693918
1127 0.014457428450750973 0.0026813686978935814 -0.016538317735665418
1129 0.021161524163486437 -0.012584146006151384 -0.017295713987795273
1118 0.0005599375078801266 -0.0016608259077311228 0.0012635854623060194
1120 0.0066423414506375615 0.0005297031024312665 0.00838072456071617
1135 0.009355990003157856 -0.018769967584276258 0.012731990452213954
1139 -0.0040843965311708925 -0.009804246024551521 -0.00879499112869054
1666 -0.020248557209010913 0.027677235828960953 -0.007332965065965095
1665 -0.0019882894167596536 -0.0031849451313500274 0.010086938557362948
1232 -0.0011144094820863286 0.009915929408499079 -0.001821086722894874
1133 -0.0021574277253930295 0.015109752680333577 0.013334744307086093
1128 0.005776892816625298 0.02655318553089806 0.017487503225885725
1119 0.0004298965041966755 0.004123638194782632 0.00035868628689980403
1131 0.0026011517539838926 0.00636290917279575 0.012851502012757405
1132 0.012600989393041443 -0.011699123109084048 -0.003269427985437937
1136 0.008550315200811185 0.005147057730147559 -0.0009218960455526668
1115 0.003062895839810091 -0.007243572281623531 0.0039223763170044244
982 0.015071425586609993 0.017467394279660653 -0.0056303007235742756
977 0.022797889792348737 -0.00796940393327433 0.0024613729323792657
1045 -0.0016210601140627281 -0.0015266376250588996 0.009476238110783635
1044 0.011801787103823833 0.010846334947991145 0.023013993046161002
1046 0.01577195374629647 -0.015573981461026083 0.01329142136225472
1028 0.0038250256297474605 -0.003173225861974699 0.0008899398544273703
1036 0.04069102953047659 0.01902720765045353 0.018985779071109998
1652 -0.006769482895432887 -0.012983081969345127 -0.0019247712360664646
1651 -0.0017062483989931242 -0.006010695690426717 -0.0003599513526741918
984 0.0029284451155207943 0.019460124551002267 0.017956213324249112
1025 -0.0011438933706754445 -0.006910370158630829 0.004269400151576314
1027 0.0011944071167618456 0.00441102042152643 -0.00073219466731948
1041 -0.006707800169988912 0.00202160513345523 -0.003417235559491518
1043 0.013339981630639333 0.003758078736389545 0.010209289225019604
1386 0.012614151685590696 0.0010901982578126758 0.008093700884130993
1370 -0.0045429162793547044 0.0019253755613118163 -0.001794371170763543
1413 0.0085815368186137 -0.011080233090567054 0.013238806287480958
1454 0.01637746652542093 -0.002471203199483795 -0.008957360054752539
1384 -0.024331079008155933 -0.007459988009169585 0.0013567524189092373
1391 0.0038889064748581772 0.009168472560036195 -0.009319690314295753
1392 0.006989253444597116 -0.015296934834543767 0.020225834488831855
1376 0.0010060483256283193 -0.0013355494623602067 0.0071252402074515565
1390 0.013564451160946024 0.013339363956188925 0.004410813100805733
1372 -0.00057230824049097 0.006461156128570217 -0.0008072979769009842
1378 0.0012855249886521908 -0.008611483252129324 0.0017704362276070294
1371 0.0041307067825168 -0.002668331017653034 -0.0033824712135495025
1601 0.006418613053762176 0.004191793683736518 0.010230064219103621
1602 0.017622585165162245 -0.006665509529819769 0.006711504934143366
1458 -0.004035544711175582 0.004431321948457692 0.0014155913254203227
1434 -0.0006323272742575488 -0.009609503805088489 -0.0024441635469498405
1443 0.016963967576110173 0.016210181104877656 0.0052841115866336975
1429 -0.0008527949034111834 -0.0031972295647836463 0.0018440838396287177
1446 -0.018638089694728 0.006041930109889262 0.004118125081195618
1445 0.002561328064552976 0.01311502383971463 0.00427200975063317
1459 0.0105521891228187 -0.02159904271451647 -0.007353883659477211
1441 0.0012504294221138252 -0.009863241245646826 -0.0037024516123952893
1430 -0.007283748310990349 -0.0030948488777327522 -0.008424149384970148
1444 -0.013487978071908751 0.016598142904304426 -0.015739181149475392
1463 -0.00017480739591299837 -0.007086887590501865 0.0071640553078361644
1433 -0.0006484491434591202 -0.0018800562146131712 0.003933443565574493
1440 -0.010886435673656424 -0.0022605145736830233 -0.014030383349005826
1431 0.002101857773013395 -0.0024809052535161393 0.0010590401006336093
1432 0.001585567590553805 -0.005798937339436474 -0.001962781380332453
1474 -0.00866561082191217 0.008514943623805976 -0.023181061328871416
1462 0.0009750340022306049 -0.005965882936731255 -0.005808427265782821
1472 -0.003971623619444521 -0.004221500214120252 0.004315593024215219
1490 0.003832036150906444 -0.006927616188231063 -0.0016486486068789802
1600 -0.005523384794887967 0.0468489058172864 -0.0062471533812896544
1488 0.0012742199990696402 -0.009045193242572589 -0.0007210109019143143
1464 0.0038537435983145626 -0.004697222330785813 -0.00190043501690595
1478 -0.01890103352106426 -0.0065770554725002334 -0.006897155808908227
1471 -0.002622376600428588 -0.004570340679060458 0.0010506598722184795
1465 0.004762075271104035 -0.0030680689971491217 -0.004204864636624812
1466 0.0023425929465336302 -0.0007636166101173767 0.00775852376115379
1469 -0.0037780562587582415 0.004187088743579849 -0.0015222416217620636
1485 -0.016893425208378915 0.012540391459997035 -0.008084220766803017
1483 0.013872438469933072 0.027824309615885685 0.0015752604390276816
1467 -0.004800374477858081 -0.0049527265659362486 -0.0010577476213601974
1489 -0.00823011566358848 0.010542964851163709 -0.010242815610586412
1481 -0.016378644332961795 -0.011551713794815708 0.013185670441129923
1487 -0.02215810175530964 0.010278858616397208 -0.01729498326727612
1470 0.005044290206547657 -0.00028556888026085817 -0.007643205520222827
1482 -0.008605750573865267 -0.014516840326910446 -0.013013239873269753
1468 -0.0009479452296580372 0.00832545511952411 3.99203803034473e-05
1480 0.0002990901258813187 0.0177291299833491 0.009880834564423204
1058 0.007223315335544263 0.0006686138946469994 -0.002728305313543475
1599 0.005491589545480262 0.0012489613638183177 0.0016765222866380605
1056 0.008192233905366364 0.0024048533327742736 -0.00194284874555972
1067 0.026815070919888977 0.014409836566305168 0.025600872114336468
1055 0.005252680330695079 -0.005616367171904984 0.002093281046569881
1059 0.00042861841304427746 -0.0031594236485838387 -0.0008173881706162151
1075 0.006308354862040675 -0.011955848312259054 -0.009081477139434134
1077 -0.014737229079520795 0.03378367594812427 0.000626097359240504
1054 0.0035071504300433036 0.002119136872184606 0.002980447540368231
1066 -0.008907954092935717 -0.016028583060136603 0.022721681196569168
1053 0.005318973366533283 0.0010406693077940781 0.0076167815344291645
1065 -0.008934647542906455 -0.02127834037324531 0.00970878778625371
1069 -0.008614320663610025 -0.00038787349236162635 0.005965402053287952
1060 0.0006127515370858372 0.001348802342130413 0.008688134303317023
1052 0.008949381041020055 -0.0012847044880147274 -0.0038157028255987107
1061 -0.0013088049728237506 -0.005043161611327143 0.0030980642734186976
1079 -0.001653947969162194 -0.010228991990390552 0.0220277063779216
1048 -0.004023469795411758 0.005416411324103821 -0.012338266703143728
1062 0.006856594231390233 0.0005650752745435725 -0.0038619210605312063
1051 0.003922215192981379 -0.004340803625754536 0.003033876883091042
1050 0.005297750789464178 -0.005703190214797074 0.009002761628090942
1064 0.01191703160389332 0.014192810911496132 0.005899478387870934
1020 0.004187193427694141 -0.00039353614861036153 -0.0006230740676284933
1063 -0.006069987456442964 -0.026648953644740406 -0.0028928762340890116
1049 -0.0002490215958972549 -0.0018992292296192816 -0.00671956033752004
1019 0.00456740333393062 0.0007381824977435263 -0.00031515756200939393
1033 -0.009780131633076006 -0.01604368170861165 -0.003944079533367151
1030 -0.003405029908896511 -0.005020149740931896 -0.003759243296949938
1047 -0.017312846710520722 0.0086919429693979 -0.015215727558502087
1029 0.001100132581747995 0.002128657996391545 -0.004615432720678013
1021 -0.00032588553847441506 0.0045334379674188624 -0.00034703288866365074
1037 0.010542363538886294 0.01657078053836099 0.00406869163716138
1039 -0.017437609714458065 0.0030700734158477807 -0.016052036809596257
1026 0.0028413915151804772 -0.004370269287075525 -0.003602088473647183
1038 -0.002164569025470632 -0.00639662581456441 0.021722870475466692
1024 0.006118955575130682 0.007969799892275257 0.007851409569611825
1023 -0.004499474991184869 0.00012482517651806775 -0.0029468457320306826
1042 0.010302061066640318 0.003673775826300684 -0.004071620759431535
1022 0.0038665855160769516 0.009649469847337964 -0.0021179823415884615
1035 -0.026194762416056165 0.02872328200382624 -0.009590668679540303
978 0.015025672613800542 -0.011387964303935804 0.002316155213261458
962 0.010209546522743569 0.002508229072919133 0.004572018570505737
963 0.0051886761228878125 0.003531643033313737 0.006858104122151072
983 -0.01680616424483853 0.0011369568597975166 0.02516057797226355
965 -0.007122400437092942 0.0070729221489317946 -0.0017898176422638098
973 -0.004677492871670664 -0.00649167045648185 -0.010550072598385113
1473 0.008857998558993165 -0.019733757040801787 -0.010702892648663092
1460 -0.0028929247879059725 -0.003618549651795396 -0.0016630667229119904
1461 -0.007969428458931295 -0.004323216734937947 -0.011740923923524441
1475 -0.0021296555603402215 -0.0005115963384251807 -0.011431526782905696
1491 -0.002047923544591301 -0.00012503688153766234 0.0037479438953415363
1504 0.00842386977433847 0.012150427896044624 0.005678207436483399
1032 0.0040065417555913765 -0.015464417574453092 -0.025834695111535775
1018 0.002136983384003991 -0.0028489117217072434 0.0049660959641660085
1031 -0.0011069764333594377 0.011672171908032769 0.007903660541594646
988 0.003606399635318428 0.007613301716304241 -0.003046256317572568
1002 8.075445475062793e-05 0.0036839150997985634 0.0010062647623891837
1268 -0.0006253383752462462 0.006430813080208354 0.0009677169443078138
1569 0.01410258615530217 0.01051326482052297 0.0025351164648514
1554 0.0023243774040646046 0.0035661783730673103 -0.004618360913105762
1553 0.004063858152415831 -0.006597772183009473 -0.0023920533809733777
1567 -0.00038054112957216406 0.004746690897620269 -0.00640528814035678
1537 -0.011204266640584505 -0.00506942207233466 0.00827813482271383
970 0.0034512206500829554 -0.02548136384129416 0.0114642111243574
1017 -0.015148433803081904 -0.010632043479927432 -0.008150090282117972
968 -0.00026890729933187106 -0.007477233217623821 0.00843394284119885
1267 -0.004753816244858149 0.007995761519470226 0.016700897055133234
971 0.011128495369585725 -0.011706753271760927 0.007411521240430277
634 -0.012460696401639045 -0.005938671955435521 -0.010058582385317939
636 0.012401266213599623 0.022502617099350756 -0.007831350910303476
614 0.003773244896087478 -0.003714245237025236 -0.002313092855259102
635 0.019559034757305697 -0.0219611737755059 -0.008329413481597247
1655 -0.022822588637389393 -0.009650154689167953 -0.007828213377168932
1656 -0.020296402877061387 0.005838504459285485 -0.04439663846039901
467 -0.00689049441147889 0.024818433236097538 -0.018019451179527465
392 0.0031345774339003596 -0.01149849087229482 0.0009892575882305033
410 0.007833450580189576 -0.009426628853352752 -0.023324011712673388
408 -0.00171747806986604 0.015871851909507566 0.015853775814521263
469 0.017459982696709755 0.0056707142001339444 0.004835227331632585
409 0.0054165811146633745 0.002077258428070302 0.013029259211049981
1208 -0.011416099637235423 -0.0028022864049478046 0.003480123213273193
1215 -0.011702266589272585 -0.00516972244762765 -0.003166805523626219
1114 -0.0006136319048834625 -0.003269777233583493 0.004723168034904542
1117 0.002504835637243952 0.004558375912173332 0.00250730080038115
1130 -0.0001544307546315505 0.0026207291170031945 0.004165393819814056
1116 -0.0011354453802523486 0.0014217051778313496 -0.001106053025217692
1121 0.007412124839147889 0.0009256923822880206 0.006359362992070206
1138 0.004155849792943551 -0.011960015850914614 -0.005279234115116261
1137 -0.0008634715280103535 -0.018620478435640474 -0.016269773285432457
1158 -0.004615062039133575 -0.001415944869001676 0.003045798413259036
1125 0.015093704230203297 -0.009564040180185866 -0.02117572899369619
1155 -0.021484641622665532 0.009878590855491016 -0.00593505573453364
1081 -0.004132269957008033 0.007559117211160577 0.0005091321932032608
1094 0.007161717920879032 0.0023872072649556604 0.013047372026789508
1095 0.0018245964464904973 0.015048165648342403 -0.006209687542699819
1080 -0.007076519021094494 0.007633717112052097 -0.0005249598000998711
1093 -0.003331385604598535 0.008945464673112231 -0.0059296214788145075
1034 -0.010784155770410319 0.018517838401704373 0.027269226485852307
1590 -0.012969476663042259 0.016090996764536215 0.01228868108669526
989 -0.001546608825772787 0.007430477114208084 0.004992763202660982
990 -0.005987467630756041 -0.0029463761506050416 -0.00041099333510242797
1003 0.021004050215146758 0.01351757095877435 0.001821440536801282

Bonds

1 5 1568 1588
2 5 1568 1589
3 5 1568 1590
4 3 1555 1556
5 3 1555 1565
6 3 1556 1557
7 6 1556 1570
8 3 1557 1558
9 6 1557 1571
10 2 1558 1559
11 3 1558 1564
12 6 1565 1584
13 3 1564 1565
14 6 1564 1583
15 4 1559 1560
16 7 1559 1572
17 7 1559 1573
18 7 1562 1577
19 7 1562 1578
20 7 1562 1579
21 8 1647 1648
22 7 1150 1162
23 7 1150 1163
24 7 1150 1164
25 4 994 995
26 4 994 996
27 4 994 997
28 7 996 1010
29 7 996 1011
30 7 996 1012
31 6 999 1017
32 7 997 1013
33 7 997 1014
34 7 997 1015
35 7 1563 1580
36 7 1563 1581
37 7 1563 1582
38 4 1560 1561
39 4 1560 1562
40 4 1560 1563
41 7 1561 1574
42 7 1561 1575
43 7 1561 1576
44 8 1679 1680
45 7 289 302
46 7 289 303
47 7 289 304
48 7 609 626
49 7 609 627
50 7 609 628
51 8 1637 1638
52 7 607 620
53 7 607 621
54 7 607 622
55 7 608 623
56 7 608 624
57 7 608 625
58 4 606 607
59 4 606 608
60 4 606 609
61 3 602 603
62 6 602 616
63 3 603 604
64 6 603 617
65 3 601 602
66 3 601 611
67 4 605 606
68 7 605 618
69 7 605 619
70 2 604 605
71 3 604 610
72 6 611 630
73 3 610 611
74 6 610 629
75 2 600 601
76 1 600 614
77 5 600 615
78 6 549 567
79 3 539 540
80 3 539 549
81 1 599 600
82 5 599 612
83 5 599 613
84 2 569 570
85 1 569 599
86 5 569 583
87 1 568 569
88 5 568 581
89 5 568 582
90 2 538 539
91 1 538 568
92 5 538 552
93 1 537 538
94 5 537 550
95 5 537 551
96 7 454 470
97 7 454 471
98 7 454 472
99 4 451 452
100 4 451 453
101 4 451 454
102 7 453 467
103 7 453 468
104 7 453 469
105 7 391 405
106 7 391 406
107 7 391 407
108 6 580 598
109 3 579 580
110 6 579 597
111 3 570 571
112 3 570 580
113 3 571 572
114 6 571 584
115 3 572 573
116 6 572 585
117 2 573 574
118 3 573 579
119 8 1627 1628
120 2 449 450
121 3 449 455
122 3 448 449
123 6 448 461
124 3 455 456
125 6 455 473
126 3 447 448
127 6 447 460
128 3 446 447
129 3 446 456
130 6 456 474
131 6 425 443
132 3 424 425
133 6 424 442
134 4 450 451
135 7 450 462
136 7 450 463
137 4 389 390
138 4 389 391
139 4 389 392
140 4 388 389
141 7 388 400
142 7 388 401
143 7 390 402
144 7 390 403
145 7 390 404
146 3 386 387
147 6 386 399
148 2 387 388
149 3 387 393
150 3 393 394
151 6 393 411
152 3 385 386
153 6 385 398
154 6 394 412
155 3 384 385
156 3 384 394
157 3 1238 1239
158 6 1238 1252
159 5 1250 1270
160 5 1250 1271
161 5 1250 1272
162 7 1243 1256
163 7 1243 1257
164 7 1243 1258
165 3 1177 1178
166 6 1177 1190
167 1 1235 1236
168 5 1235 1248
169 5 1235 1249
170 2 1236 1237
171 1 1236 1250
172 5 1236 1251
173 3 1237 1238
174 3 1237 1247
175 3 1176 1177
176 6 1176 1189
177 6 1216 1234
178 3 1206 1207
179 3 1206 1216
180 3 1207 1208
181 6 1207 1220
182 1 1142 1143
183 5 1142 1155
184 5 1142 1156
185 2 1205 1206
186 1 1205 1235
187 5 1205 1219
188 1 1204 1205
189 5 1204 1217
190 5 1204 1218
191 3 1175 1176
192 3 1175 1185
193 2 1174 1175
194 1 1174 1204
195 5 1174 1188
196 1 1173 1174
197 5 1173 1186
198 5 1173 1187
199 6 1185 1203
200 3 1113 1114
201 3 1113 1123
202 6 1123 1141
203 3 1122 1123
204 6 1122 1140
205 7 1151 1165
206 7 1151 1166
207 7 1151 1167
208 2 1143 1144
209 1 1143 1173
210 5 1143 1157
211 2 1112 1113
212 1 1112 1142
213 5 1112 1126
214 3 1145 1146
215 6 1145 1158
216 3 1144 1145
217 3 1144 1154
218 3 1146 1147
219 6 1146 1159
220 2 1147 1148
221 3 1147 1153
222 6 1154 1172
223 3 1153 1154
224 6 1153 1171
225 7 1152 1168
226 7 1152 1169
227 7 1152 1170
228 8 1683 1684
229 1 1111 1112
230 5 1111 1124
231 5 1111 1125
232 6 1092 1110
233 3 1082 1083
234 3 1082 1092
235 3 1091 1092
236 6 1091 1109
237 3 1083 1084
238 6 1083 1096
239 3 1084 1085
240 6 1084 1097
241 2 1085 1086
242 3 1085 1091
243 4 1086 1087
244 7 1086 1098
245 7 1086 1099
246 8 1649 1650
247 4 1149 1150
248 4 1149 1151
249 4 1149 1152
250 4 1148 1149
251 7 1148 1160
252 7 1148 1161
253 3 991 992
254 6 991 1004
255 7 995 1007
256 7 995 1008
257 7 995 1009
258 3 998 999
259 6 998 1016
260 2 992 993
261 3 992 998
262 4 993 994
263 7 993 1005
264 7 993 1006
265 8 1609 1610
266 7 291 308
267 7 291 309
268 7 291 310
269 7 290 305
270 7 290 306
271 7 290 307
272 4 288 289
273 4 288 290
274 4 288 291
275 4 287 288
276 7 287 300
277 7 287 301
278 8 1675 1676
279 7 515 529
280 7 515 530
281 7 515 531
282 3 517 518
283 6 517 535
284 2 511 512
285 3 511 517
286 7 516 532
287 7 516 533
288 7 516 534
289 7 514 526
290 7 514 527
291 7 514 528
292 4 513 514
293 4 513 515
294 4 513 516
295 4 512 513
296 7 512 524
297 7 512 525
298 8 1685 1686
299 3 292 293
300 6 292 311
301 6 293 312
302 3 230 231
303 6 230 248
304 2 224 225
305 3 224 230
306 2 282 283
307 1 282 296
308 5 282 297
309 2 286 287
310 3 286 292
311 3 285 286
312 6 285 299
313 3 283 284
314 3 283 293
315 3 284 285
316 6 284 298
317 7 547 563
318 7 547 564
319 7 547 565
320 2 542 543
321 3 542 548
322 4 544 545
323 4 544 546
324 4 544 547
325 4 543 544
326 7 543 555
327 7 543 556
328 7 546 560
329 7 546 561
330 7 546 562
331 7 545 557
332 7 545 558
333 7 545 559
334 6 518 536
335 3 548 549
336 6 548 566
337 3 508 509
338 3 508 518
339 2 507 508
340 1 507 537
341 5 507 521
342 3 541 542
343 6 541 554
344 3 510 511
345 6 510 523
346 3 509 510
347 6 509 522
348 8 1677 1678
349 3 540 541
350 6 540 553
351 3 478 479
352 6 478 491
353 1 506 507
354 5 506 519
355 5 506 520
356 2 476 477
357 1 476 506
358 5 476 490
359 3 477 478
360 3 477 487
361 1 475 476
362 5 475 488
363 5 475 489
364 8 1681 1682
365 7 227 239
366 7 227 240
367 7 227 241
368 4 225 226
369 7 225 237
370 7 225 238
371 4 226 227
372 4 226 228
373 4 226 229
374 7 229 245
375 7 229 246
376 7 229 247
377 8 1635 1636
378 4 574 575
379 7 574 586
380 7 574 587
381 8 1661 1662
382 4 575 576
383 4 575 577
384 4 575 578
385 7 578 594
386 7 578 595
387 7 578 596
388 6 487 505
389 2 480 481
390 3 480 486
391 3 479 480
392 6 479 492
393 3 486 487
394 6 486 504
395 4 481 482
396 7 481 493
397 7 481 494
398 7 576 588
399 7 576 589
400 7 576 590
401 7 577 591
402 7 577 592
403 7 577 593
404 3 415 416
405 3 415 425
406 2 445 446
407 1 445 475
408 5 445 459
409 2 414 415
410 1 414 444
411 5 414 428
412 2 418 419
413 3 418 424
414 3 417 418
415 6 417 430
416 3 416 417
417 6 416 429
418 7 485 501
419 7 485 502
420 7 485 503
421 1 444 445
422 5 444 457
423 5 444 458
424 3 355 356
425 6 355 368
426 2 356 357
427 3 356 362
428 1 413 414
429 5 413 426
430 5 413 427
431 3 362 363
432 6 362 380
433 7 483 495
434 7 483 496
435 7 483 497
436 4 357 358
437 7 357 369
438 7 357 370
439 2 383 384
440 1 383 413
441 5 383 397
442 1 319 320
443 1 319 332
444 5 319 333
445 5 319 334
446 1 382 383
447 5 382 395
448 5 382 396
449 2 352 353
450 1 352 382
451 5 352 366
452 3 353 354
453 3 353 363
454 2 320 321
455 1 320 351
456 5 320 335
457 1 351 352
458 5 351 364
459 5 351 365
460 3 354 355
461 6 354 367
462 6 363 381
463 5 332 631
464 5 332 632
465 5 332 633
466 3 321 322
467 3 321 331
468 6 331 350
469 3 330 331
470 6 330 349
471 3 1239 1240
472 6 1239 1253
473 2 1240 1241
474 3 1240 1246
475 7 1245 1262
476 7 1245 1263
477 7 1245 1264
478 4 1242 1243
479 4 1242 1244
480 4 1242 1245
481 4 1241 1242
482 7 1241 1254
483 7 1241 1255
484 7 1244 1259
485 7 1244 1260
486 7 1244 1261
487 4 420 421
488 4 420 422
489 4 420 423
490 7 421 433
491 7 421 434
492 7 421 435
493 4 419 420
494 7 419 431
495 7 419 432
496 7 423 439
497 7 423 440
498 7 423 441
499 7 422 436
500 7 422 437
501 7 422 438
502 8 1687 1688
503 4 1179 1180
504 7 1179 1191
505 7 1179 1192
506 6 1247 1266
507 3 322 323
508 6 322 336
509 2 324 325
510 3 324 330
511 2 1178 1179
512 3 1178 1184
513 3 1184 1185
514 6 1184 1202
515 3 323 324
516 6 323 337
517 4 325 326
518 7 325 338
519 7 325 339
520 8 1671 1672
521 3 1246 1247
522 6 1246 1265
523 8 1593 1594
524 7 1182 1196
525 7 1182 1197
526 7 1182 1198
527 4 1180 1181
528 4 1180 1182
529 4 1180 1183
530 7 1181 1193
531 7 1181 1194
532 7 1181 1195
533 7 1183 1199
534 7 1183 1200
535 7 1183 1201
536 7 1089 1103
537 7 1089 1104
538 7 1089 1105
539 4 1087 1088
540 4 1087 1089
541 4 1087 1090
542 7 1090 1106
543 7 1090 1107
544 7 1090 1108
545 7 1088 1100
546 7 1088 1101
547 7 1088 1102
548 8 1667 1668
549 7 197 211
550 7 197 212
551 7 197 213
552 7 105 121
553 7 105 122
554 7 105 123
555 7 196 208
556 7 196 209
557 7 196 210
558 3 199 200
559 6 199 217
560 4 194 195
561 7 194 206
562 7 194 207
563 8 1621 1622
564 7 103 115
565 7 103 116
566 7 103 117
567 4 101 102
568 7 101 113
569 7 101 114
570 4 102 103
571 4 102 104
572 4 102 105
573 2 100 101
574 3 100 106
575 3 253 254
576 6 253 266
577 3 254 255
578 6 254 267
579 3 168 169
580 6 168 186
581 6 169 187
582 2 255 256
583 3 255 261
584 6 200 218
585 7 198 214
586 7 198 215
587 7 198 216
588 4 195 196
589 4 195 197
590 4 195 198
591 2 193 194
592 3 193 199
593 3 192 193
594 6 192 205
595 3 190 191
596 3 190 200
597 3 191 192
598 6 191 204
599 1 188 189
600 5 188 201
601 5 188 202
602 1 219 220
603 5 219 232
604 5 219 233
605 1 250 251
606 5 250 263
607 5 250 264
608 6 231 249
609 2 189 190
610 1 189 219
611 5 189 203
612 2 220 221
613 1 220 250
614 5 220 234
615 3 221 222
616 3 221 231
617 3 222 223
618 6 222 235
619 2 251 252
620 1 251 281
621 5 251 265
622 1 281 282
623 5 281 294
624 5 281 295
625 3 252 253
626 3 252 262
627 6 262 280
628 2 158 159
629 1 158 188
630 5 158 172
631 5 296 316
632 5 296 317
633 5 296 318
634 3 261 262
635 6 261 279
636 3 223 224
637 6 223 236
638 7 228 242
639 7 228 243
640 7 228 244
641 4 482 483
642 4 482 484
643 4 482 485
644 8 1689 1690
645 7 484 498
646 7 484 499
647 7 484 500
648 7 361 377
649 7 361 378
650 7 361 379
651 4 358 359
652 4 358 360
653 4 358 361
654 7 359 371
655 7 359 372
656 7 359 373
657 7 360 374
658 7 360 375
659 7 360 376
660 7 328 343
661 7 328 344
662 7 328 345
663 4 326 327
664 4 326 328
665 4 326 329
666 7 327 340
667 7 327 341
668 7 327 342
669 7 329 346
670 7 329 347
671 7 329 348
672 7 166 180
673 7 166 181
674 7 166 182
675 7 833 847
676 7 833 848
677 7 833 849
678 4 830 831
679 7 830 842
680 7 830 843
681 7 894 906
682 7 894 907
683 7 894 908
684 7 104 118
685 7 104 119
686 7 104 120
687 7 167 183
688 7 167 184
689 7 167 185
690 3 99 100
691 6 99 112
692 3 106 107
693 6 106 124
694 3 98 99
695 6 98 111
696 3 97 98
697 3 97 107
698 6 107 125
699 2 96 97
700 1 96 126
701 5 96 110
702 1 95 96
703 5 95 108
704 5 95 109
705 2 65 66
706 1 65 95
707 5 65 79
708 8 1591 1592
709 4 164 165
710 4 164 166
711 4 164 167
712 4 163 164
713 7 163 175
714 7 163 176
715 7 165 177
716 7 165 178
717 7 165 179
718 3 159 160
719 3 159 169
720 3 160 161
721 6 160 173
722 2 162 163
723 3 162 168
724 3 161 162
725 6 161 174
726 7 260 276
727 7 260 277
728 7 260 278
729 7 259 273
730 7 259 274
731 7 259 275
732 8 1633 1634
733 4 257 258
734 4 257 259
735 4 257 260
736 4 256 257
737 7 256 268
738 7 256 269
739 7 258 270
740 7 258 271
741 7 258 272
742 1 886 887
743 5 886 899
744 5 886 900
745 7 834 850
746 7 834 851
747 7 834 852
748 4 831 832
749 4 831 833
750 4 831 834
751 3 828 829
752 6 828 841
753 2 829 830
754 3 829 835
755 7 832 844
756 7 832 845
757 7 832 846
758 3 827 828
759 6 827 840
760 3 890 891
761 6 890 903
762 3 889 890
763 6 889 902
764 8 1669 1670
765 4 893 894
766 4 893 895
767 4 893 896
768 2 69 70
769 3 69 75
770 1 157 158
771 5 157 170
772 5 157 171
773 1 126 127
774 5 126 139
775 5 126 140
776 2 127 128
777 1 127 157
778 5 127 141
779 6 138 156
780 3 137 138
781 6 137 155
782 3 128 129
783 3 128 138
784 3 129 130
785 6 129 142
786 2 131 132
787 3 131 137
788 3 130 131
789 6 130 143
790 3 68 69
791 6 68 81
792 3 67 68
793 6 67 80
794 3 66 67
795 3 66 76
796 5 932 952
797 5 932 953
798 5 932 954
799 2 918 919
800 1 918 932
801 5 918 933
802 3 919 920
803 3 919 929
804 3 920 921
805 6 920 934
806 1 917 918
807 5 917 930
808 5 917 931
809 6 929 948
810 3 928 929
811 6 928 947
812 2 922 923
813 3 922 928
814 4 892 893
815 7 892 904
816 7 892 905
817 2 887 888
818 1 887 917
819 5 887 901
820 3 888 889
821 3 888 898
822 2 891 892
823 3 891 897
824 6 898 916
825 3 897 898
826 6 897 915
827 7 895 909
828 7 895 910
829 7 895 911
830 7 134 146
831 7 134 147
832 7 134 148
833 4 132 133
834 7 132 144
835 7 132 145
836 7 136 152
837 7 136 153
838 7 136 154
839 4 133 134
840 4 133 135
841 4 133 136
842 8 1653 1654
843 8 1597 1598
844 7 926 941
845 7 926 942
846 7 926 943
847 8 1657 1658
848 8 1617 1618
849 7 678 692
850 7 678 693
851 7 678 694
852 7 677 689
853 7 677 690
854 7 677 691
855 4 676 677
856 4 676 678
857 4 676 679
858 7 679 695
859 7 679 696
860 7 679 697
861 4 675 676
862 7 675 687
863 7 675 688
864 7 708 720
865 7 708 721
866 7 708 722
867 7 709 723
868 7 709 724
869 7 709 725
870 1 731 732
871 5 731 744
872 5 731 745
873 1 762 763
874 5 762 775
875 5 762 776
876 2 732 733
877 1 732 762
878 5 732 746
879 2 763 764
880 1 763 793
881 5 763 777
882 8 1643 1644
883 3 703 704
884 6 703 716
885 3 704 705
886 6 704 717
887 2 701 702
888 1 701 731
889 5 701 715
890 3 702 703
891 3 702 712
892 6 712 730
893 3 711 712
894 6 711 729
895 2 705 706
896 3 705 711
897 3 765 766
898 6 765 778
899 4 706 707
900 7 706 718
901 7 706 719
902 4 707 708
903 4 707 709
904 4 707 710
905 7 710 726
906 7 710 727
907 7 710 728
908 1 64 65
909 5 64 77
910 5 64 78
911 1 33 34
912 5 33 46
913 5 33 47
914 2 34 35
915 1 34 64
916 5 34 48
917 1 1 2
918 1 1 14
919 5 1 15
920 5 1 16
921 2 2 3
922 1 2 33
923 5 2 17
924 3 3 4
925 3 3 13
926 5 14 313
927 5 14 314
928 5 14 315
929 2 825 826
930 1 825 855
931 5 825 839
932 3 826 827
933 3 826 836
934 2 856 857
935 1 856 886
936 5 856 870
937 1 824 825
938 5 824 837
939 5 824 838
940 1 793 794
941 5 793 806
942 5 793 807
943 2 794 795
944 1 794 824
945 5 794 808
946 3 797 798
947 6 797 810
948 3 796 797
949 6 796 809
950 3 795 796
951 3 795 805
952 6 805 823
953 1 855 856
954 5 855 868
955 5 855 869
956 3 835 836
957 6 835 853
958 6 836 854
959 7 896 912
960 7 896 913
961 7 896 914
962 3 764 765
963 3 764 774
964 6 774 792
965 3 766 767
966 6 766 779
967 2 767 768
968 3 767 773
969 3 773 774
970 6 773 791
971 4 768 769
972 7 768 780
973 7 768 781
974 3 857 858
975 3 857 867
976 3 858 859
977 6 858 871
978 4 769 770
979 4 769 771
980 4 769 772
981 7 771 785
982 7 771 786
983 7 771 787
984 8 1619 1620
985 3 75 76
986 6 75 93
987 4 70 71
988 7 70 82
989 7 70 83
990 7 74 90
991 7 74 91
992 7 74 92
993 7 72 84
994 7 72 85
995 7 72 86
996 4 71 72
997 4 71 73
998 4 71 74
999 7 73 87
1000 7 73 88
1001 7 73 89
1002 6 76 94
1003 6 45 63
1004 2 38 39
1005 3 38 44
1006 3 35 36
1007 3 35 45
1008 3 36 37
1009 6 36 49
1010 3 37 38
1011 6 37 50
1012 3 44 45
1013 6 44 62
1014 4 39 40
1015 7 39 51
1016 7 39 52
1017 7 41 53
1018 7 41 54
1019 7 41 55
1020 4 40 41
1021 4 40 42
1022 4 40 43
1023 7 42 56
1024 7 42 57
1025 7 42 58
1026 3 4 5
1027 6 4 18
1028 3 921 922
1029 6 921 935
1030 4 923 924
1031 7 923 936
1032 7 923 937
1033 8 1639 1640
1034 6 867 885
1035 3 866 867
1036 6 866 884
1037 2 860 861
1038 3 860 866
1039 3 859 860
1040 6 859 872
1041 7 863 875
1042 7 863 876
1043 7 863 877
1044 4 861 862
1045 7 861 873
1046 7 861 874
1047 4 862 863
1048 4 862 864
1049 4 862 865
1050 7 865 881
1051 7 865 882
1052 7 865 883
1053 7 864 878
1054 7 864 879
1055 7 864 880
1056 8 1663 1664
1057 7 135 149
1058 7 135 150
1059 7 135 151
1060 8 1607 1608
1061 7 43 59
1062 7 43 60
1063 7 43 61
1064 7 925 938
1065 7 925 939
1066 7 925 940
1067 4 924 925
1068 4 924 926
1069 4 924 927
1070 7 927 944
1071 7 927 945
1072 7 927 946
1073 7 1313 1325
1074 7 1313 1326
1075 7 1313 1327
1076 8 1673 1674
1077 7 645 658
1078 7 645 659
1079 7 645 660
1080 7 646 661
1081 7 646 662
1082 7 646 663
1083 4 644 645
1084 4 644 646
1085 4 644 647
1086 4 643 644
1087 7 643 656
1088 7 643 657
1089 2 642 643
1090 3 642 648
1091 3 648 649
1092 6 648 667
1093 7 647 664
1094 7 647 665
1095 7 647 666
1096 7 1283 1300
1097 7 1283 1301
1098 7 1283 1302
1099 8 1595 1596
1100 7 1282 1297
1101 7 1282 1298
1102 7 1282 1299
1103 3 1277 1278
1104 6 1277 1291
1105 4 1280 1281
1106 4 1280 1282
1107 4 1280 1283
1108 4 1279 1280
1109 7 1279 1292
1110 7 1279 1293
1111 2 1278 1279
1112 3 1278 1284
1113 3 1284 1285
1114 6 1284 1303
1115 3 1276 1277
1116 6 1276 1290
1117 6 1285 1304
1118 3 1275 1276
1119 3 1275 1285
1120 7 1281 1294
1121 7 1281 1295
1122 7 1281 1296
1123 5 1286 1585
1124 5 1286 1586
1125 5 1286 1587
1126 3 1309 1310
1127 6 1309 1322
1128 3 1308 1309
1129 6 1308 1321
1130 1 1273 1274
1131 1 1273 1286
1132 5 1273 1287
1133 5 1273 1288
1134 2 1274 1275
1135 1 1274 1305
1136 5 1274 1289
1137 1 1305 1306
1138 5 1305 1318
1139 5 1305 1319
1140 6 1317 1335
1141 3 1316 1317
1142 6 1316 1334
1143 2 1306 1307
1144 1 1306 1336
1145 5 1306 1320
1146 3 1307 1308
1147 3 1307 1317
1148 8 1659 1660
1149 7 1314 1328
1150 7 1314 1329
1151 7 1314 1330
1152 7 1315 1331
1153 7 1315 1332
1154 7 1315 1333
1155 2 1310 1311
1156 3 1310 1316
1157 4 1312 1313
1158 4 1312 1314
1159 4 1312 1315
1160 4 1311 1312
1161 7 1311 1323
1162 7 1311 1324
1163 3 641 642
1164 6 641 655
1165 3 640 641
1166 6 640 654
1167 6 649 668
1168 3 639 640
1169 3 639 649
1170 2 638 639
1171 1 638 669
1172 5 638 653
1173 2 674 675
1174 3 674 680
1175 3 680 681
1176 6 680 698
1177 3 671 672
1178 3 671 681
1179 3 673 674
1180 6 673 686
1181 3 672 673
1182 6 672 685
1183 1 669 670
1184 5 669 682
1185 5 669 683
1186 2 670 671
1187 1 670 700
1188 5 670 684
1189 6 681 699
1190 1 700 701
1191 5 700 713
1192 5 700 714
1193 8 1631 1632
1194 7 964 979
1195 7 964 980
1196 7 964 981
1197 8 1605 1606
1198 7 1501 1517
1199 7 1501 1518
1200 7 1501 1519
1201 7 1499 1511
1202 7 1499 1512
1203 7 1499 1513
1204 4 1498 1499
1205 4 1498 1500
1206 4 1498 1501
1207 4 1497 1498
1208 7 1497 1509
1209 7 1497 1510
1210 7 1500 1514
1211 7 1500 1515
1212 7 1500 1516
1213 8 1615 1616
1214 3 734 735
1215 6 734 747
1216 3 735 736
1217 6 735 748
1218 3 733 734
1219 3 733 743
1220 2 736 737
1221 3 736 742
1222 4 737 738
1223 7 737 749
1224 7 737 750
1225 6 743 761
1226 3 742 743
1227 6 742 760
1228 4 738 739
1229 4 738 740
1230 4 738 741
1231 7 739 751
1232 7 739 752
1233 7 739 753
1234 7 740 754
1235 7 740 755
1236 7 740 756
1237 7 772 788
1238 7 772 789
1239 7 772 790
1240 6 13 32
1241 3 12 13
1242 6 12 31
1243 8 1645 1646
1244 3 804 805
1245 6 804 822
1246 2 798 799
1247 3 798 804
1248 7 801 813
1249 7 801 814
1250 7 801 815
1251 4 800 801
1252 4 800 802
1253 4 800 803
1254 4 799 800
1255 7 799 811
1256 7 799 812
1257 7 802 816
1258 7 802 817
1259 7 802 818
1260 7 803 819
1261 7 803 820
1262 7 803 821
1263 7 770 782
1264 7 770 783
1265 7 770 784
1266 2 6 7
1267 3 6 12
1268 7 11 28
1269 7 11 29
1270 7 11 30
1271 3 5 6
1272 6 5 19
1273 4 7 8
1274 7 7 20
1275 7 7 21
1276 8 1613 1614
1277 4 8 9
1278 4 8 10
1279 4 8 11
1280 7 10 25
1281 7 10 26
1282 7 10 27
1283 7 9 22
1284 7 9 23
1285 7 9 24
1286 7 1346 1362
1287 7 1346 1363
1288 7 1346 1364
1289 7 1344 1356
1290 7 1344 1357
1291 7 1344 1358
1292 3 1347 1348
1293 6 1347 1365
1294 3 1340 1341
1295 6 1340 1353
1296 4 1343 1344
1297 4 1343 1345
1298 4 1343 1346
1299 4 1342 1343
1300 7 1342 1354
1301 7 1342 1355
1302 2 1341 1342
1303 3 1341 1347
1304 8 1629 1630
1305 7 1345 1359
1306 7 1345 1360
1307 7 1345 1361
1308 7 1408 1424
1309 7 1408 1425
1310 7 1408 1426
1311 1 1336 1337
1312 5 1336 1349
1313 5 1336 1350
1314 3 1339 1340
1315 6 1339 1352
1316 6 1348 1366
1317 3 1338 1339
1318 3 1338 1348
1319 2 1337 1338
1320 1 1337 1367
1321 5 1337 1351
1322 1 1367 1368
1323 5 1367 1380
1324 5 1367 1381
1325 3 1369 1370
1326 3 1369 1379
1327 2 1368 1369
1328 1 1368 1398
1329 5 1368 1382
1330 1 1398 1399
1331 5 1398 1411
1332 5 1398 1412
1333 6 1379 1397
1334 2 1399 1400
1335 1 1399 1429
1336 5 1399 1413
1337 4 1404 1405
1338 7 1404 1416
1339 7 1404 1417
1340 6 1410 1428
1341 3 1409 1410
1342 6 1409 1427
1343 3 1401 1402
1344 6 1401 1414
1345 3 1400 1401
1346 3 1400 1410
1347 2 1403 1404
1348 3 1403 1409
1349 3 1402 1403
1350 6 1402 1415
1351 4 1405 1406
1352 4 1405 1407
1353 4 1405 1408
1354 7 1406 1418
1355 7 1406 1419
1356 7 1406 1420
1357 8 1641 1642
1358 7 1407 1421
1359 7 1407 1422
1360 7 1407 1423
1361 1 637 638
1362 1 637 650
1363 5 637 651
1364 5 637 652
1365 5 650 949
1366 5 650 950
1367 5 650 951
1368 7 1057 1069
1369 7 1057 1070
1370 7 1057 1071
1371 3 966 967
1372 6 966 985
1373 2 960 961
1374 3 960 966
1375 4 961 962
1376 7 961 974
1377 7 961 975
1378 6 967 986
1379 3 957 958
1380 3 957 967
1381 3 958 959
1382 6 958 972
1383 3 959 960
1384 6 959 973
1385 7 1531 1545
1386 7 1531 1546
1387 7 1531 1547
1388 3 1526 1527
1389 6 1526 1539
1390 3 1525 1526
1391 6 1525 1538
1392 2 1527 1528
1393 3 1527 1533
1394 6 1534 1552
1395 3 1524 1525
1396 3 1524 1534
1397 3 1533 1534
1398 6 1533 1551
1399 3 1495 1496
1400 6 1495 1508
1401 2 1496 1497
1402 3 1496 1502
1403 3 1493 1494
1404 3 1493 1503
1405 2 1492 1493
1406 1 1492 1522
1407 5 1492 1506
1408 3 1494 1495
1409 6 1494 1507
1410 3 1502 1503
1411 6 1502 1520
1412 6 1503 1521
1413 1 1522 1523
1414 5 1522 1535
1415 5 1522 1536
1416 2 1523 1524
1417 1 1523 1553
1418 5 1523 1537
1419 7 741 757
1420 7 741 758
1421 7 741 759
1422 1 987 988
1423 5 987 1000
1424 5 987 1001
1425 1 955 956
1426 1 955 968
1427 5 955 969
1428 5 955 970
1429 2 956 957
1430 1 956 987
1431 5 956 971
1432 4 1529 1530
1433 4 1529 1531
1434 4 1529 1532
1435 4 1528 1529
1436 7 1528 1540
1437 7 1528 1541
1438 7 1532 1548
1439 7 1532 1549
1440 7 1532 1550
1441 8 1603 1604
1442 7 1530 1542
1443 7 1530 1543
1444 7 1530 1544
1445 8 1625 1626
1446 7 452 464
1447 7 452 465
1448 7 452 466
1449 8 1611 1612
1450 8 1623 1624
1451 7 1438 1452
1452 7 1438 1453
1453 7 1438 1454
1454 4 1373 1374
1455 7 1373 1385
1456 7 1373 1386
1457 4 1374 1375
1458 4 1374 1376
1459 4 1374 1377
1460 7 1377 1393
1461 7 1377 1394
1462 7 1377 1395
1463 7 1375 1387
1464 7 1375 1388
1465 7 1375 1389
1466 7 1437 1449
1467 7 1437 1450
1468 7 1437 1451
1469 7 1439 1455
1470 7 1439 1456
1471 7 1439 1457
1472 4 1435 1436
1473 7 1435 1447
1474 7 1435 1448
1475 4 1436 1437
1476 4 1436 1438
1477 4 1436 1439
1478 7 1212 1224
1479 7 1212 1225
1480 7 1212 1226
1481 4 1211 1212
1482 4 1211 1213
1483 4 1211 1214
1484 7 1214 1230
1485 7 1214 1231
1486 7 1214 1232
1487 4 1210 1211
1488 7 1210 1222
1489 7 1210 1223
1490 2 1209 1210
1491 3 1209 1215
1492 7 1213 1227
1493 7 1213 1228
1494 7 1213 1229
1495 4 1118 1119
1496 4 1118 1120
1497 4 1118 1121
1498 7 1120 1134
1499 7 1120 1135
1500 7 1120 1136
1501 8 1665 1666
1502 7 1119 1131
1503 7 1119 1132
1504 7 1119 1133
1505 3 1115 1116
1506 6 1115 1128
1507 7 1028 1044
1508 7 1028 1045
1509 7 1028 1046
1510 8 1651 1652
1511 4 1025 1026
1512 4 1025 1027
1513 4 1025 1028
1514 7 1027 1041
1515 7 1027 1042
1516 7 1027 1043
1517 3 1370 1371
1518 6 1370 1383
1519 7 1376 1390
1520 7 1376 1391
1521 7 1376 1392
1522 2 1372 1373
1523 3 1372 1378
1524 3 1378 1379
1525 6 1378 1396
1526 3 1371 1372
1527 6 1371 1384
1528 8 1601 1602
1529 2 1434 1435
1530 3 1434 1440
1531 1 1429 1430
1532 5 1429 1442
1533 5 1429 1443
1534 6 1441 1459
1535 2 1430 1431
1536 1 1430 1460
1537 5 1430 1444
1538 3 1463 1464
1539 6 1463 1476
1540 3 1433 1434
1541 6 1433 1446
1542 3 1440 1441
1543 6 1440 1458
1544 3 1431 1432
1545 3 1431 1441
1546 3 1432 1433
1547 6 1432 1445
1548 3 1462 1463
1549 3 1462 1472
1550 6 1472 1490
1551 3 1464 1465
1552 6 1464 1477
1553 3 1471 1472
1554 6 1471 1489
1555 2 1465 1466
1556 3 1465 1471
1557 4 1466 1467
1558 7 1466 1478
1559 7 1466 1479
1560 7 1469 1483
1561 7 1469 1484
1562 7 1469 1485
1563 4 1467 1468
1564 4 1467 1469
1565 4 1467 1470
1566 7 1470 1486
1567 7 1470 1487
1568 7 1470 1488
1569 7 1468 1480
1570 7 1468 1481
1571 7 1468 1482
1572 7 1058 1072
1573 7 1058 1073
1574 7 1058 1074
1575 8 1599 1600
1576 4 1056 1057
1577 4 1056 1058
1578 4 1056 1059
1579 4 1055 1056
1580 7 1055 1067
1581 7 1055 1068
1582 7 1059 1075
1583 7 1059 1076
1584 7 1059 1077
1585 2 1054 1055
1586 3 1054 1060
1587 3 1053 1054
1588 6 1053 1066
1589 3 1060 1061
1590 6 1060 1078
1591 3 1052 1053
1592 6 1052 1065
1593 6 1061 1079
1594 3 1051 1052
1595 3 1051 1061
1596 2 1050 1051
1597 1 1050 1080
1598 5 1050 1064
1599 3 1020 1021
1600 3 1020 1030
1601 1 1049 1050
1602 5 1049 1062
1603 5 1049 1063
1604 2 1019 1020
1605 1 1019 1049
1606 5 1019 1033
1607 6 1030 1048
1608 3 1029 1030
1609 6 1029 1047
1610 3 1021 1022
1611 6 1021 1034
1612 7 1026 1038
1613 7 1026 1039
1614 7 1026 1040
1615 4 1024 1025
1616 7 1024 1036
1617 7 1024 1037
1618 2 1023 1024
1619 3 1023 1029
1620 3 1022 1023
1621 6 1022 1035
1622 4 962 963
1623 4 962 964
1624 4 962 965
1625 7 963 976
1626 7 963 977
1627 7 963 978
1628 7 965 982
1629 7 965 983
1630 7 965 984
1631 1 1460 1461
1632 5 1460 1473
1633 5 1460 1474
1634 2 1461 1462
1635 1 1461 1491
1636 5 1461 1475
1637 1 1491 1492
1638 5 1491 1504
1639 5 1491 1505
1640 1 1018 1019
1641 5 1018 1031
1642 5 1018 1032
1643 2 988 989
1644 1 988 1018
1645 5 988 1002
1646 2 1554 1555
1647 1 1554 1568
1648 5 1554 1569
1649 1 1553 1554
1650 5 1553 1566
1651 5 1553 1567
1652 5 968 1267
1653 5 968 1268
1654 5 968 1269
1655 5 614 634
1656 5 614 635
1657 5 614 636
1658 8 1655 1656
1659 7 392 408
1660 7 392 409
1661 7 392 410
1662 3 1208 1209
1663 6 1208 1221
1664 3 1215 1216
1665 6 1215 1233
1666 3 1114 1115
1667 6 1114 1127
1668 4 1117 1118
1669 7 1117 1129
1670 7 1117 1130
1671 2 1116 1117
1672 3 1116 1122
1673 7 1121 1137
1674 7 1121 1138
1675 7 1121 1139
1676 2 1081 1082
1677 1 1081 1111
1678 5 1081 1095
1679 1 1080 1081
1680 5 1080 1093
1681 5 1080 1094
1682 3 989 990
1683 3 989 999
1684 3 990 991
1685 6 990 1003

Angles

1 7 1554 1568 1588
2 7 1554 1568 1589
3 7 1554 1568 1590
4 12 1588 1568 1589
5 12 1588 1568 1590
6 12 1589 1568 1590
7 3 1554 1555 1556
8 3 1554 1555 1565
9 4 1556 1555 1565
10 4 1555 1556 1557
11 9 1555 1556 1570
12 9 1557 1556 1570
13 4 1556 1557 1558
14 9 1556 1557 1571
15 9 1558 1557 1571
16 3 1557 1558 1559
17 4 1557 1558 1564
18 3 1559 1558 1564
19 4 1555 1565 1564
20 9 1555 1565 1584
21 9 1564 1565 1584
22 4 1558 1564 1565
23 9 1558 1564 1583
24 9 1565 1564 1583
25 5 1558 1559 1560
26 10 1558 1559 1572
27 10 1558 1559 1573
28 11 1560 1559 1572
29 11 1560 1559 1573
30 13 1572 1559 1573
31 11 1560 1562 1577
32 11 1560 1562 1578
33 11 1560 1562 1579
34 13 1577 1562 1578
35 13 1577 1562 1579
36 13 1578 1562 1579
37 11 1149 1150 1162
38 11 1149 1150 1163
39 11 1149 1150 1164
40 13 1162 1150 1163
41 13 1162 1150 1164
42 13 1163 1150 1164
43 6 993 994 995
44 6 993 994 996
45 6 993 994 997
46 6 995 994 996
47 6 995 994 997
48 6 996 994 997
49 11 994 996 1010
50 11 994 996 1011
51 11 994 996 1012
52 13 1010 996 1011
53 13 1010 996 1012
54 13 1011 996 1012
55 4 989 999 998
56 9 989 999 1017
57 9 998 999 1017
58 11 994 997 1013
59 11 994 997 1014
60 11 994 997 1015
61 13 1013 997 1014
62 13 1013 997 1015
63 13 1014 997 1015
64 11 1560 1563 1580
65 11 1560 1563 1581
66 11 1560 1563 1582
67 13 1580 1563 1581
68 13 1580 1563 1582
69 13 1581 1563 1582
70 6 1559 1560 1561
71 6 1559 1560 1562
72 6 1559 1560 1563
73 6 1561 1560 1562
74 6 1561 1560 1563
75 6 1562 1560 1563
76 11 1560 1561 1574
77 11 1560 1561 1575
78 11 1560 1561 1576
79 13 1574 1561 1575
80 13 1574 1561 1576
81 13 1575 1561 1576
82 11 288 289 302
83 11 288 289 303
84 11 288 289 304
85 13 302 289 303
86 13 302 289 304
87 13 303 289 304
88 11 606 609 626
89 11 606 609 627
90 11 606 609 628
91 13 626 609 627
92 13 626 609 628
93 13 627 609 628
94 11 606 607 620
95 11 606 607 621
96 11 606 607 622
97 13 620 607 621
98 13 620 607 622
99 13 621 607 622
100 11 606 608 623
101 11 606 608 624
102 11 606 608 625
103 13 623 608 624
104 13 623 608 625
105 13 624 608 625
106 6 605 606 607
107 6 605 606 608
108 6 605 606 609
109 6 607 606 608
110 6 607 606 609
111 6 608 606 609
112 4 601 602 603
113 9 601 602 616
114 9 603 602 616
115 4 602 603 604
116 9 602 603 617
117 9 604 603 617
118 3 600 601 602
119 3 600 601 611
120 4 602 601 611
121 5 604 605 606
122 10 604 605 618
123 10 604 605 619
124 11 606 605 618
125 11 606 605 619
126 13 618 605 619
127 3 603 604 605
128 4 603 604 610
129 3 605 604 610
130 4 601 611 610
131 9 601 611 630
132 9 610 611 630
133 4 604 610 611
134 9 604 610 629
135 9 611 610 629
136 1 599 600 601
137 2 599 600 614
138 1 601 600 614
139 7 599 600 615
140 8 601 600 615
141 7 614 600 615
142 4 539 549 548
143 9 539 549 567
144 9 548 549 567
145 3 538 539 540
146 3 538 539 549
147 4 540 539 549
148 2 569 599 600
149 7 569 599 612
150 7 569 599 613
151 7 600 599 612
152 7 600 599 613
153 12 612 599 613
154 1 568 569 570
155 2 568 569 599
156 1 570 569 599
157 7 568 569 583
158 8 570 569 583
159 7 583 569 599
160 2 538 568 569
161 7 538 568 581
162 7 538 568 582
163 7 569 568 581
164 7 569 568 582
165 12 581 568 582
166 1 537 538 539
167 2 537 538 568
168 1 539 538 568
169 7 537 538 552
170 8 539 538 552
171 7 552 538 568
172 2 507 537 538
173 7 507 537 550
174 7 507 537 551
175 7 538 537 550
176 7 538 537 551
177 12 550 537 551
178 11 451 454 470
179 11 451 454 471
180 11 451 454 472
181 13 470 454 471
182 13 470 454 472
183 13 471 454 472
184 6 450 451 452
185 6 450 451 453
186 6 450 451 454
187 6 452 451 453
188 6 452 451 454
189 6 453 451 454
190 11 451 453 467
191 11 451 453 468
192 11 451 453 469
193 13 467 453 468
194 13 467 453 469
195 13 468 453 469
196 11 389 391 405
197 11 389 391 406
198 11 389 391 407
199 13 405 391 406
200 13 405 391 407
201 13 406 391 407
202 4 570 580 579
203 9 570 580 598
204 9 579 580 598
205 4 573 579 580
206 9 573 579 597
207 9 580 579 597
208 3 569 570 571
209 3 569 570 580
210 4 571 570 580
211 4 570 571 572
212 9 570 571 584
213 9 572 571 584
214 4 571 572 573
215 9 571 572 585
216 9 573 572 585
217 3 572 573 574
218 4 572 573 579
219 3 574 573 579
220 3 448 449 450
221 4 448 449 455
222 3 450 449 455
223 4 447 448 449
224 9 447 448 461
225 9 449 448 461
226 4 449 455 456
227 9 449 455 473
228 9 456 455 473
229 4 446 447 448
230 9 446 447 460
231 9 448 447 460
232 3 445 446 447
233 3 445 446 456
234 4 447 446 456
235 4 446 456 455
236 9 446 456 474
237 9 455 456 474
238 4 415 425 424
239 9 415 425 443
240 9 424 425 443
241 4 418 424 425
242 9 418 424 442
243 9 425 424 442
244 5 449 450 451
245 10 449 450 462
246 10 449 450 463
247 11 451 450 462
248 11 451 450 463
249 13 462 450 463
250 6 388 389 390
251 6 388 389 391
252 6 388 389 392
253 6 390 389 391
254 6 390 389 392
255 6 391 389 392
256 5 387 388 389
257 10 387 388 400
258 10 387 388 401
259 11 389 388 400
260 11 389 388 401
261 13 400 388 401
262 11 389 390 402
263 11 389 390 403
264 11 389 390 404
265 13 402 390 403
266 13 402 390 404
267 13 403 390 404
268 4 385 386 387
269 9 385 386 399
270 9 387 386 399
271 3 386 387 388
272 4 386 387 393
273 3 388 387 393
274 4 387 393 394
275 9 387 393 411
276 9 394 393 411
277 4 384 385 386
278 9 384 385 398
279 9 386 385 398
280 4 384 394 393
281 9 384 394 412
282 9 393 394 412
283 3 383 384 385
284 3 383 384 394
285 4 385 384 394
286 4 1237 1238 1239
287 9 1237 1238 1252
288 9 1239 1238 1252
289 7 1236 1250 1270
290 7 1236 1250 1271
291 7 1236 1250 1272
292 12 1270 1250 1271
293 12 1270 1250 1272
294 12 1271 1250 1272
295 11 1242 1243 1256
296 11 1242 1243 1257
297 11 1242 1243 1258
298 13 1256 1243 1257
299 13 1256 1243 1258
300 13 1257 1243 1258
301 4 1176 1177 1178
302 9 1176 1177 1190
303 9 1178 1177 1190
304 2 1205 1235 1236
305 7 1205 1235 1248
306 7 1205 1235 1249
307 7 1236 1235 1248
308 7 1236 1235 1249
309 12 1248 1235 1249
310 1 1235 1236 1237
311 2 1235 1236 1250
312 1 1237 1236 1250
313 7 1235 1236 1251
314 8 1237 1236 1251
315 7 1250 1236 1251
316 3 1236 1237 1238
317 3 1236 1237 1247
318 4 1238 1237 1247
319 4 1175 1176 1177
320 9 1175 1176 1189
321 9 1177 1176 1189
322 4 1206 1216 1215
323 9 1206 1216 1234
324 9 1215 1216 1234
325 3 1205 1206 1207
326 3 1205 1206 1216
327 4 1207 1206 1216
328 4 1206 1207 1208
329 9 1206 1207 1220
330 9 1208 1207 1220
331 2 1112 1142 1143
332 7 1112 1142 1155
333 7 1112 1142 1156
334 7 1143 1142 1155
335 7 1143 1142 1156
336 12 1155 1142 1156
337 1 1204 1205 1206
338 2 1204 1205 1235
339 1 1206 1205 1235
340 7 1204 1205 1219
341 8 1206 1205 1219
342 7 1219 1205 1235
343 2 1174 1204 1205
344 7 1174 1204 1217
345 7 1174 1204 1218
346 7 1205 1204 1217
347 7 1205 1204 1218
348 12 1217 1204 1218
349 3 1174 1175 1176
350 3 1174 1175 1185
351 4 1176 1175 1185
352 1 1173 1174 1175
353 2 1173 1174 1204
354 1 1175 1174 1204
355 7 1173 1174 1188
356 8 1175 1174 1188
357 7 1188 1174 1204
358 2 1143 1173 1174
359 7 1143 1173 1186
360 7 1143 1173 1187
361 7 1174 1173 1186
362 7 1174 1173 1187
363 12 1186 1173 1187
364 4 1175 1185 1184
365 9 1175 1185 1203
366 9 1184 1185 1203
367 3 1112 1113 1114
368 3 1112 1113 1123
369 4 1114 1113 1123
370 4 1113 1123 1122
371 9 1113 1123 1141
372 9 1122 1123 1141
373 4 1116 1122 1123
374 9 1116 1122 1140
375 9 1123 1122 1140
376 11 1149 1151 1165
377 11 1149 1151 1166
378 11 1149 1151 1167
379 13 1165 1151 1166
380 13 1165 1151 1167
381 13 1166 1151 1167
382 1 1142 1143 1144
383 2 1142 1143 1173
384 1 1144 1143 1173
385 7 1142 1143 1157
386 8 1144 1143 1157
387 7 1157 1143 1173
388 1 1111 1112 1113
389 2 1111 1112 1142
390 1 1113 1112 1142
391 7 1111 1112 1126
392 8 1113 1112 1126
393 7 1126 1112 1142
394 4 1144 1145 1146
395 9 1144 1145 1158
396 9 1146 1145 1158
397 3 1143 1144 1145
398 3 1143 1144 1154
399 4 1145 1144 1154
400 4 1145 1146 1147
401 9 1145 1146 1159
402 9 1147 1146 1159
403 3 1146 1147 1148
404 4 1146 1147 1153
405 3 1148 1147 1153
406 4 1144 1154 1153
407 9 1144 1154 1172
408 9 1153 1154 1172
409 4 1147 1153 1154
410 9 1147 1153 1171
411 9 1154 1153 1171
412 11 1149 1152 1168
413 11 1149 1152 1169
414 11 1149 1152 1170
415 13 1168 1152 1169
416 13 1168 1152 1170
417 13 1169 1152 1170
418 2 1081 1111 1112
419 7 1081 1111 1124
420 7 1081 1111 1125
421 7 1112 1111 1124
422 7 1112 1111 1125
423 12 1124 1111 1125
424 4 1082 1092 1091
425 9 1082 1092 1110
426 9 1091 1092 1110
427 3 1081 1082 1083
428 3 1081 1082 1092
429 4 1083 1082 1092
430 4 1085 1091 1092
431 9 1085 1091 1109
432 9 1092 1091 1109
433 4 1082 1083 1084
434 9 1082 1083 1096
435 9 1084 1083 1096
436 4 1083 1084 1085
437 9 1083 1084 1097
438 9 1085 1084 1097
439 3 1084 1085 1086
440 4 1084 1085 1091
441 3 1086 1085 1091
442 5 1085 1086 1087
443 10 1085 1086 1098
444 10 1085 1086 1099
445 11 1087 1086 1098
446 11 1087 1086 1099
447 13 1098 1086 1099
448 6 1148 1149 1150
449 6 1148 1149 1151
450 6 1148 1149 1152
451 6 1150 1149 1151
452 6 1150 1149 1152
453 6 1151 1149 1152
454 5 1147 1148 1149
455 10 1147 1148 1160
456 10 1147 1148 1161
457 11 1149 1148 1160
458 11 1149 1148 1161
459 13 1160 1148 1161
460 4 990 991 992
461 9 990 991 1004
462 9 992 991 1004
463 11 994 995 1007
464 11 994 995 1008
465 11 994 995 1009
466 13 1007 995 1008
467 13 1007 995 1009
468 13 1008 995 1009
469 4 992 998 999
470 9 992 998 1016
471 9 999 998 1016
472 3 991 992 993
473 4 991 992 998
474 3 993 992 998
475 5 992 993 994
476 10 992 993 1005
477 10 992 993 1006
478 11 994 993 1005
479 11 994 993 1006
480 13 1005 993 1006
481 11 288 291 308
482 11 288 291 309
483 11 288 291 310
484 13 308 291 309
485 13 308 291 310
486 13 309 291 310
487 11 288 290 305
488 11 288 290 306
489 11 288 290 307
490 13 305 290 306
491 13 305 290 307
492 13 306 290 307
493 6 287 288 289
494 6 287 288 290
495 6 287 288 291
496 6 289 288 290
497 6 289 288 291
498 6 290 288 291
499 5 286 287 288
500 10 286 287 300
501 10 286 287 301
502 11 288 287 300
503 11 288 287 301
504 13 300 287 301
505 11 513 515 529
506 11 513 515 530
507 11 513 515 531
508 13 529 515 530
509 13 529 515 531
510 13 530 515 531
511 4 511 517 518
512 9 511 517 535
513 9 518 517 535
514 3 510 511 512
515 4 510 511 517
516 3 512 511 517
517 11 513 516 532
518 11 513 516 533
519 11 513 516 534
520 13 532 516 533
521 13 532 516 534
522 13 533 516 534
523 11 513 514 526
524 11 513 514 527
525 11 513 514 528
526 13 526 514 527
527 13 526 514 528
528 13 527 514 528
529 6 512 513 514
530 6 512 513 515
531 6 512 513 516
532 6 514 513 515
533 6 514 513 516
534 6 515 513 516
535 5 511 512 513
536 10 511 512 524
537 10 511 512 525
538 11 513 512 524
539 11 513 512 525
540 13 524 512 525
541 4 286 292 293
542 9 286 292 311
543 9 293 292 311
544 4 283 293 292
545 9 283 293 312
546 9 292 293 312
547 4 224 230 231
548 9 224 230 248
549 9 231 230 248
550 3 223 224 225
551 4 223 224 230
552 3 225 224 230
553 1 281 282 283
554 2 281 282 296
555 1 283 282 296
556 7 281 282 297
557 8 283 282 297
558 7 296 282 297
559 3 285 286 287
560 4 285 286 292
561 3 287 286 292
562 4 284 285 286
563 9 284 285 299
564 9 286 285 299
565 3 282 283 284
566 3 282 283 293
567 4 284 283 293
568 4 283 284 285
569 9 283 284 298
570 9 285 284 298
571 11 544 547 563
572 11 544 547 564
573 11 544 547 565
574 13 563 547 564
575 13 563 547 565
576 13 564 547 565
577 3 541 542 543
578 4 541 542 548
579 3 543 542 548
580 6 543 544 545
581 6 543 544 546
582 6 543 544 547
583 6 545 544 546
584 6 545 544 547
585 6 546 544 547
586 5 542 543 544
587 10 542 543 555
588 10 542 543 556
589 11 544 543 555
590 11 544 543 556
591 13 555 543 556
592 11 544 546 560
593 11 544 546 561
594 11 544 546 562
595 13 560 546 561
596 13 560 546 562
597 13 561 546 562
598 11 544 545 557
599 11 544 545 558
600 11 544 545 559
601 13 557 545 558
602 13 557 545 559
603 13 558 545 559
604 4 508 518 517
605 9 508 518 536
606 9 517 518 536
607 4 542 548 549
608 9 542 548 566
609 9 549 548 566
610 3 507 508 509
611 3 507 508 518
612 4 509 508 518
613 1 506 507 508
614 2 506 507 537
615 1 508 507 537
616 7 506 507 521
617 8 508 507 521
618 7 521 507 537
619 4 540 541 542
620 9 540 541 554
621 9 542 541 554
622 4 509 510 511
623 9 509 510 523
624 9 511 510 523
625 4 508 509 510
626 9 508 509 522
627 9 510 509 522
628 4 539 540 541
629 9 539 540 553
630 9 541 540 553
631 4 477 478 479
632 9 477 478 491
633 9 479 478 491
634 2 476 506 507
635 7 476 506 519
636 7 476 506 520
637 7 507 506 519
638 7 507 506 520
639 12 519 506 520
640 1 475 476 477
641 2 475 476 506
642 1 477 476 506
643 7 475 476 490
644 8 477 476 490
645 7 490 476 506
646 3 476 477 478
647 3 476 477 487
648 4 478 477 487
649 2 445 475 476
650 7 445 475 488
651 7 445 475 489
652 7 476 475 488
653 7 476 475 489
654 12 488 475 489
655 11 226 227 239
656 11 226 227 240
657 11 226 227 241
658 13 239 227 240
659 13 239 227 241
660 13 240 227 241
661 5 224 225 226
662 10 224 225 237
663 10 224 225 238
664 11 226 225 237
665 11 226 225 238
666 13 237 225 238
667 6 225 226 227
668 6 225 226 228
669 6 225 226 229
670 6 227 226 228
671 6 227 226 229
672 6 228 226 229
673 11 226 229 245
674 11 226 229 246
675 11 226 229 247
676 13 245 229 246
677 13 245 229 247
678 13 246 229 247
679 5 573 574 575
680 10 573 574 586
681 10 573 574 587
682 11 575 574 586
683 11 575 574 587
684 13 586 574 587
685 6 574 575 576
686 6 574 575 577
687 6 574 575 578
688 6 576 575 577
689 6 576 575 578
690 6 577 575 578
691 11 575 578 594
692 11 575 578 595
693 11 575 578 596
694 13 594 578 595
695 13 594 578 596
696 13 595 578 596
697 4 477 487 486
698 9 477 487 505
699 9 486 487 505
700 3 479 480 481
701 4 479 480 486
702 3 481 480 486
703 4 478 479 480
704 9 478 479 492
705 9 480 479 492
706 4 480 486 487
707 9 480 486 504
708 9 487 486 504
709 5 480 481 482
710 10 480 481 493
711 10 480 481 494
712 11 482 481 493
713 11 482 481 494
714 13 493 481 494
715 11 575 576 588
716 11 575 576 589
717 11 575 576 590
718 13 588 576 589
719 13 588 576 590
720 13 589 576 590
721 11 575 577 591
722 11 575 577 592
723 11 575 577 593
724 13 591 577 592
725 13 591 577 593
726 13 592 577 593
727 3 414 415 416
728 3 414 415 425
729 4 416 415 425
730 1 444 445 446
731 2 444 445 475
732 1 446 445 475
733 7 444 445 459
734 8 446 445 459
735 7 459 445 475
736 1 413 414 415
737 2 413 414 444
738 1 415 414 444
739 7 413 414 428
740 8 415 414 428
741 7 428 414 444
742 3 417 418 419
743 4 417 418 424
744 3 419 418 424
745 4 416 417 418
746 9 416 417 430
747 9 418 417 430
748 4 415 416 417
749 9 415 416 429
750 9 417 416 429
751 11 482 485 501
752 11 482 485 502
753 11 482 485 503
754 13 501 485 502
755 13 501 485 503
756 13 502 485 503
757 2 414 444 445
758 7 414 444 457
759 7 414 444 458
760 7 445 444 457
761 7 445 444 458
762 12 457 444 458
763 4 354 355 356
764 9 354 355 368
765 9 356 355 368
766 3 355 356 357
767 4 355 356 362
768 3 357 356 362
769 2 383 413 414
770 7 383 413 426
771 7 383 413 427
772 7 414 413 426
773 7 414 413 427
774 12 426 413 427
775 4 356 362 363
776 9 356 362 380
777 9 363 362 380
778 11 482 483 495
779 11 482 483 496
780 11 482 483 497
781 13 495 483 496
782 13 495 483 497
783 13 496 483 497
784 5 356 357 358
785 10 356 357 369
786 10 356 357 370
787 11 358 357 369
788 11 358 357 370
789 13 369 357 370
790 1 382 383 384
791 2 382 383 413
792 1 384 383 413
793 7 382 383 397
794 8 384 383 397
795 7 397 383 413
796 2 320 319 332
797 7 320 319 333
798 7 320 319 334
799 7 332 319 333
800 7 332 319 334
801 12 333 319 334
802 2 352 382 383
803 7 352 382 395
804 7 352 382 396
805 7 383 382 395
806 7 383 382 396
807 12 395 382 396
808 1 351 352 353
809 2 351 352 382
810 1 353 352 382
811 7 351 352 366
812 8 353 352 366
813 7 366 352 382
814 3 352 353 354
815 3 352 353 363
816 4 354 353 363
817 1 319 320 321
818 2 319 320 351
819 1 321 320 351
820 7 319 320 335
821 8 321 320 335
822 7 335 320 351
823 2 320 351 352
824 7 320 351 364
825 7 320 351 365
826 7 352 351 364
827 7 352 351 365
828 12 364 351 365
829 4 353 354 355
830 9 353 354 367
831 9 355 354 367
832 4 353 363 362
833 9 353 363 381
834 9 362 363 381
835 7 319 332 631
836 7 319 332 632
837 7 319 332 633
838 12 631 332 632
839 12 631 332 633
840 12 632 332 633
841 3 320 321 322
842 3 320 321 331
843 4 322 321 331
844 4 321 331 330
845 9 321 331 350
846 9 330 331 350
847 4 324 330 331
848 9 324 330 349
849 9 331 330 349
850 4 1238 1239 1240
851 9 1238 1239 1253
852 9 1240 1239 1253
853 3 1239 1240 1241
854 4 1239 1240 1246
855 3 1241 1240 1246
856 11 1242 1245 1262
857 11 1242 1245 1263
858 11 1242 1245 1264
859 13 1262 1245 1263
860 13 1262 1245 1264
861 13 1263 1245 1264
862 6 1241 1242 1243
863 6 1241 1242 1244
864 6 1241 1242 1245
865 6 1243 1242 1244
866 6 1243 1242 1245
867 6 1244 1242 1245
868 5 1240 1241 1242
869 10 1240 1241 1254
870 10 1240 1241 1255
871 11 1242 1241 1254
872 11 1242 1241 1255
873 13 1254 1241 1255
874 11 1242 1244 1259
875 11 1242 1244 1260
876 11 1242 1244 1261
877 13 1259 1244 1260
878 13 1259 1244 1261
879 13 1260 1244 1261
880 6 419 420 421
881 6 419 420 422
882 6 419 420 423
883 6 421 420 422
884 6 421 420 423
885 6 422 420 423
886 11 420 421 433
887 11 420 421 434
888 11 420 421 435
889 13 433 421 434
890 13 433 421 435
891 13 434 421 435
892 5 418 419 420
893 10 418 419 431
894 10 418 419 432
895 11 420 419 431
896 11 420 419 432
897 13 431 419 432
898 11 420 423 439
899 11 420 423 440
900 11 420 423 441
901 13 439 423 440
902 13 439 423 441
903 13 440 423 441
904 11 420 422 436
905 11 420 422 437
906 11 420 422 438
907 13 436 422 437
908 13 436 422 438
909 13 437 422 438
910 5 1178 1179 1180
911 10 1178 1179 1191
912 10 1178 1179 1192
913 11 1180 1179 1191
914 11 1180 1179 1192
915 13 1191 1179 1192
916 4 1237 1247 1246
917 9 1237 1247 1266
918 9 1246 1247 1266
919 4 321 322 323
920 9 321 322 336
921 9 323 322 336
922 3 323 324 325
923 4 323 324 330
924 3 325 324 330
925 3 1177 1178 1179
926 4 1177 1178 1184
927 3 1179 1178 1184
928 4 1178 1184 1185
929 9 1178 1184 1202
930 9 1185 1184 1202
931 4 322 323 324
932 9 322 323 337
933 9 324 323 337
934 5 324 325 326
935 10 324 325 338
936 10 324 325 339
937 11 326 325 338
938 11 326 325 339
939 13 338 325 339
940 4 1240 1246 1247
941 9 1240 1246 1265
942 9 1247 1246 1265
943 11 1180 1182 1196
944 11 1180 1182 1197
945 11 1180 1182 1198
946 13 1196 1182 1197
947 13 1196 1182 1198
948 13 1197 1182 1198
949 6 1179 1180 1181
950 6 1179 1180 1182
951 6 1179 1180 1183
952 6 1181 1180 1182
953 6 1181 1180 1183
954 6 1182 1180 1183
955 11 1180 1181 1193
956 11 1180 1181 1194
957 11 1180 1181 1195
958 13 1193 1181 1194
959 13 1193 1181 1195
960 13 1194 1181 1195
961 11 1180 1183 1199
962 11 1180 1183 1200
963 11 1180 1183 1201
964 13 1199 1183 1200
965 13 1199 1183 1201
966 13 1200 1183 1201
967 11 1087 1089 1103
968 11 1087 1089 1104
969 11 1087 1089 1105
970 13 1103 1089 1104
971 13 1103 1089 1105
972 13 1104 1089 1105
973 6 1086 1087 1088
974 6 1086 1087 1089
975 6 1086 1087 1090
976 6 1088 1087 1089
977 6 1088 1087 1090
978 6 1089 1087 1090
979 11 1087 1090 1106
980 11 1087 1090 1107
981 11 1087 1090 1108
982 13 1106 1090 1107
983 13 1106 1090 1108
984 13 1107 1090 1108
985 11 1087 1088 1100
986 11 1087 1088 1101
987 11 1087 1088 1102
988 13 1100 1088 1101
989 13 1100 1088 1102
990 13 1101 1088 1102
991 11 195 197 211
992 11 195 197 212
993 11 195 197 213
994 13 211 197 212
995 13 211 197 213
996 13 212 197 213
997 11 102 105 121
998 11 102 105 122
999 11 102 105 123
1000 13 121 105 122
1001 13 121 105 123
1002 13 122 105 123
1003 11 195 196 208
1004 11 195 196 209
1005 11 195 196 210
1006 13 208 196 209
1007 13 208 196 210
1008 13 209 196 210
1009 4 193 199 200
1010 9 193 199 217
1011 9 200 199 217
1012 5 193 194 195
1013 10 193 194 206
1014 10 193 194 207
1015 11 195 194 206
1016 11 195 194 207
1017 13 206 194 207
1018 11 102 103 115
1019 11 102 103 116
1020 11 102 103 117
1021 13 115 103 116
1022 13 115 103 117
1023 13 116 103 117
1024 5 100 101 102
1025 10 100 101 113
1026 10 100 101 114
1027 11 102 101 113
1028 11 102 101 114
1029 13 113 101 114
1030 6 101 102 103
1031 6 101 102 104
1032 6 101 102 105
1033 6 103 102 104
1034 6 103 102 105
1035 6 104 102 105
1036 3 99 100 101
1037 4 99 100 106
1038 3 101 100 106
1039 4 252 253 254
1040 9 252 253 266
1041 9 254 253 266
1042 4 253 254 255
1043 9 253 254 267
1044 9 255 254 267
1045 4 162 168 169
1046 9 162 168 186
1047 9 169 168 186
1048 4 159 169 168
1049 9 159 169 187
1050 9 168 169 187
1051 3 254 255 256
1052 4 254 255 261
1053 3 256 255 261
1054 4 190 200 199
1055 9 190 200 218
1056 9 199 200 218
1057 11 195 198 214
1058 11 195 198 215
1059 11 195 198 216
1060 13 214 198 215
1061 13 214 198 216
1062 13 215 198 216
1063 6 194 195 196
1064 6 194 195 197
1065 6 194 195 198
1066 6 196 195 197
1067 6 196 195 198
1068 6 197 195 198
1069 3 192 193 194
1070 4 192 193 199
1071 3 194 193 199
1072 4 191 192 193
1073 9 191 192 205
1074 9 193 192 205
1075 3 189 190 191
1076 3 189 190 200
1077 4 191 190 200
1078 4 190 191 192
1079 9 190 191 204
1080 9 192 191 204
1081 2 158 188 189
1082 7 158 188 201
1083 7 158 188 202
1084 7 189 188 201
1085 7 189 188 202
1086 12 201 188 202
1087 2 189 219 220
1088 7 189 219 232
1089 7 189 219 233
1090 7 220 219 232
1091 7 220 219 233
1092 12 232 219 233
1093 2 220 250 251
1094 7 220 250 263
1095 7 220 250 264
1096 7 251 250 263
1097 7 251 250 264
1098 12 263 250 264
1099 4 221 231 230
1100 9 221 231 249
1101 9 230 231 249
1102 1 188 189 190
1103 2 188 189 219
1104 1 190 189 219
1105 7 188 189 203
1106 8 190 189 203
1107 7 203 189 219
1108 1 219 220 221
1109 2 219 220 250
1110 1 221 220 250
1111 7 219 220 234
1112 8 221 220 234
1113 7 234 220 250
1114 3 220 221 222
1115 3 220 221 231
1116 4 222 221 231
1117 4 221 222 223
1118 9 221 222 235
1119 9 223 222 235
1120 1 250 251 252
1121 2 250 251 281
1122 1 252 251 281
1123 7 250 251 265
1124 8 252 251 265
1125 7 265 251 281
1126 2 251 281 282
1127 7 251 281 294
1128 7 251 281 295
1129 7 282 281 294
1130 7 282 281 295
1131 12 294 281 295
1132 3 251 252 253
1133 3 251 252 262
1134 4 253 252 262
1135 4 252 262 261
1136 9 252 262 280
1137 9 261 262 280
1138 1 157 158 159
1139 2 157 158 188
1140 1 159 158 188
1141 7 157 158 172
1142 8 159 158 172
1143 7 172 158 188
1144 7 282 296 316
1145 7 282 296 317
1146 7 282 296 318
1147 12 316 296 317
1148 12 316 296 318
1149 12 317 296 318
1150 4 255 261 262
1151 9 255 261 279
1152 9 262 261 279
1153 4 222 223 224
1154 9 222 223 236
1155 9 224 223 236
1156 11 226 228 242
1157 11 226 228 243
1158 11 226 228 244
1159 13 242 228 243
1160 13 242 228 244
1161 13 243 228 244
1162 6 481 482 483
1163 6 481 482 484
1164 6 481 482 485
1165 6 483 482 484
1166 6 483 482 485
1167 6 484 482 485
1168 11 482 484 498
1169 11 482 484 499
1170 11 482 484 500
1171 13 498 484 499
1172 13 498 484 500
1173 13 499 484 500
1174 11 358 361 377
1175 11 358 361 378
1176 11 358 361 379
1177 13 377 361 378
1178 13 377 361 379
1179 13 378 361 379
1180 6 357 358 359
1181 6 357 358 360
1182 6 357 358 361
1183 6 359 358 360
1184 6 359 358 361
1185 6 360 358 361
1186 11 358 359 371
1187 11 358 359 372
1188 11 358 359 373
1189 13 371 359 372
1190 13 371 359 373
1191 13 372 359 373
1192 11 358 360 374
1193 11 358 360 375
1194 11 358 360 376
1195 13 374 360 375
1196 13 374 360 376
1197 13 375 360 376
1198 11 326 328 343
1199 11 326 328 344
1200 11 326 328 345
1201 13 343 328 344
1202 13 343 328 345
1203 13 344 328 345
1204 6 325 326 327
1205 6 325 326 328
1206 6 325 326 329
1207 6 327 326 328
1208 6 327 326 329
1209 6 328 326 329
1210 11 326 327 340
1211 11 326 327 341
1212 11 326 327 342
1213 13 340 327 341
1214 13 340 327 342
1215 13 341 327 342
1216 11 326 329 346
1217 11 326 329 347
1218 11 326 329 348
1219 13 346 329 347
1220 13 346 329 348
1221 13 347 329 348
1222 11 164 166 180
1223 11 164 166 181
1224 11 164 166 182
1225 13 180 166 181
1226 13 180 166 182
1227 13 181 166 182
1228 11 831 833 847
1229 11 831 833 848
1230 11 831 833 849
1231 13 847 833 848
1232 13 847 833 849
1233 13 848 833 849
1234 5 829 830 831
1235 10 829 830 842
1236 10 829 830 843
1237 11 831 830 842
1238 11 831 830 843
1239 13 842 830 843
1240 11 893 894 906
1241 11 893 894 907
1242 11 893 894 908
1243 13 906 894 907
1244 13 906 894 908
1245 13 907 894 908
1246 11 102 104 118
1247 11 102 104 119
1248 11 102 104 120
1249 13 118 104 119
1250 13 118 104 120
1251 13 119 104 120
1252 11 164 167 183
1253 11 164 167 184
1254 11 164 167 185
1255 13 183 167 184
1256 13 183 167 185
1257 13 184 167 185
1258 4 98 99 100
1259 9 98 99 112
1260 9 100 99 112
1261 4 100 106 107
1262 9 100 106 124
1263 9 107 106 124
1264 4 97 98 99
1265 9 97 98 111
1266 9 99 98 111
1267 3 96 97 98
1268 3 96 97 107
1269 4 98 97 107
1270 4 97 107 106
1271 9 97 107 125
1272 9 106 107 125
1273 1 95 96 97
1274 2 95 96 126
1275 1 97 96 126
1276 7 95 96 110
1277 8 97 96 110
1278 7 110 96 126
1279 2 65 95 96
1280 7 65 95 108
1281 7 65 95 109
1282 7 96 95 108
1283 7 96 95 109
1284 12 108 95 109
1285 1 64 65 66
1286 2 64 65 95
1287 1 66 65 95
1288 7 64 65 79
1289 8 66 65 79
1290 7 79 65 95
1291 6 163 164 165
1292 6 163 164 166
1293 6 163 164 167
1294 6 165 164 166
1295 6 165 164 167
1296 6 166 164 167
1297 5 162 163 164
1298 10 162 163 175
1299 10 162 163 176
1300 11 164 163 175
1301 11 164 163 176
1302 13 175 163 176
1303 11 164 165 177
1304 11 164 165 178
1305 11 164 165 179
1306 13 177 165 178
1307 13 177 165 179
1308 13 178 165 179
1309 3 158 159 160
1310 3 158 159 169
1311 4 160 159 169
1312 4 159 160 161
1313 9 159 160 173
1314 9 161 160 173
1315 3 161 162 163
1316 4 161 162 168
1317 3 163 162 168
1318 4 160 161 162
1319 9 160 161 174
1320 9 162 161 174
1321 11 257 260 276
1322 11 257 260 277
1323 11 257 260 278
1324 13 276 260 277
1325 13 276 260 278
1326 13 277 260 278
1327 11 257 259 273
1328 11 257 259 274
1329 11 257 259 275
1330 13 273 259 274
1331 13 273 259 275
1332 13 274 259 275
1333 6 256 257 258
1334 6 256 257 259
1335 6 256 257 260
1336 6 258 257 259
1337 6 258 257 260
1338 6 259 257 260
1339 5 255 256 257
1340 10 255 256 268
1341 10 255 256 269
1342 11 257 256 268
1343 11 257 256 269
1344 13 268 256 269
1345 11 257 258 270
1346 11 257 258 271
1347 11 257 258 272
1348 13 270 258 271
1349 13 270 258 272
1350 13 271 258 272
1351 2 856 886 887
1352 7 856 886 899
1353 7 856 886 900
1354 7 887 886 899
1355 7 887 886 900
1356 12 899 886 900
1357 11 831 834 850
1358 11 831 834 851
1359 11 831 834 852
1360 13 850 834 851
1361 13 850 834 852
1362 13 851 834 852
1363 6 830 831 832
1364 6 830 831 833
1365 6 830 831 834
1366 6 832 831 833
1367 6 832 831 834
1368 6 833 831 834
1369 4 827 828 829
1370 9 827 828 841
1371 9 829 828 841
1372 3 828 829 830
1373 4 828 829 835
1374 3 830 829 835
1375 11 831 832 844
1376 11 831 832 845
1377 11 831 832 846
1378 13 844 832 845
1379 13 844 832 846
1380 13 845 832 846
1381 4 826 827 828
1382 9 826 827 840
1383 9 828 827 840
1384 4 889 890 891
1385 9 889 890 903
1386 9 891 890 903
1387 4 888 889 890
1388 9 888 889 902
1389 9 890 889 902
1390 6 892 893 894
1391 6 892 893 895
1392 6 892 893 896
1393 6 894 893 895
1394 6 894 893 896
1395 6 895 893 896
1396 3 68 69 70
1397 4 68 69 75
1398 3 70 69 75
1399 2 127 157 158
1400 7 127 157 170
1401 7 127 157 171
1402 7 158 157 170
1403 7 158 157 171
1404 12 170 157 171
1405 2 96 126 127
1406 7 96 126 139
1407 7 96 126 140
1408 7 127 126 139
1409 7 127 126 140
1410 12 139 126 140
1411 1 126 127 128
1412 2 126 127 157
1413 1 128 127 157
1414 7 126 127 141
1415 8 128 127 141
1416 7 141 127 157
1417 4 128 138 137
1418 9 128 138 156
1419 9 137 138 156
1420 4 131 137 138
1421 9 131 137 155
1422 9 138 137 155
1423 3 127 128 129
1424 3 127 128 138
1425 4 129 128 138
1426 4 128 129 130
1427 9 128 129 142
1428 9 130 129 142
1429 3 130 131 132
1430 4 130 131 137
1431 3 132 131 137
1432 4 129 130 131
1433 9 129 130 143
1434 9 131 130 143
1435 4 67 68 69
1436 9 67 68 81
1437 9 69 68 81
1438 4 66 67 68
1439 9 66 67 80
1440 9 68 67 80
1441 3 65 66 67
1442 3 65 66 76
1443 4 67 66 76
1444 7 918 932 952
1445 7 918 932 953
1446 7 918 932 954
1447 12 952 932 953
1448 12 952 932 954
1449 12 953 932 954
1450 1 917 918 919
1451 2 917 918 932
1452 1 919 918 932
1453 7 917 918 933
1454 8 919 918 933
1455 7 932 918 933
1456 3 918 919 920
1457 3 918 919 929
1458 4 920 919 929
1459 4 919 920 921
1460 9 919 920 934
1461 9 921 920 934
1462 2 887 917 918
1463 7 887 917 930
1464 7 887 917 931
1465 7 918 917 930
1466 7 918 917 931
1467 12 930 917 931
1468 4 919 929 928
1469 9 919 929 948
1470 9 928 929 948
1471 4 922 928 929
1472 9 922 928 947
1473 9 929 928 947
1474 3 921 922 923
1475 4 921 922 928
1476 3 923 922 928
1477 5 891 892 893
1478 10 891 892 904
1479 10 891 892 905
1480 11 893 892 904
1481 11 893 892 905
1482 13 904 892 905
1483 1 886 887 888
1484 2 886 887 917
1485 1 888 887 917
1486 7 886 887 901
1487 8 888 887 901
1488 7 901 887 917
1489 3 887 888 889
1490 3 887 888 898
1491 4 889 888 898
1492 3 890 891 892
1493 4 890 891 897
1494 3 892 891 897
1495 4 888 898 897
1496 9 888 898 916
1497 9 897 898 916
1498 4 891 897 898
1499 9 891 897 915
1500 9 898 897 915
1501 11 893 895 909
1502 11 893 895 910
1503 11 893 895 911
1504 13 909 895 910
1505 13 909 895 911
1506 13 910 895 911
1507 11 133 134 146
1508 11 133 134 147
1509 11 133 134 148
1510 13 146 134 147
1511 13 146 134 148
1512 13 147 134 148
1513 5 131 132 133
1514 10 131 132 144
1515 10 131 132 145
1516 11 133 132 144
1517 11 133 132 145
1518 13 144 132 145
1519 11 133 136 152
1520 11 133 136 153
1521 11 133 136 154
1522 13 152 136 153
1523 13 152 136 154
1524 13 153 136 154
1525 6 132 133 134
1526 6 132 133 135
1527 6 132 133 136
1528 6 134 133 135
1529 6 134 133 136
1530 6 135 133 136
1531 11 924 926 941
1532 11 924 926 942
1533 11 924 926 943
1534 13 941 926 942
1535 13 941 926 943
1536 13 942 926 943
1537 11 676 678 692
1538 11 676 678 693
1539 11 676 678 694
1540 13 692 678 693
1541 13 692 678 694
1542 13 693 678 694
1543 11 676 677 689
1544 11 676 677 690
1545 11 676 677 691
1546 13 689 677 690
1547 13 689 677 691
1548 13 690 677 691
1549 6 675 676 677
1550 6 675 676 678
1551 6 675 676 679
1552 6 677 676 678
1553 6 677 676 679
1554 6 678 676 679
1555 11 676 679 695
1556 11 676 679 696
1557 11 676 679 697
1558 13 695 679 696
1559 13 695 679 697
1560 13 696 679 697
1561 5 674 675 676
1562 10 674 675 687
1563 10 674 675 688
1564 11 676 675 687
1565 11 676 675 688
1566 13 687 675 688
1567 11 707 708 720
1568 11 707 708 721
1569 11 707 708 722
1570 13 720 708 721
1571 13 720 708 722
1572 13 721 708 722
1573 11 707 709 723
1574 11 707 709 724
1575 11 707 709 725
1576 13 723 709 724
1577 13 723 709 725
1578 13 724 709 725
1579 2 701 731 732
1580 7 701 731 744
1581 7 701 731 745
1582 7 732 731 744
1583 7 732 731 745
1584 12 744 731 745
1585 2 732 762 763
1586 7 732 762 775
1587 7 732 762 776
1588 7 763 762 775
1589 7 763 762 776
1590 12 775 762 776
1591 1 731 732 733
1592 2 731 732 762
1593 1 733 732 762
1594 7 731 732 746
1595 8 733 732 746
1596 7 746 732 762
1597 1 762 763 764
1598 2 762 763 793
1599 1 764 763 793
1600 7 762 763 777
1601 8 764 763 777
1602 7 777 763 793
1603 4 702 703 704
1604 9 702 703 716
1605 9 704 703 716
1606 4 703 704 705
1607 9 703 704 717
1608 9 705 704 717
1609 1 700 701 702
1610 2 700 701 731
1611 1 702 701 731
1612 7 700 701 715
1613 8 702 701 715
1614 7 715 701 731
1615 3 701 702 703
1616 3 701 702 712
1617 4 703 702 712
1618 4 702 712 711
1619 9 702 712 730
1620 9 711 712 730
1621 4 705 711 712
1622 9 705 711 729
1623 9 712 711 729
1624 3 704 705 706
1625 4 704 705 711
1626 3 706 705 711
1627 4 764 765 766
1628 9 764 765 778
1629 9 766 765 778
1630 5 705 706 707
1631 10 705 706 718
1632 10 705 706 719
1633 11 707 706 718
1634 11 707 706 719
1635 13 718 706 719
1636 6 706 707 708
1637 6 706 707 709
1638 6 706 707 710
1639 6 708 707 709
1640 6 708 707 710
1641 6 709 707 710
1642 11 707 710 726
1643 11 707 710 727
1644 11 707 710 728
1645 13 726 710 727
1646 13 726 710 728
1647 13 727 710 728
1648 2 34 64 65
1649 7 34 64 77
1650 7 34 64 78
1651 7 65 64 77
1652 7 65 64 78
1653 12 77 64 78
1654 2 2 33 34
1655 7 2 33 46
1656 7 2 33 47
1657 7 34 33 46
1658 7 34 33 47
1659 12 46 33 47
1660 1 33 34 35
1661 2 33 34 64
1662 1 35 34 64
1663 7 33 34 48
1664 8 35 34 48
1665 7 48 34 64
1666 2 2 1 14
1667 7 2 1 15
1668 7 2 1 16
1669 7 14 1 15
1670 7 14 1 16
1671 12 15 1 16
1672 1 1 2 3
1673 2 1 2 33
1674 1 3 2 33
1675 7 1 2 17
1676 8 3 2 17
1677 7 17 2 33
1678 3 2 3 4
1679 3 2 3 13
1680 4 4 3 13
1681 7 1 14 313
1682 7 1 14 314
1683 7 1 14 315
1684 12 313 14 314
1685 12 313 14 315
1686 12 314 14 315
1687 1 824 825 826
1688 2 824 825 855
1689 1 826 825 855
1690 7 824 825 839
1691 8 826 825 839
1692 7 839 825 855
1693 3 825 826 827
1694 3 825 826 836
1695 4 827 826 836
1696 1 855 856 857
1697 2 855 856 886
1698 1 857 856 886
1699 7 855 856 870
1700 8 857 856 870
1701 7 870 856 886
1702 2 794 824 825
1703 7 794 824 837
1704 7 794 824 838
1705 7 825 824 837
1706 7 825 824 838
1707 12 837 824 838
1708 2 763 793 794
1709 7 763 793 806
1710 7 763 793 807
1711 7 794 793 806
1712 7 794 793 807
1713 12 806 793 807
1714 1 793 794 795
1715 2 793 794 824
1716 1 795 794 824
1717 7 793 794 808
1718 8 795 794 808
1719 7 808 794 824
1720 4 796 797 798
1721 9 796 797 810
1722 9 798 797 810
1723 4 795 796 797
1724 9 795 796 809
1725 9 797 796 809
1726 3 794 795 796
1727 3 794 795 805
1728 4 796 795 805
1729 4 795 805 804
1730 9 795 805 823
1731 9 804 805 823
1732 2 825 855 856
1733 7 825 855 868
1734 7 825 855 869
1735 7 856 855 868
1736 7 856 855 869
1737 12 868 855 869
1738 4 829 835 836
1739 9 829 835 853
1740 9 836 835 853
1741 4 826 836 835
1742 9 826 836 854
1743 9 835 836 854
1744 11 893 896 912
1745 11 893 896 913
1746 11 893 896 914
1747 13 912 896 913
1748 13 912 896 914
1749 13 913 896 914
1750 3 763 764 765
1751 3 763 764 774
1752 4 765 764 774
1753 4 764 774 773
1754 9 764 774 792
1755 9 773 774 792
1756 4 765 766 767
1757 9 765 766 779
1758 9 767 766 779
1759 3 766 767 768
1760 4 766 767 773
1761 3 768 767 773
1762 4 767 773 774
1763 9 767 773 791
1764 9 774 773 791
1765 5 767 768 769
1766 10 767 768 780
1767 10 767 768 781
1768 11 769 768 780
1769 11 769 768 781
1770 13 780 768 781
1771 3 856 857 858
1772 3 856 857 867
1773 4 858 857 867
1774 4 857 858 859
1775 9 857 858 871
1776 9 859 858 871
1777 6 768 769 770
1778 6 768 769 771
1779 6 768 769 772
1780 6 770 769 771
1781 6 770 769 772
1782 6 771 769 772
1783 11 769 771 785
1784 11 769 771 786
1785 11 769 771 787
1786 13 785 771 786
1787 13 785 771 787
1788 13 786 771 787
1789 4 69 75 76
1790 9 69 75 93
1791 9 76 75 93
1792 5 69 70 71
1793 10 69 70 82
1794 10 69 70 83
1795 11 71 70 82
1796 11 71 70 83
1797 13 82 70 83
1798 11 71 74 90
1799 11 71 74 91
1800 11 71 74 92
1801 13 90 74 91
1802 13 90 74 92
1803 13 91 74 92
1804 11 71 72 84
1805 11 71 72 85
1806 11 71 72 86
1807 13 84 72 85
1808 13 84 72 86
1809 13 85 72 86
1810 6 70 71 72
1811 6 70 71 73
1812 6 70 71 74
1813 6 72 71 73
1814 6 72 71 74
1815 6 73 71 74
1816 11 71 73 87
1817 11 71 73 88
1818 11 71 73 89
1819 13 87 73 88
1820 13 87 73 89
1821 13 88 73 89
1822 4 66 76 75
1823 9 66 76 94
1824 9 75 76 94
1825 4 35 45 44
1826 9 35 45 63
1827 9 44 45 63
1828 3 37 38 39
1829 4 37 38 44
1830 3 39 38 44
1831 3 34 35 36
1832 3 34 35 45
1833 4 36 35 45
1834 4 35 36 37
1835 9 35 36 49
1836 9 37 36 49
1837 4 36 37 38
1838 9 36 37 50
1839 9 38 37 50
1840 4 38 44 45
1841 9 38 44 62
1842 9 45 44 62
1843 5 38 39 40
1844 10 38 39 51
1845 10 38 39 52
1846 11 40 39 51
1847 11 40 39 52
1848 13 51 39 52
1849 11 40 41 53
1850 11 40 41 54
1851 11 40 41 55
1852 13 53 41 54
1853 13 53 41 55
1854 13 54 41 55
1855 6 39 40 41
1856 6 39 40 42
1857 6 39 40 43
1858 6 41 40 42
1859 6 41 40 43
1860 6 42 40 43
1861 11 40 42 56
1862 11 40 42 57
1863 11 40 42 58
1864 13 56 42 57
1865 13 56 42 58
1866 13 57 42 58
1867 4 3 4 5
1868 9 3 4 18
1869 9 5 4 18
1870 4 920 921 922
1871 9 920 921 935
1872 9 922 921 935
1873 5 922 923 924
1874 10 922 923 936
1875 10 922 923 937
1876 11 924 923 936
1877 11 924 923 937
1878 13 936 923 937
1879 4 857 867 866
1880 9 857 867 885
1881 9 866 867 885
1882 4 860 866 867
1883 9 860 866 884
1884 9 867 866 884
1885 3 859 860 861
1886 4 859 860 866
1887 3 861 860 866
1888 4 858 859 860
1889 9 858 859 872
1890 9 860 859 872
1891 11 862 863 875
1892 11 862 863 876
1893 11 862 863 877
1894 13 875 863 876
1895 13 875 863 877
1896 13 876 863 877
1897 5 860 861 862
1898 10 860 861 873
1899 10 860 861 874
1900 11 862 861 873
1901 11 862 861 874
1902 13 873 861 874
1903 6 861 862 863
1904 6 861 862 864
1905 6 861 862 865
1906 6 863 862 864
1907 6 863 862 865
1908 6 864 862 865
1909 11 862 865 881
1910 11 862 865 882
1911 11 862 865 883
1912 13 881 865 882
1913 13 881 865 883
1914 13 882 865 883
1915 11 862 864 878
1916 11 862 864 879
1917 11 862 864 880
1918 13 878 864 879
1919 13 878 864 880
1920 13 879 864 880
1921 11 133 135 149
1922 11 133 135 150
1923 11 133 135 151
1924 13 149 135 150
1925 13 149 135 151
1926 13 150 135 151
1927 11 40 43 59
1928 11 40 43 60
1929 11 40 43 61
1930 13 59 43 60
1931 13 59 43 61
1932 13 60 43 61
1933 11 924 925 938
1934 11 924 925 939
1935 11 924 925 940
1936 13 938 925 939
1937 13 938 925 940
1938 13 939 925 940
1939 6 923 924 925
1940 6 923 924 926
1941 6 923 924 927
1942 6 925 924 926
1943 6 925 924 927
1944 6 926 924 927
1945 11 924 927 944
1946 11 924 927 945
1947 11 924 927 946
1948 13 944 927 945
1949 13 944 927 946
1950 13 945 927 946
1951 11 1312 1313 1325
1952 11 1312 1313 1326
1953 11 1312 1313 1327
1954 13 1325 1313 1326
1955 13 1325 1313 1327
1956 13 1326 1313 1327
1957 11 644 645 658
1958 11 644 645 659
1959 11 644 645 660
1960 13 658 645 659
1961 13 658 645 660
1962 13 659 645 660
1963 11 644 646 661
1964 11 644 646 662
1965 11 644 646 663
1966 13 661 646 662
1967 13 661 646 663
1968 13 662 646 663
1969 6 643 644 645
1970 6 643 644 646
1971 6 643 644 647
1972 6 645 644 646
1973 6 645 644 647
1974 6 646 644 647
1975 5 642 643 644
1976 10 642 643 656
1977 10 642 643 657
1978 11 644 643 656
1979 11 644 643 657
1980 13 656 643 657
1981 3 641 642 643
1982 4 641 642 648
1983 3 643 642 648
1984 4 642 648 649
1985 9 642 648 667
1986 9 649 648 667
1987 11 644 647 664
1988 11 644 647 665
1989 11 644 647 666
1990 13 664 647 665
1991 13 664 647 666
1992 13 665 647 666
1993 11 1280 1283 1300
1994 11 1280 1283 1301
1995 11 1280 1283 1302
1996 13 1300 1283 1301
1997 13 1300 1283 1302
1998 13 1301 1283 1302
1999 11 1280 1282 1297
2000 11 1280 1282 1298
2001 11 1280 1282 1299
2002 13 1297 1282 1298
2003 13 1297 1282 1299
2004 13 1298 1282 1299
2005 4 1276 1277 1278
2006 9 1276 1277 1291
2007 9 1278 1277 1291
2008 6 1279 1280 1281
2009 6 1279 1280 1282
2010 6 1279 1280 1283
2011 6 1281 1280 1282
2012 6 1281 1280 1283
2013 6 1282 1280 1283
2014 5 1278 1279 1280
2015 10 1278 1279 1292
2016 10 1278 1279 1293
2017 11 1280 1279 1292
2018 11 1280 1279 1293
2019 13 1292 1279 1293
2020 3 1277 1278 1279
2021 4 1277 1278 1284
2022 3 1279 1278 1284
2023 4 1278 1284 1285
2024 9 1278 1284 1303
2025 9 1285 1284 1303
2026 4 1275 1276 1277
2027 9 1275 1276 1290
2028 9 1277 1276 1290
2029 4 1275 1285 1284
2030 9 1275 1285 1304
2031 9 1284 1285 1304
2032 3 1274 1275 1276
2033 3 1274 1275 1285
2034 4 1276 1275 1285
2035 11 1280 1281 1294
2036 11 1280 1281 1295
2037 11 1280 1281 1296
2038 13 1294 1281 1295
2039 13 1294 1281 1296
2040 13 1295 1281 1296
2041 7 1273 1286 1585
2042 7 1273 1286 1586
2043 7 1273 1286 1587
2044 12 1585 1286 1586
2045 12 1585 1286 1587
2046 12 1586 1286 1587
2047 4 1308 1309 1310
2048 9 1308 1309 1322
2049 9 1310 1309 1322
2050 4 1307 1308 1309
2051 9 1307 1308 1321
2052 9 1309 1308 1321
2053 2 1274 1273 1286
2054 7 1274 1273 1287
2055 7 1274 1273 1288
2056 7 1286 1273 1287
2057 7 1286 1273 1288
2058 12 1287 1273 1288
2059 1 1273 1274 1275
2060 2 1273 1274 1305
2061 1 1275 1274 1305
2062 7 1273 1274 1289
2063 8 1275 1274 1289
2064 7 1289 1274 1305
2065 2 1274 1305 1306
2066 7 1274 1305 1318
2067 7 1274 1305 1319
2068 7 1306 1305 1318
2069 7 1306 1305 1319
2070 12 1318 1305 1319
2071 4 1307 1317 1316
2072 9 1307 1317 1335
2073 9 1316 1317 1335
2074 4 1310 1316 1317
2075 9 1310 1316 1334
2076 9 1317 1316 1334
2077 1 1305 1306 1307
2078 2 1305 1306 1336
2079 1 1307 1306 1336
2080 7 1305 1306 1320
2081 8 1307 1306 1320
2082 7 1320 1306 1336
2083 3 1306 1307 1308
2084 3 1306 1307 1317
2085 4 1308 1307 1317
2086 11 1312 1314 1328
2087 11 1312 1314 1329
2088 11 1312 1314 1330
2089 13 1328 1314 1329
2090 13 1328 1314 1330
2091 13 1329 1314 1330
2092 11 1312 1315 1331
2093 11 1312 1315 1332
2094 11 1312 1315 1333
2095 13 1331 1315 1332
2096 13 1331 1315 1333
2097 13 1332 1315 1333
2098 3 1309 1310 1311
2099 4 1309 1310 1316
2100 3 1311 1310 1316
2101 6 1311 1312 1313
2102 6 1311 1312 1314
2103 6 1311 1312 1315
2104 6 1313 1312 1314
2105 6 1313 1312 1315
2106 6 1314 1312 1315
2107 5 1310 1311 1312
2108 10 1310 1311 1323
2109 10 1310 1311 1324
2110 11 1312 1311 1323
2111 11 1312 1311 1324
2112 13 1323 1311 1324
2113 4 640 641 642
2114 9 640 641 655
2115 9 642 641 655
2116 4 639 640 641
2117 9 639 640 654
2118 9 641 640 654
2119 4 639 649 648
2120 9 639 649 668
2121 9 648 649 668
2122 3 638 639 640
2123 3 638 639 649
2124 4 640 639 649
2125 1 637 638 639
2126 2 637 638 669
2127 1 639 638 669
2128 7 637 638 653
2129 8 639 638 653
2130 7 653 638 669
2131 3 673 674 675
2132 4 673 674 680
2133 3 675 674 680
2134 4 674 680 681
2135 9 674 680 698
2136 9 681 680 698
2137 3 670 671 672
2138 3 670 671 681
2139 4 672 671 681
2140 4 672 673 674
2141 9 672 673 686
2142 9 674 673 686
2143 4 671 672 673
2144 9 671 672 685
2145 9 673 672 685
2146 2 638 669 670
2147 7 638 669 682
2148 7 638 669 683
2149 7 670 669 682
2150 7 670 669 683
2151 12 682 669 683
2152 1 669 670 671
2153 2 669 670 700
2154 1 671 670 700
2155 7 669 670 684
2156 8 671 670 684
2157 7 684 670 700
2158 4 671 681 680
2159 9 671 681 699
2160 9 680 681 699
2161 2 670 700 701
2162 7 670 700 713
2163 7 670 700 714
2164 7 701 700 713
2165 7 701 700 714
2166 12 713 700 714
2167 11 962 964 979
2168 11 962 964 980
2169 11 962 964 981
2170 13 979 964 980
2171 13 979 964 981
2172 13 980 964 981
2173 11 1498 1501 1517
2174 11 1498 1501 1518
2175 11 1498 1501 1519
2176 13 1517 1501 1518
2177 13 1517 1501 1519
2178 13 1518 1501 1519
2179 11 1498 1499 1511
2180 11 1498 1499 1512
2181 11 1498 1499 1513
2182 13 1511 1499 1512
2183 13 1511 1499 1513
2184 13 1512 1499 1513
2185 6 1497 1498 1499
2186 6 1497 1498 1500
2187 6 1497 1498 1501
2188 6 1499 1498 1500
2189 6 1499 1498 1501
2190 6 1500 1498 1501
2191 5 1496 1497 1498
2192 10 1496 1497 1509
2193 10 1496 1497 1510
2194 11 1498 1497 1509
2195 11 1498 1497 1510
2196 13 1509 1497 1510
2197 11 1498 1500 1514
2198 11 1498 1500 1515
2199 11 1498 1500 1516
2200 13 1514 1500 1515
2201 13 1514 1500 1516
2202 13 1515 1500 1516
2203 4 733 734 735
2204 9 733 734 747
2205 9 735 734 747
2206 4 734 735 736
2207 9 734 735 748
2208 9 736 735 748
2209 3 732 733 734
2210 3 732 733 743
2211 4 734 733 743
2212 3 735 736 737
2213 4 735 736 742
2214 3 737 736 742
2215 5 736 737 738
2216 10 736 737 749
2217 10 736 737 750
2218 11 738 737 749
2219 11 738 737 750
2220 13 749 737 750
2221 4 733 743 742
2222 9 733 743 761
2223 9 742 743 761
2224 4 736 742 743
2225 9 736 742 760
2226 9 743 742 760
2227 6 737 738 739
2228 6 737 738 740
2229 6 737 738 741
2230 6 739 738 740
2231 6 739 738 741
2232 6 740 738 741
2233 11 738 739 751
2234 11 738 739 752
2235 11 738 739 753
2236 13 751 739 752
2237 13 751 739 753
2238 13 752 739 753
2239 11 738 740 754
2240 11 738 740 755
2241 11 738 740 756
2242 13 754 740 755
2243 13 754 740 756
2244 13 755 740 756
2245 11 769 772 788
2246 11 769 772 789
2247 11 769 772 790
2248 13 788 772 789
2249 13 788 772 790
2250 13 789 772 790
2251 4 3 13 12
2252 9 3 13 32
2253 9 12 13 32
2254 4 6 12 13
2255 9 6 12 31
2256 9 13 12 31
2257 4 798 804 805
2258 9 798 804 822
2259 9 805 804 822
2260 3 797 798 799
2261 4 797 798 804
2262 3 799 798 804
2263 11 800 801 813
2264 11 800 801 814
2265 11 800 801 815
2266 13 813 801 814
2267 13 813 801 815
2268 13 814 801 815
2269 6 799 800 801
2270 6 799 800 802
2271 6 799 800 803
2272 6 801 800 802
2273 6 801 800 803
2274 6 802 800 803
2275 5 798 799 800
2276 10 798 799 811
2277 10 798 799 812
2278 11 800 799 811
2279 11 800 799 812
2280 13 811 799 812
2281 11 800 802 816
2282 11 800 802 817
2283 11 800 802 818
2284 13 816 802 817
2285 13 816 802 818
2286 13 817 802 818
2287 11 800 803 819
2288 11 800 803 820
2289 11 800 803 821
2290 13 819 803 820
2291 13 819 803 821
2292 13 820 803 821
2293 11 769 770 782
2294 11 769 770 783
2295 11 769 770 784
2296 13 782 770 783
2297 13 782 770 784
2298 13 783 770 784
2299 3 5 6 7
2300 4 5 6 12
2301 3 7 6 12
2302 11 8 11 28
2303 11 8 11 29
2304 11 8 11 30
2305 13 28 11 29
2306 13 28 11 30
2307 13 29 11 30
2308 4 4 5 6
2309 9 4 5 19
2310 9 6 5 19
2311 5 6 7 8
2312 10 6 7 20
2313 10 6 7 21
2314 11 8 7 20
2315 11 8 7 21
2316 13 20 7 21
2317 6 7 8 9
2318 6 7 8 10
2319 6 7 8 11
2320 6 9 8 10
2321 6 9 8 11
2322 6 10 8 11
2323 11 8 10 25
2324 11 8 10 26
2325 11 8 10 27
2326 13 25 10 26
2327 13 25 10 27
2328 13 26 10 27
2329 11 8 9 22
2330 11 8 9 23
2331 11 8 9 24
2332 13 22 9 23
2333 13 22 9 24
2334 13 23 9 24
2335 11 1343 1346 1362
2336 11 1343 1346 1363
2337 11 1343 1346 1364
2338 13 1362 1346 1363
2339 13 1362 1346 1364
2340 13 1363 1346 1364
2341 11 1343 1344 1356
2342 11 1343 1344 1357
2343 11 1343 1344 1358
2344 13 1356 1344 1357
2345 13 1356 1344 1358
2346 13 1357 1344 1358
2347 4 1341 1347 1348
2348 9 1341 1347 1365
2349 9 1348 1347 1365
2350 4 1339 1340 1341
2351 9 1339 1340 1353
2352 9 1341 1340 1353
2353 6 1342 1343 1344
2354 6 1342 1343 1345
2355 6 1342 1343 1346
2356 6 1344 1343 1345
2357 6 1344 1343 1346
2358 6 1345 1343 1346
2359 5 1341 1342 1343
2360 10 1341 1342 1354
2361 10 1341 1342 1355
2362 11 1343 1342 1354
2363 11 1343 1342 1355
2364 13 1354 1342 1355
2365 3 1340 1341 1342
2366 4 1340 1341 1347
2367 3 1342 1341 1347
2368 11 1343 1345 1359
2369 11 1343 1345 1360
2370 11 1343 1345 1361
2371 13 1359 1345 1360
2372 13 1359 1345 1361
2373 13 1360 1345 1361
2374 11 1405 1408 1424
2375 11 1405 1408 1425
2376 11 1405 1408 1426
2377 13 1424 1408 1425
2378 13 1424 1408 1426
2379 13 1425 1408 1426
2380 2 1306 1336 1337
2381 7 1306 1336 1349
2382 7 1306 1336 1350
2383 7 1337 1336 1349
2384 7 1337 1336 1350
2385 12 1349 1336 1350
2386 4 1338 1339 1340
2387 9 1338 1339 1352
2388 9 1340 1339 1352
2389 4 1338 1348 1347
2390 9 1338 1348 1366
2391 9 1347 1348 1366
2392 3 1337 1338 1339
2393 3 1337 1338 1348
2394 4 1339 1338 1348
2395 1 1336 1337 1338
2396 2 1336 1337 1367
2397 1 1338 1337 1367
2398 7 1336 1337 1351
2399 8 1338 1337 1351
2400 7 1351 1337 1367
2401 2 1337 1367 1368
2402 7 1337 1367 1380
2403 7 1337 1367 1381
2404 7 1368 1367 1380
2405 7 1368 1367 1381
2406 12 1380 1367 1381
2407 3 1368 1369 1370
2408 3 1368 1369 1379
2409 4 1370 1369 1379
2410 1 1367 1368 1369
2411 2 1367 1368 1398
2412 1 1369 1368 1398
2413 7 1367 1368 1382
2414 8 1369 1368 1382
2415 7 1382 1368 1398
2416 2 1368 1398 1399
2417 7 1368 1398 1411
2418 7 1368 1398 1412
2419 7 1399 1398 1411
2420 7 1399 1398 1412
2421 12 1411 1398 1412
2422 4 1369 1379 1378
2423 9 1369 1379 1397
2424 9 1378 1379 1397
2425 1 1398 1399 1400
2426 2 1398 1399 1429
2427 1 1400 1399 1429
2428 7 1398 1399 1413
2429 8 1400 1399 1413
2430 7 1413 1399 1429
2431 5 1403 1404 1405
2432 10 1403 1404 1416
2433 10 1403 1404 1417
2434 11 1405 1404 1416
2435 11 1405 1404 1417
2436 13 1416 1404 1417
2437 4 1400 1410 1409
2438 9 1400 1410 1428
2439 9 1409 1410 1428
2440 4 1403 1409 1410
2441 9 1403 1409 1427
2442 9 1410 1409 1427
2443 4 1400 1401 1402
2444 9 1400 1401 1414
2445 9 1402 1401 1414
2446 3 1399 1400 1401
2447 3 1399 1400 1410
2448 4 1401 1400 1410
2449 3 1402 1403 1404
2450 4 1402 1403 1409
2451 3 1404 1403 1409
2452 4 1401 1402 1403
2453 9 1401 1402 1415
2454 9 1403 1402 1415
2455 6 1404 1405 1406
2456 6 1404 1405 1407
2457 6 1404 1405 1408
2458 6 1406 1405 1407
2459 6 1406 1405 1408
2460 6 1407 1405 1408
2461 11 1405 1406 1418
2462 11 1405 1406 1419
2463 11 1405 1406 1420
2464 13 1418 1406 1419
2465 13 1418 1406 1420
2466 13 1419 1406 1420
2467 11 1405 1407 1421
2468 11 1405 1407 1422
2469 11 1405 1407 1423
2470 13 1421 1407 1422
2471 13 1421 1407 1423
2472 13 1422 1407 1423
2473 2 638 637 650
2474 7 638 637 651
2475 7 638 637 652
2476 7 650 637 651
2477 7 650 637 652
2478 12 651 637 652
2479 7 637 650 949
2480 7 637 650 950
2481 7 637 650 951
2482 12 949 650 950
2483 12 949 650 951
2484 12 950 650 951
2485 11 1056 1057 1069
2486 11 1056 1057 1070
2487 11 1056 1057 1071
2488 13 1069 1057 1070
2489 13 1069 1057 1071
2490 13 1070 1057 1071
2491 4 960 966 967
2492 9 960 966 985
2493 9 967 966 985
2494 3 959 960 961
2495 4 959 960 966
2496 3 961 960 966
2497 5 960 961 962
2498 10 960 961 974
2499 10 960 961 975
2500 11 962 961 974
2501 11 962 961 975
2502 13 974 961 975
2503 4 957 967 966
2504 9 957 967 986
2505 9 966 967 986
2506 3 956 957 958
2507 3 956 957 967
2508 4 958 957 967
2509 4 957 958 959
2510 9 957 958 972
2511 9 959 958 972
2512 4 958 959 960
2513 9 958 959 973
2514 9 960 959 973
2515 11 1529 1531 1545
2516 11 1529 1531 1546
2517 11 1529 1531 1547
2518 13 1545 1531 1546
2519 13 1545 1531 1547
2520 13 1546 1531 1547
2521 4 1525 1526 1527
2522 9 1525 1526 1539
2523 9 1527 1526 1539
2524 4 1524 1525 1526
2525 9 1524 1525 1538
2526 9 1526 1525 1538
2527 3 1526 1527 1528
2528 4 1526 1527 1533
2529 3 1528 1527 1533
2530 4 1524 1534 1533
2531 9 1524 1534 1552
2532 9 1533 1534 1552
2533 3 1523 1524 1525
2534 3 1523 1524 1534
2535 4 1525 1524 1534
2536 4 1527 1533 1534
2537 9 1527 1533 1551
2538 9 1534 1533 1551
2539 4 1494 1495 1496
2540 9 1494 1495 1508
2541 9 1496 1495 1508
2542 3 1495 1496 1497
2543 4 1495 1496 1502
2544 3 1497 1496 1502
2545 3 1492 1493 1494
2546 3 1492 1493 1503
2547 4 1494 1493 1503
2548 1 1491 1492 1493
2549 2 1491 1492 1522
2550 1 1493 1492 1522
2551 7 1491 1492 1506
2552 8 1493 1492 1506
2553 7 1506 1492 1522
2554 4 1493 1494 1495
2555 9 1493 1494 1507
2556 9 1495 1494 1507
2557 4 1496 1502 1503
2558 9 1496 1502 1520
2559 9 1503 1502 1520
2560 4 1493 1503 1502
2561 9 1493 1503 1521
2562 9 1502 1503 1521
2563 2 1492 1522 1523
2564 7 1492 1522 1535
2565 7 1492 1522 1536
2566 7 1523 1522 1535
2567 7 1523 1522 1536
2568 12 1535 1522 1536
2569 1 1522 1523 1524
2570 2 1522 1523 1553
2571 1 1524 1523 1553
2572 7 1522 1523 1537
2573 8 1524 1523 1537
2574 7 1537 1523 1553
2575 11 738 741 757
2576 11 738 741 758
2577 11 738 741 759
2578 13 757 741 758
2579 13 757 741 759
2580 13 758 741 759
2581 2 956 987 988
2582 7 956 987 1000
2583 7 956 987 1001
2584 7 988 987 1000
2585 7 988 987 1001
2586 12 1000 987 1001
2587 2 956 955 968
2588 7 956 955 969
2589 7 956 955 970
2590 7 968 955 969
2591 7 968 955 970
2592 12 969 955 970
2593 1 955 956 957
2594 2 955 956 987
2595 1 957 956 987
2596 7 955 956 971
2597 8 957 956 971
2598 7 971 956 987
2599 6 1528 1529 1530
2600 6 1528 1529 1531
2601 6 1528 1529 1532
2602 6 1530 1529 1531
2603 6 1530 1529 1532
2604 6 1531 1529 1532
2605 5 1527 1528 1529
2606 10 1527 1528 1540
2607 10 1527 1528 1541
2608 11 1529 1528 1540
2609 11 1529 1528 1541
2610 13 1540 1528 1541
2611 11 1529 1532 1548
2612 11 1529 1532 1549
2613 11 1529 1532 1550
2614 13 1548 1532 1549
2615 13 1548 1532 1550
2616 13 1549 1532 1550
2617 11 1529 1530 1542
2618 11 1529 1530 1543
2619 11 1529 1530 1544
2620 13 1542 1530 1543
2621 13 1542 1530 1544
2622 13 1543 1530 1544
2623 11 451 452 464
2624 11 451 452 465
2625 11 451 452 466
2626 13 464 452 465
2627 13 464 452 466
2628 13 465 452 466
2629 11 1436 1438 1452
2630 11 1436 1438 1453
2631 11 1436 1438 1454
2632 13 1452 1438 1453
2633 13 1452 1438 1454
2634 13 1453 1438 1454
2635 5 1372 1373 1374
2636 10 1372 1373 1385
2637 10 1372 1373 1386
2638 11 1374 1373 1385
2639 11 1374 1373 1386
2640 13 1385 1373 1386
2641 6 1373 1374 1375
2642 6 1373 1374 1376
2643 6 1373 1374 1377
2644 6 1375 1374 1376
2645 6 1375 1374 1377
2646 6 1376 1374 1377
2647 11 1374 1377 1393
2648 11 1374 1377 1394
2649 11 1374 1377 1395
2650 13 1393 1377 1394
2651 13 1393 1377 1395
2652 13 1394 1377 1395
2653 11 1374 1375 1387
2654 11 1374 1375 1388
2655 11 1374 1375 1389
2656 13 1387 1375 1388
2657 13 1387 1375 1389
2658 13 1388 1375 1389
2659 11 1436 1437 1449
2660 11 1436 1437 1450
2661 11 1436 1437 1451
2662 13 1449 1437 1450
2663 13 1449 1437 1451
2664 13 1450 1437 1451
2665 11 1436 1439 1455
2666 11 1436 1439 1456
2667 11 1436 1439 1457
2668 13 1455 1439 1456
2669 13 1455 1439 1457
2670 13 1456 1439 1457
2671 5 1434 1435 1436
2672 10 1434 1435 1447
2673 10 1434 1435 1448
2674 11 1436 1435 1447
2675 11 1436 1435 1448
2676 13 1447 1435 1448
2677 6 1435 1436 1437
2678 6 1435 1436 1438
2679 6 1435 1436 1439
2680 6 1437 1436 1438
2681 6 1437 1436 1439
2682 6 1438 1436 1439
2683 11 1211 1212 1224
2684 11 1211 1212 1225
2685 11 1211 1212 1226
2686 13 1224 1212 1225
2687 13 1224 1212 1226
2688 13 1225 1212 1226
2689 6 1210 1211 1212
2690 6 1210 1211 1213
2691 6 1210 1211 1214
2692 6 1212 1211 1213
2693 6 1212 1211 1214
2694 6 1213 1211 1214
2695 11 1211 1214 1230
2696 11 1211 1214 1231
2697 11 1211 1214 1232
2698 13 1230 1214 1231
2699 13 1230 1214 1232
2700 13 1231 1214 1232
2701 5 1209 1210 1211
2702 10 1209 1210 1222
2703 10 1209 1210 1223
2704 11 1211 1210 1222
2705 11 1211 1210 1223
2706 13 1222 1210 1223
2707 3 1208 1209 1210
2708 4 1208 1209 1215
2709 3 1210 1209 1215
2710 11 1211 1213 1227
2711 11 1211 1213 1228
2712 11 1211 1213 1229
2713 13 1227 1213 1228
2714 13 1227 1213 1229
2715 13 1228 1213 1229
2716 6 1117 1118 1119
2717 6 1117 1118 1120
2718 6 1117 1118 1121
2719 6 1119 1118 1120
2720 6 1119 1118 1121
2721 6 1120 1118 1121
2722 11 1118 1120 1134
2723 11 1118 1120 1135
2724 11 1118 1120 1136
2725 13 1134 1120 1135
2726 13 1134 1120 1136
2727 13 1135 1120 1136
2728 11 1118 1119 1131
2729 11 1118 1119 1132
2730 11 1118 1119 1133
2731 13 1131 1119 1132
2732 13 1131 1119 1133
2733 13 1132 1119 1133
2734 4 1114 1115 1116
2735 9 1114 1115 1128
2736 9 1116 1115 1128
2737 11 1025 1028 1044
2738 11 1025 1028 1045
2739 11 1025 1028 1046
2740 13 1044 1028 1045
2741 13 1044 1028 1046
2742 13 1045 1028 1046
2743 6 1024 1025 1026
2744 6 1024 1025 1027
2745 6 1024 1025 1028
2746 6 1026 1025 1027
2747 6 1026 1025 1028
2748 6 1027 1025 1028
2749 11 1025 1027 1041
2750 11 1025 1027 1042
2751 11 1025 1027 1043
2752 13 1041 1027 1042
2753 13 1041 1027 1043
2754 13 1042 1027 1043
2755 4 1369 1370 1371
2756 9 1369 1370 1383
2757 9 1371 1370 1383
2758 11 1374 1376 1390
2759 11 1374 1376 1391
2760 11 1374 1376 1392
2761 13 1390 1376 1391
2762 13 1390 1376 1392
2763 13 1391 1376 1392
2764 3 1371 1372 1373
2765 4 1371 1372 1378
2766 3 1373 1372 1378
2767 4 1372 1378 1379
2768 9 1372 1378 1396
2769 9 1379 1378 1396
2770 4 1370 1371 1372
2771 9 1370 1371 1384
2772 9 1372 1371 1384
2773 3 1433 1434 1435
2774 4 1433 1434 1440
2775 3 1435 1434 1440
2776 2 1399 1429 1430
2777 7 1399 1429 1442
2778 7 1399 1429 1443
2779 7 1430 1429 1442
2780 7 1430 1429 1443
2781 12 1442 1429 1443
2782 4 1431 1441 1440
2783 9 1431 1441 1459
2784 9 1440 1441 1459
2785 1 1429 1430 1431
2786 2 1429 1430 1460
2787 1 1431 1430 1460
2788 7 1429 1430 1444
2789 8 1431 1430 1444
2790 7 1444 1430 1460
2791 4 1462 1463 1464
2792 9 1462 1463 1476
2793 9 1464 1463 1476
2794 4 1432 1433 1434
2795 9 1432 1433 1446
2796 9 1434 1433 1446
2797 4 1434 1440 1441
2798 9 1434 1440 1458
2799 9 1441 1440 1458
2800 3 1430 1431 1432
2801 3 1430 1431 1441
2802 4 1432 1431 1441
2803 4 1431 1432 1433
2804 9 1431 1432 1445
2805 9 1433 1432 1445
2806 3 1461 1462 1463
2807 3 1461 1462 1472
2808 4 1463 1462 1472
2809 4 1462 1472 1471
2810 9 1462 1472 1490
2811 9 1471 1472 1490
2812 4 1463 1464 1465
2813 9 1463 1464 1477
2814 9 1465 1464 1477
2815 4 1465 1471 1472
2816 9 1465 1471 1489
2817 9 1472 1471 1489
2818 3 1464 1465 1466
2819 4 1464 1465 1471
2820 3 1466 1465 1471
2821 5 1465 1466 1467
2822 10 1465 1466 1478
2823 10 1465 1466 1479
2824 11 1467 1466 1478
2825 11 1467 1466 1479
2826 13 1478 1466 1479
2827 11 1467 1469 1483
2828 11 1467 1469 1484
2829 11 1467 1469 1485
2830 13 1483 1469 1484
2831 13 1483 1469 1485
2832 13 1484 1469 1485
2833 6 1466 1467 1468
2834 6 1466 1467 1469
2835 6 1466 1467 1470
2836 6 1468 1467 1469
2837 6 1468 1467 1470
2838 6 1469 1467 1470
2839 11 1467 1470 1486
2840 11 1467 1470 1487
2841 11 1467 1470 1488
2842 13 1486 1470 1487
2843 13 1486 1470 1488
2844 13 1487 1470 1488
2845 11 1467 1468 1480
2846 11 1467 1468 1481
2847 11 1467 1468 1482
2848 13 1480 1468 1481
2849 13 1480 1468 1482
2850 13 1481 1468 1482
2851 11 1056 1058 1072
2852 11 1056 1058 1073
2853 11 1056 1058 1074
2854 13 1072 1058 1073
2855 13 1072 1058 1074
2856 13 1073 1058 1074
2857 6 1055 1056 1057
2858 6 1055 1056 1058
2859 6 1055 1056 1059
2860 6 1057 1056 1058
2861 6 1057 1056 1059
2862 6 1058 1056 1059
2863 5 1054 1055 1056
2864 10 1054 1055 1067
2865 10 1054 1055 1068
2866 11 1056 1055 1067
2867 11 1056 1055 1068
2868 13 1067 1055 1068
2869 11 1056 1059 1075
2870 11 1056 1059 1076
2871 11 1056 1059 1077
2872 13 1075 1059 1076
2873 13 1075 1059 1077
2874 13 1076 1059 1077
2875 3 1053 1054 1055
2876 4 1053 1054 1060
2877 3 1055 1054 1060
2878 4 1052 1053 1054
2879 9 1052 1053 1066
2880 9 1054 1053 1066
2881 4 1054 1060 1061
2882 9 1054 1060 1078
2883 9 1061 1060 1078
2884 4 1051 1052 1053
2885 9 1051 1052 1065
2886 9 1053 1052 1065
2887 4 1051 1061 1060
2888 9 1051 1061 1079
2889 9 1060 1061 1079
2890 3 1050 1051 1052
2891 3 1050 1051 1061
2892 4 1052 1051 1061
2893 1 1049 1050 1051
2894 2 1049 1050 1080
2895 1 1051 1050 1080
2896 7 1049 1050 1064
2897 8 1051 1050 1064
2898 7 1064 1050 1080
2899 3 1019 1020 1021
2900 3 1019 1020 1030
2901 4 1021 1020 1030
2902 2 1019 1049 1050
2903 7 1019 1049 1062
2904 7 1019 1049 1063
2905 7 1050 1049 1062
2906 7 1050 1049 1063
2907 12 1062 1049 1063
2908 1 1018 1019 1020
2909 2 1018 1019 1049
2910 1 1020 1019 1049
2911 7 1018 1019 1033
2912 8 1020 1019 1033
2913 7 1033 1019 1049
2914 4 1020 1030 1029
2915 9 1020 1030 1048
2916 9 1029 1030 1048
2917 4 1023 1029 1030
2918 9 1023 1029 1047
2919 9 1030 1029 1047
2920 4 1020 1021 1022
2921 9 1020 1021 1034
2922 9 1022 1021 1034
2923 11 1025 1026 1038
2924 11 1025 1026 1039
2925 11 1025 1026 1040
2926 13 1038 1026 1039
2927 13 1038 1026 1040
2928 13 1039 1026 1040
2929 5 1023 1024 1025
2930 10 1023 1024 1036
2931 10 1023 1024 1037
2932 11 1025 1024 1036
2933 11 1025 1024 1037
2934 13 1036 1024 1037
2935 3 1022 1023 1024
2936 4 1022 1023 1029
2937 3 1024 1023 1029
2938 4 1021 1022 1023
2939 9 1021 1022 1035
2940 9 1023 1022 1035
2941 6 961 962 963
2942 6 961 962 964
2943 6 961 962 965
2944 6 963 962 964
2945 6 963 962 965
2946 6 964 962 965
2947 11 962 963 976
2948 11 962 963 977
2949 11 962 963 978
2950 13 976 963 977
2951 13 976 963 978
2952 13 977 963 978
2953 11 962 965 982
2954 11 962 965 983
2955 11 962 965 984
2956 13 982 965 983
2957 13 982 965 984
2958 13 983 965 984
2959 2 1430 1460 1461
2960 7 1430 1460 1473
2961 7 1430 1460 1474
2962 7 1461 1460 1473
2963 7 1461 1460 1474
2964 12 1473 1460 1474
2965 1 1460 1461 1462
2966 2 1460 1461 1491
2967 1 1462 1461 1491
2968 7 1460 1461 1475
2969 8 1462 1461 1475
2970 7 1475 1461 1491
2971 2 1461 1491 1492
2972 7 1461 1491 1504
2973 7 1461 1491 1505
2974 7 1492 1491 1504
2975 7 1492 1491 1505
2976 12 1504 1491 1505
2977 2 988 1018 1019
2978 7 988 1018 1031
2979 7 988 1018 1032
2980 7 1019 1018 1031
2981 7 1019 1018 1032
2982 12 1031 1018 1032
2983 1 987 988 989
2984 2 987 988 1018
2985 1 989 988 1018
2986 7 987 988 1002
2987 8 989 988 1002
2988 7 1002 988 1018
2989 1 1553 1554 1555
2990 2 1553 1554 1568
2991 1 1555 1554 1568
2992 7 1553 1554 1569
2993 8 1555 1554 1569
2994 7 1568 1554 1569
2995 2 1523 1553 1554
2996 7 1523 1553 1566
2997 7 1523 1553 1567
2998 7 1554 1553 1566
2999 7 1554 1553 1567
3000 12 1566 1553 1567
3001 7 955 968 1267
3002 7 955 968 1268
3003 7 955 968 1269
3004 12 1267 968 1268
3005 12 1267 968 1269
3006 12 1268 968 1269
3007 7 600 614 634
3008 7 600 614 635
3009 7 600 614 636
3010 12 634 614 635
3011 12 634 614 636
3012 12 635 614 636
3013 11 389 392 408
3014 11 389 392 409
3015 11 389 392 410
3016 13 408 392 409
3017 13 408 392 410
3018 13 409 392 410
3019 4 1207 1208 1209
3020 9 1207 1208 1221
3021 9 1209 1208 1221
3022 4 1209 1215 1216
3023 9 1209 1215 1233
3024 9 1216 1215 1233
3025 4 1113 1114 1115
3026 9 1113 1114 1127
3027 9 1115 1114 1127
3028 5 1116 1117 1118
3029 10 1116 1117 1129
3030 10 1116 1117 1130
3031 11 1118 1117 1129
3032 11 1118 1117 1130
3033 13 1129 1117 1130
3034 3 1115 1116 1117
3035 4 1115 1116 1122
3036 3 1117 1116 1122
3037 11 1118 1121 1137
3038 11 1118 1121 1138
3039 11 1118 1121 1139
3040 13 1137 1121 1138
3041 13 1137 1121 1139
3042 13 1138 1121 1139
3043 1 1080 1081 1082
3044 2 1080 1081 1111
3045 1 1082 1081 1111
3046 7 1080 1081 1095
3047 8 1082 1081 1095
3048 7 1095 1081 1111
3049 2 1050 1080 1081
3050 7 1050 1080 1093
3051 7 1050 1080 1094
3052 7 1081 1080 1093
3053 7 1081 1080 1094
3054 12 1093 1080 1094
3055 3 988 989 990
3056 3 988 989 999
3057 4 990 989 999
3058 4 989 990 991
3059 9 989 990 1003
3060 9 991 990 1003

Dihedrals

1 3 1554 1555 1556 1557
2 3 1554 1555 1565 1564
3 1 1556 1555 1554 1568
4 3 1556 1555 1565 1564
5 1 1565 1555 1554 1568
6 3 1554 1555 1556 1570
7 3 1554 1555 1565 1584
8 9 1556 1555 1554 1569
9 5 1556 1555 1554 1569
10 3 1556 1555 1565 1584
11 9 1565 1555 1554 1569
12 5 1565 1555 1554 1569
13 3 1565 1555 1556 1570
14 3 1555 1556 1557 1558
15 3 1557 1556 1555 1565
16 3 1555 1556 1557 1571
17 3 1570 1556 1557 1571
18 3 1556 1557 1558 1559
19 3 1556 1557 1558 1564
20 3 1558 1557 1556 1570
21 5 1557 1558 1559 1560
22 3 1557 1558 1564 1565
23 3 1559 1558 1564 1565
24 5 1557 1558 1559 1572
25 5 1557 1558 1559 1573
26 3 1557 1558 1564 1583
27 3 1559 1558 1557 1571
28 3 1559 1558 1564 1583
29 3 1564 1558 1557 1571
30 5 1564 1558 1559 1572
31 5 1564 1558 1559 1573
32 3 1555 1565 1564 1558
33 3 1555 1565 1564 1583
34 3 1558 1564 1565 1584
35 3 1583 1564 1565 1584
36 6 1558 1559 1560 1561
37 7 1558 1559 1560 1561
38 6 1558 1559 1560 1562
39 7 1558 1559 1560 1562
40 6 1558 1559 1560 1563
41 7 1558 1559 1560 1563
42 5 1560 1559 1558 1564
43 4 993 994 995 1007
44 4 993 994 995 1008
45 4 993 994 995 1009
46 4 993 994 996 1010
47 4 993 994 996 1011
48 4 993 994 996 1012
49 4 993 994 997 1013
50 4 993 994 997 1014
51 4 993 994 997 1015
52 4 995 994 993 1005
53 4 995 994 993 1006
54 4 995 994 996 1010
55 4 995 994 996 1011
56 4 995 994 996 1012
57 4 995 994 997 1013
58 4 995 994 997 1014
59 4 995 994 997 1015
60 4 996 994 993 1005
61 4 996 994 993 1006
62 4 996 994 995 1007
63 4 996 994 995 1008
64 4 996 994 995 1009
65 4 996 994 997 1013
66 4 996 994 997 1014
67 4 996 994 997 1015
68 4 997 994 993 1005
69 4 997 994 993 1006
70 4 997 994 995 1007
71 4 997 994 995 1008
72 4 997 994 995 1009
73 4 997 994 996 1010
74 4 997 994 996 1011
75 4 997 994 996 1012
76 3 989 999 998 992
77 3 989 999 998 1016
78 4 1559 1560 1561 1574
79 4 1559 1560 1561 1575
80 4 1559 1560 1561 1576
81 4 1559 1560 1562 1577
82 4 1559 1560 1562 1578
83 4 1559 1560 1562 1579
84 4 1559 1560 1563 1580
85 4 1559 1560 1563 1581
86 4 1559 1560 1563 1582
87 4 1561 1560 1559 1572
88 4 1561 1560 1559 1573
89 4 1561 1560 1562 1577
90 4 1561 1560 1562 1578
91 4 1561 1560 1562 1579
92 4 1561 1560 1563 1580
93 4 1561 1560 1563 1581
94 4 1561 1560 1563 1582
95 4 1562 1560 1559 1572
96 4 1562 1560 1559 1573
97 4 1562 1560 1561 1574
98 4 1562 1560 1561 1575
99 4 1562 1560 1561 1576
100 4 1562 1560 1563 1580
101 4 1562 1560 1563 1581
102 4 1562 1560 1563 1582
103 4 1563 1560 1559 1572
104 4 1563 1560 1559 1573
105 4 1563 1560 1561 1574
106 4 1563 1560 1561 1575
107 4 1563 1560 1561 1576
108 4 1563 1560 1562 1577
109 4 1563 1560 1562 1578
110 4 1563 1560 1562 1579
111 4 605 606 607 620
112 4 605 606 607 621
113 4 605 606 607 622
114 4 605 606 608 623
115 4 605 606 608 624
116 4 605 606 608 625
117 4 605 606 609 626
118 4 605 606 609 627
119 4 605 606 609 628
120 4 607 606 605 618
121 4 607 606 605 619
122 4 607 606 608 623
123 4 607 606 608 624
124 4 607 606 608 625
125 4 607 606 609 626
126 4 607 606 609 627
127 4 607 606 609 628
128 4 608 606 605 618
129 4 608 606 605 619
130 4 608 606 607 620
131 4 608 606 607 621
132 4 608 606 607 622
133 4 608 606 609 626
134 4 608 606 609 627
135 4 608 606 609 628
136 4 609 606 605 618
137 4 609 606 605 619
138 4 609 606 607 620
139 4 609 606 607 621
140 4 609 606 607 622
141 4 609 606 608 623
142 4 609 606 608 624
143 4 609 606 608 625
144 3 601 602 603 604
145 3 603 602 601 611
146 3 601 602 603 617
147 3 616 602 603 617
148 3 602 603 604 605
149 3 602 603 604 610
150 3 604 603 602 616
151 3 600 601 602 603
152 3 600 601 611 610
153 1 602 601 600 614
154 3 602 601 611 610
155 1 611 601 600 614
156 3 600 601 602 616
157 3 600 601 611 630
158 9 602 601 600 615
159 5 602 601 600 615
160 3 602 601 611 630
161 9 611 601 600 615
162 5 611 601 600 615
163 3 611 601 602 616
164 6 604 605 606 607
165 7 604 605 606 607
166 6 604 605 606 608
167 7 604 605 606 608
168 6 604 605 606 609
169 7 604 605 606 609
170 5 606 605 604 610
171 5 603 604 605 606
172 3 603 604 610 611
173 3 605 604 610 611
174 5 603 604 605 618
175 5 603 604 605 619
176 3 603 604 610 629
177 3 605 604 603 617
178 3 605 604 610 629
179 3 610 604 603 617
180 5 610 604 605 618
181 5 610 604 605 619
182 3 601 611 610 604
183 3 601 611 610 629
184 3 604 610 611 630
185 3 629 610 611 630
186 1 599 600 601 602
187 1 599 600 601 611
188 8 599 600 614 634
189 8 599 600 614 635
190 8 599 600 614 636
191 4 601 600 599 612
192 4 601 600 599 613
193 4 601 600 614 634
194 4 601 600 614 635
195 4 601 600 614 636
196 10 615 600 614 634
197 10 615 600 614 635
198 10 615 600 614 636
199 3 539 549 548 542
200 3 539 549 548 566
201 3 538 539 540 541
202 3 538 539 549 548
203 1 540 539 538 568
204 3 540 539 549 548
205 1 549 539 538 568
206 3 538 539 540 553
207 3 538 539 549 567
208 9 540 539 538 552
209 5 540 539 538 552
210 3 540 539 549 567
211 9 549 539 538 552
212 5 549 539 538 552
213 3 549 539 540 553
214 4 569 599 600 601
215 2 569 599 600 614
216 8 569 599 600 615
217 8 612 599 600 614
218 10 612 599 600 615
219 8 613 599 600 614
220 10 613 599 600 615
221 1 568 569 570 571
222 1 568 569 570 580
223 2 568 569 599 600
224 4 570 569 599 600
225 8 568 569 599 612
226 8 568 569 599 613
227 4 570 569 568 581
228 4 570 569 568 582
229 4 570 569 599 612
230 4 570 569 599 613
231 8 583 569 599 600
232 10 583 569 599 612
233 10 583 569 599 613
234 4 538 568 569 570
235 2 538 568 569 599
236 8 538 568 569 583
237 10 581 568 569 583
238 8 581 568 569 599
239 10 582 568 569 583
240 8 582 568 569 599
241 1 537 538 539 540
242 1 537 538 539 549
243 2 537 538 568 569
244 4 539 538 568 569
245 8 537 538 568 581
246 8 537 538 568 582
247 4 539 538 537 550
248 4 539 538 537 551
249 4 539 538 568 581
250 4 539 538 568 582
251 8 552 538 568 569
252 10 552 538 568 581
253 10 552 538 568 582
254 4 507 537 538 539
255 2 507 537 538 568
256 8 507 537 538 552
257 10 550 537 538 552
258 8 550 537 538 568
259 10 551 537 538 552
260 8 551 537 538 568
261 4 450 451 452 464
262 4 450 451 452 465
263 4 450 451 452 466
264 4 450 451 453 467
265 4 450 451 453 468
266 4 450 451 453 469
267 4 450 451 454 470
268 4 450 451 454 471
269 4 450 451 454 472
270 4 452 451 450 462
271 4 452 451 450 463
272 4 452 451 453 467
273 4 452 451 453 468
274 4 452 451 453 469
275 4 452 451 454 470
276 4 452 451 454 471
277 4 452 451 454 472
278 4 453 451 450 462
279 4 453 451 450 463
280 4 453 451 452 464
281 4 453 451 452 465
282 4 453 451 452 466
283 4 453 451 454 470
284 4 453 451 454 471
285 4 453 451 454 472
286 4 454 451 450 462
287 4 454 451 450 463
288 4 454 451 452 464
289 4 454 451 452 465
290 4 454 451 452 466
291 4 454 451 453 467
292 4 454 451 453 468
293 4 454 451 453 469
294 3 570 580 579 573
295 3 570 580 579 597
296 3 573 579 580 598
297 3 597 579 580 598
298 3 569 570 571 572
299 3 569 570 580 579
300 1 571 570 569 599
301 3 571 570 580 579
302 1 580 570 569 599
303 3 569 570 571 584
304 3 569 570 580 598
305 9 571 570 569 583
306 5 571 570 569 583
307 3 571 570 580 598
308 9 580 570 569 583
309 5 580 570 569 583
310 3 580 570 571 584
311 3 570 571 572 573
312 3 572 571 570 580
313 3 570 571 572 585
314 3 584 571 572 585
315 3 571 572 573 574
316 3 571 572 573 579
317 3 573 572 571 584
318 5 572 573 574 575
319 3 572 573 579 580
320 3 574 573 579 580
321 5 572 573 574 586
322 5 572 573 574 587
323 3 572 573 579 597
324 3 574 573 572 585
325 3 574 573 579 597
326 3 579 573 572 585
327 5 579 573 574 586
328 5 579 573 574 587
329 5 448 449 450 451
330 3 448 449 455 456
331 3 450 449 455 456
332 5 448 449 450 462
333 5 448 449 450 463
334 3 448 449 455 473
335 3 450 449 448 461
336 3 450 449 455 473
337 3 455 449 448 461
338 5 455 449 450 462
339 5 455 449 450 463
340 3 447 448 449 450
341 3 447 448 449 455
342 3 449 448 447 460
343 3 449 455 456 474
344 3 473 455 456 474
345 3 446 447 448 449
346 3 448 447 446 456
347 3 446 447 448 461
348 3 460 447 448 461
349 3 445 446 447 448
350 3 445 446 456 455
351 1 447 446 445 475
352 3 447 446 456 455
353 1 456 446 445 475
354 3 445 446 447 460
355 3 445 446 456 474
356 9 447 446 445 459
357 5 447 446 445 459
358 3 447 446 456 474
359 9 456 446 445 459
360 5 456 446 445 459
361 3 456 446 447 460
362 3 446 456 455 449
363 3 446 456 455 473
364 3 415 425 424 418
365 3 415 425 424 442
366 3 418 424 425 443
367 3 442 424 425 443
368 6 449 450 451 452
369 7 449 450 451 452
370 6 449 450 451 453
371 7 449 450 451 453
372 6 449 450 451 454
373 7 449 450 451 454
374 5 451 450 449 455
375 4 388 389 390 402
376 4 388 389 390 403
377 4 388 389 390 404
378 4 388 389 391 405
379 4 388 389 391 406
380 4 388 389 391 407
381 4 388 389 392 408
382 4 388 389 392 409
383 4 388 389 392 410
384 4 390 389 388 400
385 4 390 389 388 401
386 4 390 389 391 405
387 4 390 389 391 406
388 4 390 389 391 407
389 4 390 389 392 408
390 4 390 389 392 409
391 4 390 389 392 410
392 4 391 389 388 400
393 4 391 389 388 401
394 4 391 389 390 402
395 4 391 389 390 403
396 4 391 389 390 404
397 4 391 389 392 408
398 4 391 389 392 409
399 4 391 389 392 410
400 4 392 389 388 400
401 4 392 389 388 401
402 4 392 389 390 402
403 4 392 389 390 403
404 4 392 389 390 404
405 4 392 389 391 405
406 4 392 389 391 406
407 4 392 389 391 407
408 6 387 388 389 390
409 7 387 388 389 390
410 6 387 388 389 391
411 7 387 388 389 391
412 6 387 388 389 392
413 7 387 388 389 392
414 5 389 388 387 393
415 3 385 386 387 388
416 3 385 386 387 393
417 3 387 386 385 398
418 5 386 387 388 389
419 3 386 387 393 394
420 3 388 387 393 394
421 5 386 387 388 400
422 5 386 387 388 401
423 3 386 387 393 411
424 3 388 387 386 399
425 3 388 387 393 411
426 3 393 387 386 399
427 5 393 387 388 400
428 5 393 387 388 401
429 3 387 393 394 412
430 3 411 393 394 412
431 3 384 385 386 387
432 3 386 385 384 394
433 3 384 385 386 399
434 3 398 385 386 399
435 3 384 394 393 387
436 3 384 394 393 411
437 3 383 384 385 386
438 3 383 384 394 393
439 1 385 384 383 413
440 3 385 384 394 393
441 1 394 384 383 413
442 3 383 384 385 398
443 3 383 384 394 412
444 9 385 384 383 397
445 5 385 384 383 397
446 3 385 384 394 412
447 9 394 384 383 397
448 5 394 384 383 397
449 3 394 384 385 398
450 3 1237 1238 1239 1240
451 3 1239 1238 1237 1247
452 3 1237 1238 1239 1253
453 3 1252 1238 1239 1253
454 3 1176 1177 1178 1179
455 3 1176 1177 1178 1184
456 3 1178 1177 1176 1189
457 4 1205 1235 1236 1237
458 2 1205 1235 1236 1250
459 8 1205 1235 1236 1251
460 8 1248 1235 1236 1250
461 10 1248 1235 1236 1251
462 8 1249 1235 1236 1250
463 10 1249 1235 1236 1251
464 1 1235 1236 1237 1238
465 1 1235 1236 1237 1247
466 8 1235 1236 1250 1270
467 8 1235 1236 1250 1271
468 8 1235 1236 1250 1272
469 4 1237 1236 1235 1248
470 4 1237 1236 1235 1249
471 4 1237 1236 1250 1270
472 4 1237 1236 1250 1271
473 4 1237 1236 1250 1272
474 10 1251 1236 1250 1270
475 10 1251 1236 1250 1271
476 10 1251 1236 1250 1272
477 3 1236 1237 1238 1239
478 3 1236 1237 1247 1246
479 1 1238 1237 1236 1250
480 3 1238 1237 1247 1246
481 1 1247 1237 1236 1250
482 3 1236 1237 1238 1252
483 3 1236 1237 1247 1266
484 9 1238 1237 1236 1251
485 5 1238 1237 1236 1251
486 3 1238 1237 1247 1266
487 9 1247 1237 1236 1251
488 5 1247 1237 1236 1251
489 3 1247 1237 1238 1252
490 3 1175 1176 1177 1178
491 3 1177 1176 1175 1185
492 3 1175 1176 1177 1190
493 3 1189 1176 1177 1190
494 3 1206 1216 1215 1209
495 3 1206 1216 1215 1233
496 3 1205 1206 1207 1208
497 3 1205 1206 1216 1215
498 1 1207 1206 1205 1235
499 3 1207 1206 1216 1215
500 1 1216 1206 1205 1235
501 3 1205 1206 1207 1220
502 3 1205 1206 1216 1234
503 9 1207 1206 1205 1219
504 5 1207 1206 1205 1219
505 3 1207 1206 1216 1234
506 9 1216 1206 1205 1219
507 5 1216 1206 1205 1219
508 3 1216 1206 1207 1220
509 3 1206 1207 1208 1209
510 3 1208 1207 1206 1216
511 3 1206 1207 1208 1221
512 3 1220 1207 1208 1221
513 4 1112 1142 1143 1144
514 2 1112 1142 1143 1173
515 8 1112 1142 1143 1157
516 10 1155 1142 1143 1157
517 8 1155 1142 1143 1173
518 10 1156 1142 1143 1157
519 8 1156 1142 1143 1173
520 1 1204 1205 1206 1207
521 1 1204 1205 1206 1216
522 2 1204 1205 1235 1236
523 4 1206 1205 1235 1236
524 8 1204 1205 1235 1248
525 8 1204 1205 1235 1249
526 4 1206 1205 1204 1217
527 4 1206 1205 1204 1218
528 4 1206 1205 1235 1248
529 4 1206 1205 1235 1249
530 8 1219 1205 1235 1236
531 10 1219 1205 1235 1248
532 10 1219 1205 1235 1249
533 4 1174 1204 1205 1206
534 2 1174 1204 1205 1235
535 8 1174 1204 1205 1219
536 10 1217 1204 1205 1219
537 8 1217 1204 1205 1235
538 10 1218 1204 1205 1219
539 8 1218 1204 1205 1235
540 3 1174 1175 1176 1177
541 3 1174 1175 1185 1184
542 1 1176 1175 1174 1204
543 3 1176 1175 1185 1184
544 1 1185 1175 1174 1204
545 3 1174 1175 1176 1189
546 3 1174 1175 1185 1203
547 9 1176 1175 1174 1188
548 5 1176 1175 1174 1188
549 3 1176 1175 1185 1203
550 9 1185 1175 1174 1188
551 5 1185 1175 1174 1188
552 3 1185 1175 1176 1189
553 1 1173 1174 1175 1176
554 1 1173 1174 1175 1185
555 2 1173 1174 1204 1205
556 4 1175 1174 1204 1205
557 8 1173 1174 1204 1217
558 8 1173 1174 1204 1218
559 4 1175 1174 1173 1186
560 4 1175 1174 1173 1187
561 4 1175 1174 1204 1217
562 4 1175 1174 1204 1218
563 8 1188 1174 1204 1205
564 10 1188 1174 1204 1217
565 10 1188 1174 1204 1218
566 4 1143 1173 1174 1175
567 2 1143 1173 1174 1204
568 8 1143 1173 1174 1188
569 10 1186 1173 1174 1188
570 8 1186 1173 1174 1204
571 10 1187 1173 1174 1188
572 8 1187 1173 1174 1204
573 3 1175 1185 1184 1178
574 3 1175 1185 1184 1202
575 3 1112 1113 1114 1115
576 3 1112 1113 1123 1122
577 1 1114 1113 1112 1142
578 3 1114 1113 1123 1122
579 1 1123 1113 1112 1142
580 3 1112 1113 1114 1127
581 3 1112 1113 1123 1141
582 9 1114 1113 1112 1126
583 5 1114 1113 1112 1126
584 3 1114 1113 1123 1141
585 9 1123 1113 1112 1126
586 5 1123 1113 1112 1126
587 3 1123 1113 1114 1127
588 3 1113 1123 1122 1116
589 3 1113 1123 1122 1140
590 3 1116 1122 1123 1141
591 3 1140 1122 1123 1141
592 1 1142 1143 1144 1145
593 1 1142 1143 1144 1154
594 2 1142 1143 1173 1174
595 4 1144 1143 1173 1174
596 8 1142 1143 1173 1186
597 8 1142 1143 1173 1187
598 4 1144 1143 1142 1155
599 4 1144 1143 1142 1156
600 4 1144 1143 1173 1186
601 4 1144 1143 1173 1187
602 8 1157 1143 1173 1174
603 10 1157 1143 1173 1186
604 10 1157 1143 1173 1187
605 1 1111 1112 1113 1114
606 1 1111 1112 1113 1123
607 2 1111 1112 1142 1143
608 4 1113 1112 1142 1143
609 8 1111 1112 1142 1155
610 8 1111 1112 1142 1156
611 4 1113 1112 1111 1124
612 4 1113 1112 1111 1125
613 4 1113 1112 1142 1155
614 4 1113 1112 1142 1156
615 8 1126 1112 1142 1143
616 10 1126 1112 1142 1155
617 10 1126 1112 1142 1156
618 3 1144 1145 1146 1147
619 3 1146 1145 1144 1154
620 3 1144 1145 1146 1159
621 3 1158 1145 1146 1159
622 3 1143 1144 1145 1146
623 3 1143 1144 1154 1153
624 1 1145 1144 1143 1173
625 3 1145 1144 1154 1153
626 1 1154 1144 1143 1173
627 3 1143 1144 1145 1158
628 3 1143 1144 1154 1172
629 9 1145 1144 1143 1157
630 5 1145 1144 1143 1157
631 3 1145 1144 1154 1172
632 9 1154 1144 1143 1157
633 5 1154 1144 1143 1157
634 3 1154 1144 1145 1158
635 3 1145 1146 1147 1148
636 3 1145 1146 1147 1153
637 3 1147 1146 1145 1158
638 5 1146 1147 1148 1149
639 3 1146 1147 1153 1154
640 3 1148 1147 1153 1154
641 5 1146 1147 1148 1160
642 5 1146 1147 1148 1161
643 3 1146 1147 1153 1171
644 3 1148 1147 1146 1159
645 3 1148 1147 1153 1171
646 3 1153 1147 1146 1159
647 5 1153 1147 1148 1160
648 5 1153 1147 1148 1161
649 3 1144 1154 1153 1147
650 3 1144 1154 1153 1171
651 3 1147 1153 1154 1172
652 3 1171 1153 1154 1172
653 4 1081 1111 1112 1113
654 2 1081 1111 1112 1142
655 8 1081 1111 1112 1126
656 10 1124 1111 1112 1126
657 8 1124 1111 1112 1142
658 10 1125 1111 1112 1126
659 8 1125 1111 1112 1142
660 3 1082 1092 1091 1085
661 3 1082 1092 1091 1109
662 3 1081 1082 1083 1084
663 3 1081 1082 1092 1091
664 1 1083 1082 1081 1111
665 3 1083 1082 1092 1091
666 1 1092 1082 1081 1111
667 3 1081 1082 1083 1096
668 3 1081 1082 1092 1110
669 9 1083 1082 1081 1095
670 5 1083 1082 1081 1095
671 3 1083 1082 1092 1110
672 9 1092 1082 1081 1095
673 5 1092 1082 1081 1095
674 3 1092 1082 1083 1096
675 3 1085 1091 1092 1110
676 3 1109 1091 1092 1110
677 3 1082 1083 1084 1085
678 3 1084 1083 1082 1092
679 3 1082 1083 1084 1097
680 3 1096 1083 1084 1097
681 3 1083 1084 1085 1086
682 3 1083 1084 1085 1091
683 3 1085 1084 1083 1096
684 5 1084 1085 1086 1087
685 3 1084 1085 1091 1092
686 3 1086 1085 1091 1092
687 5 1084 1085 1086 1098
688 5 1084 1085 1086 1099
689 3 1084 1085 1091 1109
690 3 1086 1085 1084 1097
691 3 1086 1085 1091 1109
692 3 1091 1085 1084 1097
693 5 1091 1085 1086 1098
694 5 1091 1085 1086 1099
695 6 1085 1086 1087 1088
696 7 1085 1086 1087 1088
697 6 1085 1086 1087 1089
698 7 1085 1086 1087 1089
699 6 1085 1086 1087 1090
700 7 1085 1086 1087 1090
701 5 1087 1086 1085 1091
702 4 1148 1149 1150 1162
703 4 1148 1149 1150 1163
704 4 1148 1149 1150 1164
705 4 1148 1149 1151 1165
706 4 1148 1149 1151 1166
707 4 1148 1149 1151 1167
708 4 1148 1149 1152 1168
709 4 1148 1149 1152 1169
710 4 1148 1149 1152 1170
711 4 1150 1149 1148 1160
712 4 1150 1149 1148 1161
713 4 1150 1149 1151 1165
714 4 1150 1149 1151 1166
715 4 1150 1149 1151 1167
716 4 1150 1149 1152 1168
717 4 1150 1149 1152 1169
718 4 1150 1149 1152 1170
719 4 1151 1149 1148 1160
720 4 1151 1149 1148 1161
721 4 1151 1149 1150 1162
722 4 1151 1149 1150 1163
723 4 1151 1149 1150 1164
724 4 1151 1149 1152 1168
725 4 1151 1149 1152 1169
726 4 1151 1149 1152 1170
727 4 1152 1149 1148 1160
728 4 1152 1149 1148 1161
729 4 1152 1149 1150 1162
730 4 1152 1149 1150 1163
731 4 1152 1149 1150 1164
732 4 1152 1149 1151 1165
733 4 1152 1149 1151 1166
734 4 1152 1149 1151 1167
735 6 1147 1148 1149 1150
736 7 1147 1148 1149 1150
737 6 1147 1148 1149 1151
738 7 1147 1148 1149 1151
739 6 1147 1148 1149 1152
740 7 1147 1148 1149 1152
741 5 1149 1148 1147 1153
742 3 990 991 992 993
743 3 990 991 992 998
744 3 992 991 990 1003
745 3 992 998 999 1017
746 3 1016 998 999 1017
747 5 991 992 993 994
748 3 991 992 998 999
749 3 993 992 998 999
750 5 991 992 993 1005
751 5 991 992 993 1006
752 3 991 992 998 1016
753 3 993 992 991 1004
754 3 993 992 998 1016
755 3 998 992 991 1004
756 5 998 992 993 1005
757 5 998 992 993 1006
758 6 992 993 994 995
759 7 992 993 994 995
760 6 992 993 994 996
761 7 992 993 994 996
762 6 992 993 994 997
763 7 992 993 994 997
764 5 994 993 992 998
765 4 287 288 289 302
766 4 287 288 289 303
767 4 287 288 289 304
768 4 287 288 290 305
769 4 287 288 290 306
770 4 287 288 290 307
771 4 287 288 291 308
772 4 287 288 291 309
773 4 287 288 291 310
774 4 289 288 287 300
775 4 289 288 287 301
776 4 289 288 290 305
777 4 289 288 290 306
778 4 289 288 290 307
779 4 289 288 291 308
780 4 289 288 291 309
781 4 289 288 291 310
782 4 290 288 287 300
783 4 290 288 287 301
784 4 290 288 289 302
785 4 290 288 289 303
786 4 290 288 289 304
787 4 290 288 291 308
788 4 290 288 291 309
789 4 290 288 291 310
790 4 291 288 287 300
791 4 291 288 287 301
792 4 291 288 289 302
793 4 291 288 289 303
794 4 291 288 289 304
795 4 291 288 290 305
796 4 291 288 290 306
797 4 291 288 290 307
798 6 286 287 288 289
799 7 286 287 288 289
800 6 286 287 288 290
801 7 286 287 288 290
802 6 286 287 288 291
803 7 286 287 288 291
804 5 288 287 286 292
805 3 511 517 518 536
806 3 535 517 518 536
807 5 510 511 512 513
808 3 510 511 517 518
809 3 512 511 517 518
810 5 510 511 512 524
811 5 510 511 512 525
812 3 510 511 517 535
813 3 512 511 510 523
814 3 512 511 517 535
815 3 517 511 510 523
816 5 517 511 512 524
817 5 517 511 512 525
818 4 512 513 514 526
819 4 512 513 514 527
820 4 512 513 514 528
821 4 512 513 515 529
822 4 512 513 515 530
823 4 512 513 515 531
824 4 512 513 516 532
825 4 512 513 516 533
826 4 512 513 516 534
827 4 514 513 512 524
828 4 514 513 512 525
829 4 514 513 515 529
830 4 514 513 515 530
831 4 514 513 515 531
832 4 514 513 516 532
833 4 514 513 516 533
834 4 514 513 516 534
835 4 515 513 512 524
836 4 515 513 512 525
837 4 515 513 514 526
838 4 515 513 514 527
839 4 515 513 514 528
840 4 515 513 516 532
841 4 515 513 516 533
842 4 515 513 516 534
843 4 516 513 512 524
844 4 516 513 512 525
845 4 516 513 514 526
846 4 516 513 514 527
847 4 516 513 514 528
848 4 516 513 515 529
849 4 516 513 515 530
850 4 516 513 515 531
851 6 511 512 513 514
852 7 511 512 513 514
853 6 511 512 513 515
854 7 511 512 513 515
855 6 511 512 513 516
856 7 511 512 513 516
857 5 513 512 511 517
858 3 286 292 293 312
859 3 311 292 293 312
860 3 283 293 292 286
861 3 283 293 292 311
862 3 224 230 231 249
863 3 248 230 231 249
864 5 223 224 225 226
865 3 223 224 230 231
866 3 225 224 230 231
867 5 223 224 225 237
868 5 223 224 225 238
869 3 223 224 230 248
870 3 225 224 223 236
871 3 225 224 230 248
872 3 230 224 223 236
873 5 230 224 225 237
874 5 230 224 225 238
875 1 281 282 283 284
876 1 281 282 283 293
877 8 281 282 296 316
878 8 281 282 296 317
879 8 281 282 296 318
880 4 283 282 281 294
881 4 283 282 281 295
882 4 283 282 296 316
883 4 283 282 296 317
884 4 283 282 296 318
885 10 297 282 296 316
886 10 297 282 296 317
887 10 297 282 296 318
888 5 285 286 287 288
889 3 285 286 292 293
890 3 287 286 292 293
891 5 285 286 287 300
892 5 285 286 287 301
893 3 285 286 292 311
894 3 287 286 285 299
895 3 287 286 292 311
896 3 292 286 285 299
897 5 292 286 287 300
898 5 292 286 287 301
899 3 284 285 286 287
900 3 284 285 286 292
901 3 286 285 284 298
902 3 282 283 284 285
903 3 282 283 293 292
904 1 284 283 282 296
905 3 284 283 293 292
906 1 293 283 282 296
907 3 282 283 284 298
908 3 282 283 293 312
909 9 284 283 282 297
910 5 284 283 282 297
911 3 284 283 293 312
912 9 293 283 282 297
913 5 293 283 282 297
914 3 293 283 284 298
915 3 283 284 285 286
916 3 285 284 283 293
917 3 283 284 285 299
918 3 298 284 285 299
919 5 541 542 543 544
920 3 541 542 548 549
921 3 543 542 548 549
922 5 541 542 543 555
923 5 541 542 543 556
924 3 541 542 548 566
925 3 543 542 541 554
926 3 543 542 548 566
927 3 548 542 541 554
928 5 548 542 543 555
929 5 548 542 543 556
930 4 543 544 545 557
931 4 543 544 545 558
932 4 543 544 545 559
933 4 543 544 546 560
934 4 543 544 546 561
935 4 543 544 546 562
936 4 543 544 547 563
937 4 543 544 547 564
938 4 543 544 547 565
939 4 545 544 543 555
940 4 545 544 543 556
941 4 545 544 546 560
942 4 545 544 546 561
943 4 545 544 546 562
944 4 545 544 547 563
945 4 545 544 547 564
946 4 545 544 547 565
947 4 546 544 543 555
948 4 546 544 543 556
949 4 546 544 545 557
950 4 546 544 545 558
951 4 546 544 545 559
952 4 546 544 547 563
953 4 546 544 547 564
954 4 546 544 547 565
955 4 547 544 543 555
956 4 547 544 543 556
957 4 547 544 545 557
958 4 547 544 545 558
959 4 547 544 545 559
960 4 547 544 546 560
961 4 547 544 546 561
962 4 547 544 546 562
963 6 542 543 544 545
964 7 542 543 544 545
965 6 542 543 544 546
966 7 542 543 544 546
967 6 542 543 544 547
968 7 542 543 544 547
969 5 544 543 542 548
970 3 508 518 517 511
971 3 508 518 517 535
972 3 542 548 549 567
973 3 566 548 549 567
974 3 507 508 509 510
975 3 507 508 518 517
976 1 509 508 507 537
977 3 509 508 518 517
978 1 518 508 507 537
979 3 507 508 509 522
980 3 507 508 518 536
981 9 509 508 507 521
982 5 509 508 507 521
983 3 509 508 518 536
984 9 518 508 507 521
985 5 518 508 507 521
986 3 518 508 509 522
987 1 506 507 508 509
988 1 506 507 508 518
989 2 506 507 537 538
990 4 508 507 537 538
991 8 506 507 537 550
992 8 506 507 537 551
993 4 508 507 506 519
994 4 508 507 506 520
995 4 508 507 537 550
996 4 508 507 537 551
997 8 521 507 537 538
998 10 521 507 537 550
999 10 521 507 537 551
1000 3 540 541 542 543
1001 3 540 541 542 548
1002 3 542 541 540 553
1003 3 509 510 511 512
1004 3 509 510 511 517
1005 3 511 510 509 522
1006 3 508 509 510 511
1007 3 510 509 508 518
1008 3 508 509 510 523
1009 3 522 509 510 523
1010 3 539 540 541 542
1011 3 541 540 539 549
1012 3 539 540 541 554
1013 3 553 540 541 554
1014 3 477 478 479 480
1015 3 479 478 477 487
1016 3 477 478 479 492
1017 3 491 478 479 492
1018 4 476 506 507 508
1019 2 476 506 507 537
1020 8 476 506 507 521
1021 10 519 506 507 521
1022 8 519 506 507 537
1023 10 520 506 507 521
1024 8 520 506 507 537
1025 1 475 476 477 478
1026 1 475 476 477 487
1027 2 475 476 506 507
1028 4 477 476 506 507
1029 8 475 476 506 519
1030 8 475 476 506 520
1031 4 477 476 475 488
1032 4 477 476 475 489
1033 4 477 476 506 519
1034 4 477 476 506 520
1035 8 490 476 506 507
1036 10 490 476 506 519
1037 10 490 476 506 520
1038 3 476 477 478 479
1039 3 476 477 487 486
1040 1 478 477 476 506
1041 3 478 477 487 486
1042 1 487 477 476 506
1043 3 476 477 478 491
1044 3 476 477 487 505
1045 9 478 477 476 490
1046 5 478 477 476 490
1047 3 478 477 487 505
1048 9 487 477 476 490
1049 5 487 477 476 490
1050 3 487 477 478 491
1051 4 445 475 476 477
1052 2 445 475 476 506
1053 8 445 475 476 490
1054 10 488 475 476 490
1055 8 488 475 476 506
1056 10 489 475 476 490
1057 8 489 475 476 506
1058 6 224 225 226 227
1059 7 224 225 226 227
1060 6 224 225 226 228
1061 7 224 225 226 228
1062 6 224 225 226 229
1063 7 224 225 226 229
1064 5 226 225 224 230
1065 4 225 226 227 239
1066 4 225 226 227 240
1067 4 225 226 227 241
1068 4 225 226 228 242
1069 4 225 226 228 243
1070 4 225 226 228 244
1071 4 225 226 229 245
1072 4 225 226 229 246
1073 4 225 226 229 247
1074 4 227 226 225 237
1075 4 227 226 225 238
1076 4 227 226 228 242
1077 4 227 226 228 243
1078 4 227 226 228 244
1079 4 227 226 229 245
1080 4 227 226 229 246
1081 4 227 226 229 247
1082 4 228 226 225 237
1083 4 228 226 225 238
1084 4 228 226 227 239
1085 4 228 226 227 240
1086 4 228 226 227 241
1087 4 228 226 229 245
1088 4 228 226 229 246
1089 4 228 226 229 247
1090 4 229 226 225 237
1091 4 229 226 225 238
1092 4 229 226 227 239
1093 4 229 226 227 240
1094 4 229 226 227 241
1095 4 229 226 228 242
1096 4 229 226 228 243
1097 4 229 226 228 244
1098 6 573 574 575 576
1099 7 573 574 575 576
1100 6 573 574 575 577
1101 7 573 574 575 577
1102 6 573 574 575 578
1103 7 573 574 575 578
1104 5 575 574 573 579
1105 4 574 575 576 588
1106 4 574 575 576 589
1107 4 574 575 576 590
1108 4 574 575 577 591
1109 4 574 575 577 592
1110 4 574 575 577 593
1111 4 574 575 578 594
1112 4 574 575 578 595
1113 4 574 575 578 596
1114 4 576 575 574 586
1115 4 576 575 574 587
1116 4 576 575 577 591
1117 4 576 575 577 592
1118 4 576 575 577 593
1119 4 576 575 578 594
1120 4 576 575 578 595
1121 4 576 575 578 596
1122 4 577 575 574 586
1123 4 577 575 574 587
1124 4 577 575 576 588
1125 4 577 575 576 589
1126 4 577 575 576 590
1127 4 577 575 578 594
1128 4 577 575 578 595
1129 4 577 575 578 596
1130 4 578 575 574 586
1131 4 578 575 574 587
1132 4 578 575 576 588
1133 4 578 575 576 589
1134 4 578 575 576 590
1135 4 578 575 577 591
1136 4 578 575 577 592
1137 4 578 575 577 593
1138 3 477 487 486 480
1139 3 477 487 486 504
1140 5 479 480 481 482
1141 3 479 480 486 487
1142 3 481 480 486 487
1143 5 479 480 481 493
1144 5 479 480 481 494
1145 3 479 480 486 504
1146 3 481 480 479 492
1147 3 481 480 486 504
1148 3 486 480 479 492
1149 5 486 480 481 493
1150 5 486 480 481 494
1151 3 478 479 480 481
1152 3 478 479 480 486
1153 3 480 479 478 491
1154 3 480 486 487 505
1155 3 504 486 487 505
1156 6 480 481 482 483
1157 7 480 481 482 483
1158 6 480 481 482 484
1159 7 480 481 482 484
1160 6 480 481 482 485
1161 7 480 481 482 485
1162 5 482 481 480 486
1163 3 414 415 416 417
1164 3 414 415 425 424
1165 1 416 415 414 444
1166 3 416 415 425 424
1167 1 425 415 414 444
1168 3 414 415 416 429
1169 3 414 415 425 443
1170 9 416 415 414 428
1171 5 416 415 414 428
1172 3 416 415 425 443
1173 9 425 415 414 428
1174 5 425 415 414 428
1175 3 425 415 416 429
1176 1 444 445 446 447
1177 1 444 445 446 456
1178 2 444 445 475 476
1179 4 446 445 475 476
1180 8 444 445 475 488
1181 8 444 445 475 489
1182 4 446 445 444 457
1183 4 446 445 444 458
1184 4 446 445 475 488
1185 4 446 445 475 489
1186 8 459 445 475 476
1187 10 459 445 475 488
1188 10 459 445 475 489
1189 1 413 414 415 416
1190 1 413 414 415 425
1191 2 413 414 444 445
1192 4 415 414 444 445
1193 8 413 414 444 457
1194 8 413 414 444 458
1195 4 415 414 413 426
1196 4 415 414 413 427
1197 4 415 414 444 457
1198 4 415 414 444 458
1199 8 428 414 444 445
1200 10 428 414 444 457
1201 10 428 414 444 458
1202 5 417 418 419 420
1203 3 417 418 424 425
1204 3 419 418 424 425
1205 5 417 418 419 431
1206 5 417 418 419 432
1207 3 417 418 424 442
1208 3 419 418 417 430
1209 3 419 418 424 442
1210 3 424 418 417 430
1211 5 424 418 419 431
1212 5 424 418 419 432
1213 3 416 417 418 419
1214 3 416 417 418 424
1215 3 418 417 416 429
1216 3 415 416 417 418
1217 3 417 416 415 425
1218 3 415 416 417 430
1219 3 429 416 417 430
1220 4 414 444 445 446
1221 2 414 444 445 475
1222 8 414 444 445 459
1223 10 457 444 445 459
1224 8 457 444 445 475
1225 10 458 444 445 459
1226 8 458 444 445 475
1227 3 354 355 356 357
1228 3 354 355 356 362
1229 3 356 355 354 367
1230 5 355 356 357 358
1231 3 355 356 362 363
1232 3 357 356 362 363
1233 5 355 356 357 369
1234 5 355 356 357 370
1235 3 355 356 362 380
1236 3 357 356 355 368
1237 3 357 356 362 380
1238 3 362 356 355 368
1239 5 362 356 357 369
1240 5 362 356 357 370
1241 4 383 413 414 415
1242 2 383 413 414 444
1243 8 383 413 414 428
1244 10 426 413 414 428
1245 8 426 413 414 444
1246 10 427 413 414 428
1247 8 427 413 414 444
1248 3 356 362 363 381
1249 3 380 362 363 381
1250 6 356 357 358 359
1251 7 356 357 358 359
1252 6 356 357 358 360
1253 7 356 357 358 360
1254 6 356 357 358 361
1255 7 356 357 358 361
1256 5 358 357 356 362
1257 1 382 383 384 385
1258 1 382 383 384 394
1259 2 382 383 413 414
1260 4 384 383 413 414
1261 8 382 383 413 426
1262 8 382 383 413 427
1263 4 384 383 382 395
1264 4 384 383 382 396
1265 4 384 383 413 426
1266 4 384 383 413 427
1267 8 397 383 413 414
1268 10 397 383 413 426
1269 10 397 383 413 427
1270 4 332 319 320 321
1271 2 332 319 320 351
1272 8 320 319 332 631
1273 8 320 319 332 632
1274 8 320 319 332 633
1275 4 333 319 320 321
1276 4 334 319 320 321
1277 8 332 319 320 335
1278 10 333 319 320 335
1279 8 333 319 320 351
1280 10 333 319 332 631
1281 10 333 319 332 632
1282 10 333 319 332 633
1283 10 334 319 320 335
1284 8 334 319 320 351
1285 10 334 319 332 631
1286 10 334 319 332 632
1287 10 334 319 332 633
1288 4 352 382 383 384
1289 2 352 382 383 413
1290 8 352 382 383 397
1291 10 395 382 383 397
1292 8 395 382 383 413
1293 10 396 382 383 397
1294 8 396 382 383 413
1295 1 351 352 353 354
1296 1 351 352 353 363
1297 2 351 352 382 383
1298 4 353 352 382 383
1299 8 351 352 382 395
1300 8 351 352 382 396
1301 4 353 352 351 364
1302 4 353 352 351 365
1303 4 353 352 382 395
1304 4 353 352 382 396
1305 8 366 352 382 383
1306 10 366 352 382 395
1307 10 366 352 382 396
1308 3 352 353 354 355
1309 3 352 353 363 362
1310 1 354 353 352 382
1311 3 354 353 363 362
1312 1 363 353 352 382
1313 3 352 353 354 367
1314 3 352 353 363 381
1315 9 354 353 352 366
1316 5 354 353 352 366
1317 3 354 353 363 381
1318 9 363 353 352 366
1319 5 363 353 352 366
1320 3 363 353 354 367
1321 1 319 320 321 322
1322 1 319 320 321 331
1323 2 319 320 351 352
1324 4 321 320 351 352
1325 8 319 320 351 364
1326 8 319 320 351 365
1327 4 321 320 351 364
1328 4 321 320 351 365
1329 8 335 320 351 352
1330 10 335 320 351 364
1331 10 335 320 351 365
1332 4 320 351 352 353
1333 2 320 351 352 382
1334 8 320 351 352 366
1335 10 364 351 352 366
1336 8 364 351 352 382
1337 10 365 351 352 366
1338 8 365 351 352 382
1339 3 353 354 355 356
1340 3 355 354 353 363
1341 3 353 354 355 368
1342 3 367 354 355 368
1343 3 353 363 362 356
1344 3 353 363 362 380
1345 3 320 321 322 323
1346 3 320 321 331 330
1347 1 322 321 320 351
1348 3 322 321 331 330
1349 1 331 321 320 351
1350 3 320 321 322 336
1351 3 320 321 331 350
1352 9 322 321 320 335
1353 3 322 321 331 350
1354 9 331 321 320 335
1355 5 331 321 320 335
1356 3 331 321 322 336
1357 3 321 331 330 324
1358 3 321 331 330 349
1359 3 324 330 331 350
1360 3 349 330 331 350
1361 3 1238 1239 1240 1241
1362 3 1238 1239 1240 1246
1363 3 1240 1239 1238 1252
1364 5 1239 1240 1241 1242
1365 3 1239 1240 1246 1247
1366 3 1241 1240 1246 1247
1367 5 1239 1240 1241 1254
1368 5 1239 1240 1241 1255
1369 3 1239 1240 1246 1265
1370 3 1241 1240 1239 1253
1371 3 1241 1240 1246 1265
1372 3 1246 1240 1239 1253
1373 5 1246 1240 1241 1254
1374 5 1246 1240 1241 1255
1375 4 1241 1242 1243 1256
1376 4 1241 1242 1243 1257
1377 4 1241 1242 1243 1258
1378 4 1241 1242 1244 1259
1379 4 1241 1242 1244 1260
1380 4 1241 1242 1244 1261
1381 4 1241 1242 1245 1262
1382 4 1241 1242 1245 1263
1383 4 1241 1242 1245 1264
1384 4 1243 1242 1241 1254
1385 4 1243 1242 1241 1255
1386 4 1243 1242 1244 1259
1387 4 1243 1242 1244 1260
1388 4 1243 1242 1244 1261
1389 4 1243 1242 1245 1262
1390 4 1243 1242 1245 1263
1391 4 1243 1242 1245 1264
1392 4 1244 1242 1241 1254
1393 4 1244 1242 1241 1255
1394 4 1244 1242 1243 1256
1395 4 1244 1242 1243 1257
1396 4 1244 1242 1243 1258
1397 4 1244 1242 1245 1262
1398 4 1244 1242 1245 1263
1399 4 1244 1242 1245 1264
1400 4 1245 1242 1241 1254
1401 4 1245 1242 1241 1255
1402 4 1245 1242 1243 1256
1403 4 1245 1242 1243 1257
1404 4 1245 1242 1243 1258
1405 4 1245 1242 1244 1259
1406 4 1245 1242 1244 1260
1407 4 1245 1242 1244 1261
1408 6 1240 1241 1242 1243
1409 7 1240 1241 1242 1243
1410 6 1240 1241 1242 1244
1411 7 1240 1241 1242 1244
1412 6 1240 1241 1242 1245
1413 7 1240 1241 1242 1245
1414 5 1242 1241 1240 1246
1415 4 419 420 421 433
1416 4 419 420 421 434
1417 4 419 420 421 435
1418 4 419 420 422 436
1419 4 419 420 422 437
1420 4 419 420 422 438
1421 4 419 420 423 439
1422 4 419 420 423 440
1423 4 419 420 423 441
1424 4 421 420 419 431
1425 4 421 420 419 432
1426 4 421 420 422 436
1427 4 421 420 422 437
1428 4 421 420 422 438
1429 4 421 420 423 439
1430 4 421 420 423 440
1431 4 421 420 423 441
1432 4 422 420 419 431
1433 4 422 420 419 432
1434 4 422 420 421 433
1435 4 422 420 421 434
1436 4 422 420 421 435
1437 4 422 420 423 439
1438 4 422 420 423 440
1439 4 422 420 423 441
1440 4 423 420 419 431
1441 4 423 420 419 432
1442 4 423 420 421 433
1443 4 423 420 421 434
1444 4 423 420 421 435
1445 4 423 420 422 436
1446 4 423 420 422 437
1447 4 423 420 422 438
1448 6 418 419 420 421
1449 7 418 419 420 421
1450 6 418 419 420 422
1451 7 418 419 420 422
1452 6 418 419 420 423
1453 7 418 419 420 423
1454 5 420 419 418 424
1455 6 1178 1179 1180 1181
1456 7 1178 1179 1180 1181
1457 6 1178 1179 1180 1182
1458 7 1178 1179 1180 1182
1459 6 1178 1179 1180 1183
1460 7 1178 1179 1180 1183
1461 5 1180 1179 1178 1184
1462 3 1237 1247 1246 1240
1463 3 1237 1247 1246 1265
1464 3 321 322 323 324
1465 3 323 322 321 331
1466 3 321 322 323 337
1467 3 336 322 323 337
1468 5 323 324 325 326
1469 3 323 324 330 331
1470 3 325 324 330 331
1471 5 323 324 325 338
1472 5 323 324 325 339
1473 3 323 324 330 349
1474 3 325 324 323 337
1475 3 325 324 330 349
1476 3 330 324 323 337
1477 5 330 324 325 338
1478 5 330 324 325 339
1479 5 1177 1178 1179 1180
1480 3 1177 1178 1184 1185
1481 3 1179 1178 1184 1185
1482 5 1177 1178 1179 1191
1483 5 1177 1178 1179 1192
1484 3 1177 1178 1184 1202
1485 3 1179 1178 1177 1190
1486 3 1179 1178 1184 1202
1487 3 1184 1178 1177 1190
1488 5 1184 1178 1179 1191
1489 5 1184 1178 1179 1192
1490 3 1178 1184 1185 1203
1491 3 1202 1184 1185 1203
1492 3 322 323 324 325
1493 3 322 323 324 330
1494 3 324 323 322 336
1495 6 324 325 326 327
1496 7 324 325 326 327
1497 6 324 325 326 328
1498 7 324 325 326 328
1499 6 324 325 326 329
1500 7 324 325 326 329
1501 5 326 325 324 330
1502 3 1240 1246 1247 1266
1503 3 1265 1246 1247 1266
1504 4 1179 1180 1181 1193
1505 4 1179 1180 1181 1194
1506 4 1179 1180 1181 1195
1507 4 1179 1180 1182 1196
1508 4 1179 1180 1182 1197
1509 4 1179 1180 1182 1198
1510 4 1179 1180 1183 1199
1511 4 1179 1180 1183 1200
1512 4 1179 1180 1183 1201
1513 4 1181 1180 1179 1191
1514 4 1181 1180 1179 1192
1515 4 1181 1180 1182 1196
1516 4 1181 1180 1182 1197
1517 4 1181 1180 1182 1198
1518 4 1181 1180 1183 1199
1519 4 1181 1180 1183 1200
1520 4 1181 1180 1183 1201
1521 4 1182 1180 1179 1191
1522 4 1182 1180 1179 1192
1523 4 1182 1180 1181 1193
1524 4 1182 1180 1181 1194
1525 4 1182 1180 1181 1195
1526 4 1182 1180 1183 1199
1527 4 1182 1180 1183 1200
1528 4 1182 1180 1183 1201
1529 4 1183 1180 1179 1191
1530 4 1183 1180 1179 1192
1531 4 1183 1180 1181 1193
1532 4 1183 1180 1181 1194
1533 4 1183 1180 1181 1195
1534 4 1183 1180 1182 1196
1535 4 1183 1180 1182 1197
1536 4 1183 1180 1182 1198
1537 4 1086 1087 1088 1100
1538 4 1086 1087 1088 1101
1539 4 1086 1087 1088 1102
1540 4 1086 1087 1089 1103
1541 4 1086 1087 1089 1104
1542 4 1086 1087 1089 1105
1543 4 1086 1087 1090 1106
1544 4 1086 1087 1090 1107
1545 4 1086 1087 1090 1108
1546 4 1088 1087 1086 1098
1547 4 1088 1087 1086 1099
1548 4 1088 1087 1089 1103
1549 4 1088 1087 1089 1104
1550 4 1088 1087 1089 1105
1551 4 1088 1087 1090 1106
1552 4 1088 1087 1090 1107
1553 4 1088 1087 1090 1108
1554 4 1089 1087 1086 1098
1555 4 1089 1087 1086 1099
1556 4 1089 1087 1088 1100
1557 4 1089 1087 1088 1101
1558 4 1089 1087 1088 1102
1559 4 1089 1087 1090 1106
1560 4 1089 1087 1090 1107
1561 4 1089 1087 1090 1108
1562 4 1090 1087 1086 1098
1563 4 1090 1087 1086 1099
1564 4 1090 1087 1088 1100
1565 4 1090 1087 1088 1101
1566 4 1090 1087 1088 1102
1567 4 1090 1087 1089 1103
1568 4 1090 1087 1089 1104
1569 4 1090 1087 1089 1105
1570 3 193 199 200 218
1571 3 217 199 200 218
1572 6 193 194 195 196
1573 7 193 194 195 196
1574 6 193 194 195 197
1575 7 193 194 195 197
1576 6 193 194 195 198
1577 7 193 194 195 198
1578 5 195 194 193 199
1579 6 100 101 102 103
1580 7 100 101 102 103
1581 6 100 101 102 104
1582 7 100 101 102 104
1583 6 100 101 102 105
1584 7 100 101 102 105
1585 5 102 101 100 106
1586 4 101 102 103 115
1587 4 101 102 103 116
1588 4 101 102 103 117
1589 4 101 102 104 118
1590 4 101 102 104 119
1591 4 101 102 104 120
1592 4 101 102 105 121
1593 4 101 102 105 122
1594 4 101 102 105 123
1595 4 103 102 101 113
1596 4 103 102 101 114
1597 4 103 102 104 118
1598 4 103 102 104 119
1599 4 103 102 104 120
1600 4 103 102 105 121
1601 4 103 102 105 122
1602 4 103 102 105 123
1603 4 104 102 101 113
1604 4 104 102 101 114
1605 4 104 102 103 115
1606 4 104 102 103 116
1607 4 104 102 103 117
1608 4 104 102 105 121
1609 4 104 102 105 122
1610 4 104 102 105 123
1611 4 105 102 101 113
1612 4 105 102 101 114
1613 4 105 102 103 115
1614 4 105 102 103 116
1615 4 105 102 103 117
1616 4 105 102 104 118
1617 4 105 102 104 119
1618 4 105 102 104 120
1619 5 99 100 101 102
1620 3 99 100 106 107
1621 3 101 100 106 107
1622 5 99 100 101 113
1623 5 99 100 101 114
1624 3 99 100 106 124
1625 3 101 100 99 112
1626 3 101 100 106 124
1627 3 106 100 99 112
1628 5 106 100 101 113
1629 5 106 100 101 114
1630 3 252 253 254 255
1631 3 254 253 252 262
1632 3 252 253 254 267
1633 3 266 253 254 267
1634 3 253 254 255 256
1635 3 253 254 255 261
1636 3 255 254 253 266
1637 3 162 168 169 187
1638 3 186 168 169 187
1639 3 159 169 168 162
1640 3 159 169 168 186
1641 5 254 255 256 257
1642 3 254 255 261 262
1643 3 256 255 261 262
1644 5 254 255 256 268
1645 5 254 255 256 269
1646 3 254 255 261 279
1647 3 256 255 254 267
1648 3 256 255 261 279
1649 3 261 255 254 267
1650 5 261 255 256 268
1651 5 261 255 256 269
1652 3 190 200 199 193
1653 3 190 200 199 217
1654 4 194 195 196 208
1655 4 194 195 196 209
1656 4 194 195 196 210
1657 4 194 195 197 211
1658 4 194 195 197 212
1659 4 194 195 197 213
1660 4 194 195 198 214
1661 4 194 195 198 215
1662 4 194 195 198 216
1663 4 196 195 194 206
1664 4 196 195 194 207
1665 4 196 195 197 211
1666 4 196 195 197 212
1667 4 196 195 197 213
1668 4 196 195 198 214
1669 4 196 195 198 215
1670 4 196 195 198 216
1671 4 197 195 194 206
1672 4 197 195 194 207
1673 4 197 195 196 208
1674 4 197 195 196 209
1675 4 197 195 196 210
1676 4 197 195 198 214
1677 4 197 195 198 215
1678 4 197 195 198 216
1679 4 198 195 194 206
1680 4 198 195 194 207
1681 4 198 195 196 208
1682 4 198 195 196 209
1683 4 198 195 196 210
1684 4 198 195 197 211
1685 4 198 195 197 212
1686 4 198 195 197 213
1687 5 192 193 194 195
1688 3 192 193 199 200
1689 3 194 193 199 200
1690 5 192 193 194 206
1691 5 192 193 194 207
1692 3 192 193 199 217
1693 3 194 193 192 205
1694 3 194 193 199 217
1695 3 199 193 192 205
1696 5 199 193 194 206
1697 5 199 193 194 207
1698 3 191 192 193 194
1699 3 191 192 193 199
1700 3 193 192 191 204
1701 3 189 190 191 192
1702 3 189 190 200 199
1703 1 191 190 189 219
1704 3 191 190 200 199
1705 1 200 190 189 219
1706 3 189 190 191 204
1707 3 189 190 200 218
1708 9 191 190 189 203
1709 5 191 190 189 203
1710 3 191 190 200 218
1711 9 200 190 189 203
1712 5 200 190 189 203
1713 3 200 190 191 204
1714 3 190 191 192 193
1715 3 192 191 190 200
1716 3 190 191 192 205
1717 3 204 191 192 205
1718 4 158 188 189 190
1719 2 158 188 189 219
1720 8 158 188 189 203
1721 10 201 188 189 203
1722 8 201 188 189 219
1723 10 202 188 189 203
1724 8 202 188 189 219
1725 4 189 219 220 221
1726 2 189 219 220 250
1727 8 189 219 220 234
1728 10 232 219 220 234
1729 8 232 219 220 250
1730 10 233 219 220 234
1731 8 233 219 220 250
1732 4 220 250 251 252
1733 2 220 250 251 281
1734 8 220 250 251 265
1735 10 263 250 251 265
1736 8 263 250 251 281
1737 10 264 250 251 265
1738 8 264 250 251 281
1739 3 221 231 230 224
1740 3 221 231 230 248
1741 1 188 189 190 191
1742 1 188 189 190 200
1743 2 188 189 219 220
1744 4 190 189 219 220
1745 8 188 189 219 232
1746 8 188 189 219 233
1747 4 190 189 188 201
1748 4 190 189 188 202
1749 4 190 189 219 232
1750 4 190 189 219 233
1751 8 203 189 219 220
1752 10 203 189 219 232
1753 10 203 189 219 233
1754 1 219 220 221 222
1755 1 219 220 221 231
1756 2 219 220 250 251
1757 4 221 220 250 251
1758 8 219 220 250 263
1759 8 219 220 250 264
1760 4 221 220 219 232
1761 4 221 220 219 233
1762 4 221 220 250 263
1763 4 221 220 250 264
1764 8 234 220 250 251
1765 10 234 220 250 263
1766 10 234 220 250 264
1767 3 220 221 222 223
1768 3 220 221 231 230
1769 1 222 221 220 250
1770 3 222 221 231 230
1771 1 231 221 220 250
1772 3 220 221 222 235
1773 3 220 221 231 249
1774 9 222 221 220 234
1775 5 222 221 220 234
1776 3 222 221 231 249
1777 9 231 221 220 234
1778 5 231 221 220 234
1779 3 231 221 222 235
1780 3 221 222 223 224
1781 3 223 222 221 231
1782 3 221 222 223 236
1783 3 235 222 223 236
1784 1 250 251 252 253
1785 1 250 251 252 262
1786 2 250 251 281 282
1787 4 252 251 281 282
1788 8 250 251 281 294
1789 8 250 251 281 295
1790 4 252 251 250 263
1791 4 252 251 250 264
1792 4 252 251 281 294
1793 4 252 251 281 295
1794 8 265 251 281 282
1795 10 265 251 281 294
1796 10 265 251 281 295
1797 4 251 281 282 283
1798 2 251 281 282 296
1799 8 251 281 282 297
1800 8 294 281 282 296
1801 10 294 281 282 297
1802 8 295 281 282 296
1803 10 295 281 282 297
1804 3 251 252 253 254
1805 3 251 252 262 261
1806 1 253 252 251 281
1807 3 253 252 262 261
1808 1 262 252 251 281
1809 3 251 252 253 266
1810 3 251 252 262 280
1811 9 253 252 251 265
1812 5 253 252 251 265
1813 3 253 252 262 280
1814 9 262 252 251 265
1815 5 262 252 251 265
1816 3 262 252 253 266
1817 3 252 262 261 255
1818 3 252 262 261 279
1819 1 157 158 159 160
1820 1 157 158 159 169
1821 2 157 158 188 189
1822 4 159 158 188 189
1823 8 157 158 188 201
1824 8 157 158 188 202
1825 4 159 158 157 170
1826 4 159 158 157 171
1827 4 159 158 188 201
1828 4 159 158 188 202
1829 8 172 158 188 189
1830 10 172 158 188 201
1831 10 172 158 188 202
1832 3 255 261 262 280
1833 3 279 261 262 280
1834 3 222 223 224 225
1835 3 222 223 224 230
1836 3 224 223 222 235
1837 4 481 482 483 495
1838 4 481 482 483 496
1839 4 481 482 483 497
1840 4 481 482 484 498
1841 4 481 482 484 499
1842 4 481 482 484 500
1843 4 481 482 485 501
1844 4 481 482 485 502
1845 4 481 482 485 503
1846 4 483 482 481 493
1847 4 483 482 481 494
1848 4 483 482 484 498
1849 4 483 482 484 499
1850 4 483 482 484 500
1851 4 483 482 485 501
1852 4 483 482 485 502
1853 4 483 482 485 503
1854 4 484 482 481 493
1855 4 484 482 481 494
1856 4 484 482 483 495
1857 4 484 482 483 496
1858 4 484 482 483 497
1859 4 484 482 485 501
1860 4 484 482 485 502
1861 4 484 482 485 503
1862 4 485 482 481 493
1863 4 485 482 481 494
1864 4 485 482 483 495
1865 4 485 482 483 496
1866 4 485 482 483 497
1867 4 485 482 484 498
1868 4 485 482 484 499
1869 4 485 482 484 500
1870 4 357 358 359 371
1871 4 357 358 359 372
1872 4 357 358 359 373
1873 4 357 358 360 374
1874 4 357 358 360 375
1875 4 357 358 360 376
1876 4 357 358 361 377
1877 4 357 358 361 378
1878 4 357 358 361 379
1879 4 359 358 357 369
1880 4 359 358 357 370
1881 4 359 358 360 374
1882 4 359 358 360 375
1883 4 359 358 360 376
1884 4 359 358 361 377
1885 4 359 358 361 378
1886 4 359 358 361 379
1887 4 360 358 357 369
1888 4 360 358 357 370
1889 4 360 358 359 371
1890 4 360 358 359 372
1891 4 360 358 359 373
1892 4 360 358 361 377
1893 4 360 358 361 378
1894 4 360 358 361 379
1895 4 361 358 357 369
1896 4 361 358 357 370
1897 4 361 358 359 371
1898 4 361 358 359 372
1899 4 361 358 359 373
1900 4 361 358 360 374
1901 4 361 358 360 375
1902 4 361 358 360 376
1903 4 325 326 327 340
1904 4 325 326 327 341
1905 4 325 326 327 342
1906 4 325 326 328 343
1907 4 325 326 328 344
1908 4 325 326 328 345
1909 4 325 326 329 346
1910 4 325 326 329 347
1911 4 325 326 329 348
1912 4 327 326 325 338
1913 4 327 326 325 339
1914 4 327 326 328 343
1915 4 327 326 328 344
1916 4 327 326 328 345
1917 4 327 326 329 346
1918 4 327 326 329 347
1919 4 327 326 329 348
1920 4 328 326 325 338
1921 4 328 326 325 339
1922 4 328 326 327 340
1923 4 328 326 327 341
1924 4 328 326 327 342
1925 4 328 326 329 346
1926 4 328 326 329 347
1927 4 328 326 329 348
1928 4 329 326 325 338
1929 4 329 326 325 339
1930 4 329 326 327 340
1931 4 329 326 327 341
1932 4 329 326 327 342
1933 4 329 326 328 343
1934 4 329 326 328 344
1935 4 329 326 328 345
1936 6 829 830 831 832
1937 7 829 830 831 832
1938 6 829 830 831 833
1939 7 829 830 831 833
1940 6 829 830 831 834
1941 7 829 830 831 834
1942 5 831 830 829 835
1943 3 98 99 100 101
1944 3 98 99 100 106
1945 3 100 99 98 111
1946 3 100 106 107 125
1947 3 124 106 107 125
1948 3 97 98 99 100
1949 3 99 98 97 107
1950 3 97 98 99 112
1951 3 111 98 99 112
1952 3 96 97 98 99
1953 3 96 97 107 106
1954 1 98 97 96 126
1955 3 98 97 107 106
1956 1 107 97 96 126
1957 3 96 97 98 111
1958 3 96 97 107 125
1959 9 98 97 96 110
1960 5 98 97 96 110
1961 3 98 97 107 125
1962 9 107 97 96 110
1963 5 107 97 96 110
1964 3 107 97 98 111
1965 3 97 107 106 100
1966 3 97 107 106 124
1967 1 95 96 97 98
1968 1 95 96 97 107
1969 2 95 96 126 127
1970 4 97 96 126 127
1971 8 95 96 126 139
1972 8 95 96 126 140
1973 4 97 96 95 108
1974 4 97 96 95 109
1975 4 97 96 126 139
1976 4 97 96 126 140
1977 8 110 96 126 127
1978 10 110 96 126 139
1979 10 110 96 126 140
1980 4 65 95 96 97
1981 2 65 95 96 126
1982 8 65 95 96 110
1983 10 108 95 96 110
1984 8 108 95 96 126
1985 10 109 95 96 110
1986 8 109 95 96 126
1987 1 64 65 66 67
1988 1 64 65 66 76
1989 2 64 65 95 96
1990 4 66 65 95 96
1991 8 64 65 95 108
1992 8 64 65 95 109
1993 4 66 65 64 77
1994 4 66 65 64 78
1995 4 66 65 95 108
1996 4 66 65 95 109
1997 8 79 65 95 96
1998 10 79 65 95 108
1999 10 79 65 95 109
2000 4 163 164 165 177
2001 4 163 164 165 178
2002 4 163 164 165 179
2003 4 163 164 166 180
2004 4 163 164 166 181
2005 4 163 164 166 182
2006 4 163 164 167 183
2007 4 163 164 167 184
2008 4 163 164 167 185
2009 4 165 164 163 175
2010 4 165 164 163 176
2011 4 165 164 166 180
2012 4 165 164 166 181
2013 4 165 164 166 182
2014 4 165 164 167 183
2015 4 165 164 167 184
2016 4 165 164 167 185
2017 4 166 164 163 175
2018 4 166 164 163 176
2019 4 166 164 165 177
2020 4 166 164 165 178
2021 4 166 164 165 179
2022 4 166 164 167 183
2023 4 166 164 167 184
2024 4 166 164 167 185
2025 4 167 164 163 175
2026 4 167 164 163 176
2027 4 167 164 165 177
2028 4 167 164 165 178
2029 4 167 164 165 179
2030 4 167 164 166 180
2031 4 167 164 166 181
2032 4 167 164 166 182
2033 6 162 163 164 165
2034 7 162 163 164 165
2035 6 162 163 164 166
2036 7 162 163 164 166
2037 6 162 163 164 167
2038 7 162 163 164 167
2039 5 164 163 162 168
2040 3 158 159 160 161
2041 3 158 159 169 168
2042 1 160 159 158 188
2043 3 160 159 169 168
2044 1 169 159 158 188
2045 3 158 159 160 173
2046 3 158 159 169 187
2047 9 160 159 158 172
2048 5 160 159 158 172
2049 3 160 159 169 187
2050 9 169 159 158 172
2051 5 169 159 158 172
2052 3 169 159 160 173
2053 3 159 160 161 162
2054 3 161 160 159 169
2055 3 159 160 161 174
2056 3 173 160 161 174
2057 5 161 162 163 164
2058 3 161 162 168 169
2059 3 163 162 168 169
2060 5 161 162 163 175
2061 5 161 162 163 176
2062 3 161 162 168 186
2063 3 163 162 161 174
2064 3 163 162 168 186
2065 3 168 162 161 174
2066 5 168 162 163 175
2067 5 168 162 163 176
2068 3 160 161 162 163
2069 3 160 161 162 168
2070 3 162 161 160 173
2071 4 256 257 258 270
2072 4 256 257 258 271
2073 4 256 257 258 272
2074 4 256 257 259 273
2075 4 256 257 259 274
2076 4 256 257 259 275
2077 4 256 257 260 276
2078 4 256 257 260 277
2079 4 256 257 260 278
2080 4 258 257 256 268
2081 4 258 257 256 269
2082 4 258 257 259 273
2083 4 258 257 259 274
2084 4 258 257 259 275
2085 4 258 257 260 276
2086 4 258 257 260 277
2087 4 258 257 260 278
2088 4 259 257 256 268
2089 4 259 257 256 269
2090 4 259 257 258 270
2091 4 259 257 258 271
2092 4 259 257 258 272
2093 4 259 257 260 276
2094 4 259 257 260 277
2095 4 259 257 260 278
2096 4 260 257 256 268
2097 4 260 257 256 269
2098 4 260 257 258 270
2099 4 260 257 258 271
2100 4 260 257 258 272
2101 4 260 257 259 273
2102 4 260 257 259 274
2103 4 260 257 259 275
2104 6 255 256 257 258
2105 7 255 256 257 258
2106 6 255 256 257 259
2107 7 255 256 257 259
2108 6 255 256 257 260
2109 7 255 256 257 260
2110 5 257 256 255 261
2111 4 856 886 887 888
2112 2 856 886 887 917
2113 8 856 886 887 901
2114 10 899 886 887 901
2115 8 899 886 887 917
2116 10 900 886 887 901
2117 8 900 886 887 917
2118 4 830 831 832 844
2119 4 830 831 832 845
2120 4 830 831 832 846
2121 4 830 831 833 847
2122 4 830 831 833 848
2123 4 830 831 833 849
2124 4 830 831 834 850
2125 4 830 831 834 851
2126 4 830 831 834 852
2127 4 832 831 830 842
2128 4 832 831 830 843
2129 4 832 831 833 847
2130 4 832 831 833 848
2131 4 832 831 833 849
2132 4 832 831 834 850
2133 4 832 831 834 851
2134 4 832 831 834 852
2135 4 833 831 830 842
2136 4 833 831 830 843
2137 4 833 831 832 844
2138 4 833 831 832 845
2139 4 833 831 832 846
2140 4 833 831 834 850
2141 4 833 831 834 851
2142 4 833 831 834 852
2143 4 834 831 830 842
2144 4 834 831 830 843
2145 4 834 831 832 844
2146 4 834 831 832 845
2147 4 834 831 832 846
2148 4 834 831 833 847
2149 4 834 831 833 848
2150 4 834 831 833 849
2151 3 827 828 829 830
2152 3 827 828 829 835
2153 3 829 828 827 840
2154 5 828 829 830 831
2155 3 828 829 835 836
2156 3 830 829 835 836
2157 5 828 829 830 842
2158 5 828 829 830 843
2159 3 828 829 835 853
2160 3 830 829 828 841
2161 3 830 829 835 853
2162 3 835 829 828 841
2163 5 835 829 830 842
2164 5 835 829 830 843
2165 3 826 827 828 829
2166 3 828 827 826 836
2167 3 826 827 828 841
2168 3 840 827 828 841
2169 3 889 890 891 892
2170 3 889 890 891 897
2171 3 891 890 889 902
2172 3 888 889 890 891
2173 3 890 889 888 898
2174 3 888 889 890 903
2175 3 902 889 890 903
2176 4 892 893 894 906
2177 4 892 893 894 907
2178 4 892 893 894 908
2179 4 892 893 895 909
2180 4 892 893 895 910
2181 4 892 893 895 911
2182 4 892 893 896 912
2183 4 892 893 896 913
2184 4 892 893 896 914
2185 4 894 893 892 904
2186 4 894 893 892 905
2187 4 894 893 895 909
2188 4 894 893 895 910
2189 4 894 893 895 911
2190 4 894 893 896 912
2191 4 894 893 896 913
2192 4 894 893 896 914
2193 4 895 893 892 904
2194 4 895 893 892 905
2195 4 895 893 894 906
2196 4 895 893 894 907
2197 4 895 893 894 908
2198 4 895 893 896 912
2199 4 895 893 896 913
2200 4 895 893 896 914
2201 4 896 893 892 904
2202 4 896 893 892 905
2203 4 896 893 894 906
2204 4 896 893 894 907
2205 4 896 893 894 908
2206 4 896 893 895 909
2207 4 896 893 895 910
2208 4 896 893 895 911
2209 5 68 69 70 71
2210 3 68 69 75 76
2211 3 70 69 75 76
2212 5 68 69 70 82
2213 5 68 69 70 83
2214 3 68 69 75 93
2215 3 70 69 68 81
2216 3 70 69 75 93
2217 3 75 69 68 81
2218 5 75 69 70 82
2219 5 75 69 70 83
2220 4 127 157 158 159
2221 2 127 157 158 188
2222 8 127 157 158 172
2223 10 170 157 158 172
2224 8 170 157 158 188
2225 10 171 157 158 172
2226 8 171 157 158 188
2227 4 96 126 127 128
2228 2 96 126 127 157
2229 8 96 126 127 141
2230 10 139 126 127 141
2231 8 139 126 127 157
2232 10 140 126 127 141
2233 8 140 126 127 157
2234 1 126 127 128 129
2235 1 126 127 128 138
2236 2 126 127 157 158
2237 4 128 127 157 158
2238 8 126 127 157 170
2239 8 126 127 157 171
2240 4 128 127 126 139
2241 4 128 127 126 140
2242 4 128 127 157 170
2243 4 128 127 157 171
2244 8 141 127 157 158
2245 10 141 127 157 170
2246 10 141 127 157 171
2247 3 128 138 137 131
2248 3 128 138 137 155
2249 3 131 137 138 156
2250 3 155 137 138 156
2251 3 127 128 129 130
2252 3 127 128 138 137
2253 1 129 128 127 157
2254 3 129 128 138 137
2255 1 138 128 127 157
2256 3 127 128 129 142
2257 3 127 128 138 156
2258 9 129 128 127 141
2259 5 129 128 127 141
2260 3 129 128 138 156
2261 9 138 128 127 141
2262 5 138 128 127 141
2263 3 138 128 129 142
2264 3 128 129 130 131
2265 3 130 129 128 138
2266 3 128 129 130 143
2267 3 142 129 130 143
2268 5 130 131 132 133
2269 3 130 131 137 138
2270 3 132 131 137 138
2271 5 130 131 132 144
2272 5 130 131 132 145
2273 3 130 131 137 155
2274 3 132 131 130 143
2275 3 132 131 137 155
2276 3 137 131 130 143
2277 5 137 131 132 144
2278 5 137 131 132 145
2279 3 129 130 131 132
2280 3 129 130 131 137
2281 3 131 130 129 142
2282 3 67 68 69 70
2283 3 67 68 69 75
2284 3 69 68 67 80
2285 3 66 67 68 69
2286 3 68 67 66 76
2287 3 66 67 68 81
2288 3 80 67 68 81
2289 3 65 66 67 68
2290 3 65 66 76 75
2291 1 67 66 65 95
2292 3 67 66 76 75
2293 1 76 66 65 95
2294 3 65 66 67 80
2295 3 65 66 76 94
2296 9 67 66 65 79
2297 5 67 66 65 79
2298 3 67 66 76 94
2299 9 76 66 65 79
2300 5 76 66 65 79
2301 3 76 66 67 80
2302 1 917 918 919 920
2303 1 917 918 919 929
2304 8 917 918 932 952
2305 8 917 918 932 953
2306 8 917 918 932 954
2307 4 919 918 917 930
2308 4 919 918 917 931
2309 4 919 918 932 952
2310 4 919 918 932 953
2311 4 919 918 932 954
2312 10 933 918 932 952
2313 10 933 918 932 953
2314 10 933 918 932 954
2315 3 918 919 920 921
2316 3 918 919 929 928
2317 1 920 919 918 932
2318 3 920 919 929 928
2319 1 929 919 918 932
2320 3 918 919 920 934
2321 3 918 919 929 948
2322 9 920 919 918 933
2323 5 920 919 918 933
2324 3 920 919 929 948
2325 9 929 919 918 933
2326 5 929 919 918 933
2327 3 929 919 920 934
2328 3 919 920 921 922
2329 3 921 920 919 929
2330 3 919 920 921 935
2331 3 934 920 921 935
2332 4 887 917 918 919
2333 2 887 917 918 932
2334 8 887 917 918 933
2335 8 930 917 918 932
2336 10 930 917 918 933
2337 8 931 917 918 932
2338 10 931 917 918 933
2339 3 919 929 928 922
2340 3 919 929 928 947
2341 3 922 928 929 948
2342 3 947 928 929 948
2343 5 921 922 923 924
2344 3 921 922 928 929
2345 3 923 922 928 929
2346 5 921 922 923 936
2347 5 921 922 923 937
2348 3 921 922 928 947
2349 3 923 922 921 935
2350 3 923 922 928 947
2351 3 928 922 921 935
2352 5 928 922 923 936
2353 5 928 922 923 937
2354 6 891 892 893 894
2355 7 891 892 893 894
2356 6 891 892 893 895
2357 7 891 892 893 895
2358 6 891 892 893 896
2359 7 891 892 893 896
2360 5 893 892 891 897
2361 1 886 887 888 889
2362 1 886 887 888 898
2363 2 886 887 917 918
2364 4 888 887 917 918
2365 8 886 887 917 930
2366 8 886 887 917 931
2367 4 888 887 886 899
2368 4 888 887 886 900
2369 4 888 887 917 930
2370 4 888 887 917 931
2371 8 901 887 917 918
2372 10 901 887 917 930
2373 10 901 887 917 931
2374 3 887 888 889 890
2375 3 887 888 898 897
2376 1 889 888 887 917
2377 3 889 888 898 897
2378 1 898 888 887 917
2379 3 887 888 889 902
2380 3 887 888 898 916
2381 9 889 888 887 901
2382 5 889 888 887 901
2383 3 889 888 898 916
2384 9 898 888 887 901
2385 5 898 888 887 901
2386 3 898 888 889 902
2387 5 890 891 892 893
2388 3 890 891 897 898
2389 3 892 891 897 898
2390 5 890 891 892 904
2391 5 890 891 892 905
2392 3 890 891 897 915
2393 3 892 891 890 903
2394 3 892 891 897 915
2395 3 897 891 890 903
2396 5 897 891 892 904
2397 5 897 891 892 905
2398 3 888 898 897 891
2399 3 888 898 897 915
2400 3 891 897 898 916
2401 3 915 897 898 916
2402 6 131 132 133 134
2403 7 131 132 133 134
2404 6 131 132 133 135
2405 7 131 132 133 135
2406 6 131 132 133 136
2407 7 131 132 133 136
2408 5 133 132 131 137
2409 4 132 133 134 146
2410 4 132 133 134 147
2411 4 132 133 134 148
2412 4 132 133 135 149
2413 4 132 133 135 150
2414 4 132 133 135 151
2415 4 132 133 136 152
2416 4 132 133 136 153
2417 4 132 133 136 154
2418 4 134 133 132 144
2419 4 134 133 132 145
2420 4 134 133 135 149
2421 4 134 133 135 150
2422 4 134 133 135 151
2423 4 134 133 136 152
2424 4 134 133 136 153
2425 4 134 133 136 154
2426 4 135 133 132 144
2427 4 135 133 132 145
2428 4 135 133 134 146
2429 4 135 133 134 147
2430 4 135 133 134 148
2431 4 135 133 136 152
2432 4 135 133 136 153
2433 4 135 133 136 154
2434 4 136 133 132 144
2435 4 136 133 132 145
2436 4 136 133 134 146
2437 4 136 133 134 147
2438 4 136 133 134 148
2439 4 136 133 135 149
2440 4 136 133 135 150
2441 4 136 133 135 151
2442 4 675 676 677 689
2443 4 675 676 677 690
2444 4 675 676 677 691
2445 4 675 676 678 692
2446 4 675 676 678 693
2447 4 675 676 678 694
2448 4 675 676 679 695
2449 4 675 676 679 696
2450 4 675 676 679 697
2451 4 677 676 675 687
2452 4 677 676 675 688
2453 4 677 676 678 692
2454 4 677 676 678 693
2455 4 677 676 678 694
2456 4 677 676 679 695
2457 4 677 676 679 696
2458 4 677 676 679 697
2459 4 678 676 675 687
2460 4 678 676 675 688
2461 4 678 676 677 689
2462 4 678 676 677 690
2463 4 678 676 677 691
2464 4 678 676 679 695
2465 4 678 676 679 696
2466 4 678 676 679 697
2467 4 679 676 675 687
2468 4 679 676 675 688
2469 4 679 676 677 689
2470 4 679 676 677 690
2471 4 679 676 677 691
2472 4 679 676 678 692
2473 4 679 676 678 693
2474 4 679 676 678 694
2475 6 674 675 676 677
2476 7 674 675 676 677
2477 6 674 675 676 678
2478 7 674 675 676 678
2479 6 674 675 676 679
2480 7 674 675 676 679
2481 5 676 675 674 680
2482 4 701 731 732 733
2483 2 701 731 732 762
2484 8 701 731 732 746
2485 10 744 731 732 746
2486 8 744 731 732 762
2487 10 745 731 732 746
2488 8 745 731 732 762
2489 4 732 762 763 764
2490 2 732 762 763 793
2491 8 732 762 763 777
2492 10 775 762 763 777
2493 8 775 762 763 793
2494 10 776 762 763 777
2495 8 776 762 763 793
2496 1 731 732 733 734
2497 1 731 732 733 743
2498 2 731 732 762 763
2499 4 733 732 762 763
2500 8 731 732 762 775
2501 8 731 732 762 776
2502 4 733 732 731 744
2503 4 733 732 731 745
2504 4 733 732 762 775
2505 4 733 732 762 776
2506 8 746 732 762 763
2507 10 746 732 762 775
2508 10 746 732 762 776
2509 1 762 763 764 765
2510 1 762 763 764 774
2511 2 762 763 793 794
2512 4 764 763 793 794
2513 8 762 763 793 806
2514 8 762 763 793 807
2515 4 764 763 762 775
2516 4 764 763 762 776
2517 4 764 763 793 806
2518 4 764 763 793 807
2519 8 777 763 793 794
2520 10 777 763 793 806
2521 10 777 763 793 807
2522 3 702 703 704 705
2523 3 704 703 702 712
2524 3 702 703 704 717
2525 3 716 703 704 717
2526 3 703 704 705 706
2527 3 703 704 705 711
2528 3 705 704 703 716
2529 1 700 701 702 703
2530 1 700 701 702 712
2531 2 700 701 731 732
2532 4 702 701 731 732
2533 8 700 701 731 744
2534 8 700 701 731 745
2535 4 702 701 700 713
2536 4 702 701 700 714
2537 4 702 701 731 744
2538 4 702 701 731 745
2539 8 715 701 731 732
2540 10 715 701 731 744
2541 10 715 701 731 745
2542 3 701 702 703 704
2543 3 701 702 712 711
2544 1 703 702 701 731
2545 3 703 702 712 711
2546 1 712 702 701 731
2547 3 701 702 703 716
2548 3 701 702 712 730
2549 9 703 702 701 715
2550 5 703 702 701 715
2551 3 703 702 712 730
2552 9 712 702 701 715
2553 5 712 702 701 715
2554 3 712 702 703 716
2555 3 702 712 711 705
2556 3 702 712 711 729
2557 3 705 711 712 730
2558 3 729 711 712 730
2559 5 704 705 706 707
2560 3 704 705 711 712
2561 3 706 705 711 712
2562 5 704 705 706 718
2563 5 704 705 706 719
2564 3 704 705 711 729
2565 3 706 705 704 717
2566 3 706 705 711 729
2567 3 711 705 704 717
2568 5 711 705 706 718
2569 5 711 705 706 719
2570 3 764 765 766 767
2571 3 766 765 764 774
2572 3 764 765 766 779
2573 3 778 765 766 779
2574 6 705 706 707 708
2575 7 705 706 707 708
2576 6 705 706 707 709
2577 7 705 706 707 709
2578 6 705 706 707 710
2579 7 705 706 707 710
2580 5 707 706 705 711
2581 4 706 707 708 720
2582 4 706 707 708 721
2583 4 706 707 708 722
2584 4 706 707 709 723
2585 4 706 707 709 724
2586 4 706 707 709 725
2587 4 706 707 710 726
2588 4 706 707 710 727
2589 4 706 707 710 728
2590 4 708 707 706 718
2591 4 708 707 706 719
2592 4 708 707 709 723
2593 4 708 707 709 724
2594 4 708 707 709 725
2595 4 708 707 710 726
2596 4 708 707 710 727
2597 4 708 707 710 728
2598 4 709 707 706 718
2599 4 709 707 706 719
2600 4 709 707 708 720
2601 4 709 707 708 721
2602 4 709 707 708 722
2603 4 709 707 710 726
2604 4 709 707 710 727
2605 4 709 707 710 728
2606 4 710 707 706 718
2607 4 710 707 706 719
2608 4 710 707 708 720
2609 4 710 707 708 721
2610 4 710 707 708 722
2611 4 710 707 709 723
2612 4 710 707 709 724
2613 4 710 707 709 725
2614 4 34 64 65 66
2615 2 34 64 65 95
2616 8 34 64 65 79
2617 10 77 64 65 79
2618 8 77 64 65 95
2619 10 78 64 65 79
2620 8 78 64 65 95
2621 4 2 33 34 35
2622 2 2 33 34 64
2623 8 2 33 34 48
2624 10 46 33 34 48
2625 8 46 33 34 64
2626 10 47 33 34 48
2627 8 47 33 34 64
2628 1 33 34 35 36
2629 1 33 34 35 45
2630 2 33 34 64 65
2631 4 35 34 64 65
2632 8 33 34 64 77
2633 8 33 34 64 78
2634 4 35 34 33 46
2635 4 35 34 33 47
2636 4 35 34 64 77
2637 4 35 34 64 78
2638 8 48 34 64 65
2639 10 48 34 64 77
2640 10 48 34 64 78
2641 4 14 1 2 3
2642 2 14 1 2 33
2643 8 2 1 14 313
2644 8 2 1 14 314
2645 8 2 1 14 315
2646 4 15 1 2 3
2647 4 16 1 2 3
2648 8 14 1 2 17
2649 10 15 1 2 17
2650 8 15 1 2 33
2651 10 15 1 14 313
2652 10 15 1 14 314
2653 10 15 1 14 315
2654 10 16 1 2 17
2655 8 16 1 2 33
2656 10 16 1 14 313
2657 10 16 1 14 314
2658 10 16 1 14 315
2659 1 1 2 3 4
2660 1 1 2 3 13
2661 2 1 2 33 34
2662 4 3 2 33 34
2663 8 1 2 33 46
2664 8 1 2 33 47
2665 4 3 2 33 46
2666 4 3 2 33 47
2667 8 17 2 33 34
2668 10 17 2 33 46
2669 10 17 2 33 47
2670 3 2 3 4 5
2671 3 2 3 13 12
2672 1 4 3 2 33
2673 3 4 3 13 12
2674 1 13 3 2 33
2675 3 2 3 4 18
2676 3 2 3 13 32
2677 9 4 3 2 17
2678 3 4 3 13 32
2679 9 13 3 2 17
2680 5 13 3 2 17
2681 3 13 3 4 18
2682 1 824 825 826 827
2683 1 824 825 826 836
2684 2 824 825 855 856
2685 4 826 825 855 856
2686 8 824 825 855 868
2687 8 824 825 855 869
2688 4 826 825 824 837
2689 4 826 825 824 838
2690 4 826 825 855 868
2691 4 826 825 855 869
2692 8 839 825 855 856
2693 10 839 825 855 868
2694 10 839 825 855 869
2695 3 825 826 827 828
2696 3 825 826 836 835
2697 1 827 826 825 855
2698 3 827 826 836 835
2699 1 836 826 825 855
2700 3 825 826 827 840
2701 3 825 826 836 854
2702 9 827 826 825 839
2703 5 827 826 825 839
2704 3 827 826 836 854
2705 9 836 826 825 839
2706 5 836 826 825 839
2707 3 836 826 827 840
2708 1 855 856 857 858
2709 1 855 856 857 867
2710 2 855 856 886 887
2711 4 857 856 886 887
2712 8 855 856 886 899
2713 8 855 856 886 900
2714 4 857 856 855 868
2715 4 857 856 855 869
2716 4 857 856 886 899
2717 4 857 856 886 900
2718 8 870 856 886 887
2719 10 870 856 886 899
2720 10 870 856 886 900
2721 4 794 824 825 826
2722 2 794 824 825 855
2723 8 794 824 825 839
2724 10 837 824 825 839
2725 8 837 824 825 855
2726 10 838 824 825 839
2727 8 838 824 825 855
2728 4 763 793 794 795
2729 2 763 793 794 824
2730 8 763 793 794 808
2731 10 806 793 794 808
2732 8 806 793 794 824
2733 10 807 793 794 808
2734 8 807 793 794 824
2735 1 793 794 795 796
2736 1 793 794 795 805
2737 2 793 794 824 825
2738 4 795 794 824 825
2739 8 793 794 824 837
2740 8 793 794 824 838
2741 4 795 794 793 806
2742 4 795 794 793 807
2743 4 795 794 824 837
2744 4 795 794 824 838
2745 8 808 794 824 825
2746 10 808 794 824 837
2747 10 808 794 824 838
2748 3 796 797 798 799
2749 3 796 797 798 804
2750 3 798 797 796 809
2751 3 795 796 797 798
2752 3 797 796 795 805
2753 3 795 796 797 810
2754 3 809 796 797 810
2755 3 794 795 796 797
2756 3 794 795 805 804
2757 1 796 795 794 824
2758 3 796 795 805 804
2759 1 805 795 794 824
2760 3 794 795 796 809
2761 3 794 795 805 823
2762 9 796 795 794 808
2763 5 796 795 794 808
2764 3 796 795 805 823
2765 9 805 795 794 808
2766 5 805 795 794 808
2767 3 805 795 796 809
2768 3 795 805 804 798
2769 3 795 805 804 822
2770 4 825 855 856 857
2771 2 825 855 856 886
2772 8 825 855 856 870
2773 10 868 855 856 870
2774 8 868 855 856 886
2775 10 869 855 856 870
2776 8 869 855 856 886
2777 3 829 835 836 854
2778 3 853 835 836 854
2779 3 826 836 835 829
2780 3 826 836 835 853
2781 3 763 764 765 766
2782 3 763 764 774 773
2783 1 765 764 763 793
2784 3 765 764 774 773
2785 1 774 764 763 793
2786 3 763 764 765 778
2787 3 763 764 774 792
2788 9 765 764 763 777
2789 5 765 764 763 777
2790 3 765 764 774 792
2791 9 774 764 763 777
2792 5 774 764 763 777
2793 3 774 764 765 778
2794 3 764 774 773 767
2795 3 764 774 773 791
2796 3 765 766 767 768
2797 3 765 766 767 773
2798 3 767 766 765 778
2799 5 766 767 768 769
2800 3 766 767 773 774
2801 3 768 767 773 774
2802 5 766 767 768 780
2803 5 766 767 768 781
2804 3 766 767 773 791
2805 3 768 767 766 779
2806 3 768 767 773 791
2807 3 773 767 766 779
2808 5 773 767 768 780
2809 5 773 767 768 781
2810 3 767 773 774 792
2811 3 791 773 774 792
2812 6 767 768 769 770
2813 7 767 768 769 770
2814 6 767 768 769 771
2815 7 767 768 769 771
2816 6 767 768 769 772
2817 7 767 768 769 772
2818 5 769 768 767 773
2819 3 856 857 858 859
2820 3 856 857 867 866
2821 1 858 857 856 886
2822 3 858 857 867 866
2823 1 867 857 856 886
2824 3 856 857 858 871
2825 3 856 857 867 885
2826 9 858 857 856 870
2827 5 858 857 856 870
2828 3 858 857 867 885
2829 9 867 857 856 870
2830 5 867 857 856 870
2831 3 867 857 858 871
2832 3 857 858 859 860
2833 3 859 858 857 867
2834 3 857 858 859 872
2835 3 871 858 859 872
2836 4 768 769 770 782
2837 4 768 769 770 783
2838 4 768 769 770 784
2839 4 768 769 771 785
2840 4 768 769 771 786
2841 4 768 769 771 787
2842 4 768 769 772 788
2843 4 768 769 772 789
2844 4 768 769 772 790
2845 4 770 769 768 780
2846 4 770 769 768 781
2847 4 770 769 771 785
2848 4 770 769 771 786
2849 4 770 769 771 787
2850 4 770 769 772 788
2851 4 770 769 772 789
2852 4 770 769 772 790
2853 4 771 769 768 780
2854 4 771 769 768 781
2855 4 771 769 770 782
2856 4 771 769 770 783
2857 4 771 769 770 784
2858 4 771 769 772 788
2859 4 771 769 772 789
2860 4 771 769 772 790
2861 4 772 769 768 780
2862 4 772 769 768 781
2863 4 772 769 770 782
2864 4 772 769 770 783
2865 4 772 769 770 784
2866 4 772 769 771 785
2867 4 772 769 771 786
2868 4 772 769 771 787
2869 3 69 75 76 94
2870 3 93 75 76 94
2871 6 69 70 71 72
2872 7 69 70 71 72
2873 6 69 70 71 73
2874 7 69 70 71 73
2875 6 69 70 71 74
2876 7 69 70 71 74
2877 5 71 70 69 75
2878 4 70 71 72 84
2879 4 70 71 72 85
2880 4 70 71 72 86
2881 4 70 71 73 87
2882 4 70 71 73 88
2883 4 70 71 73 89
2884 4 70 71 74 90
2885 4 70 71 74 91
2886 4 70 71 74 92
2887 4 72 71 70 82
2888 4 72 71 70 83
2889 4 72 71 73 87
2890 4 72 71 73 88
2891 4 72 71 73 89
2892 4 72 71 74 90
2893 4 72 71 74 91
2894 4 72 71 74 92
2895 4 73 71 70 82
2896 4 73 71 70 83
2897 4 73 71 72 84
2898 4 73 71 72 85
2899 4 73 71 72 86
2900 4 73 71 74 90
2901 4 73 71 74 91
2902 4 73 71 74 92
2903 4 74 71 70 82
2904 4 74 71 70 83
2905 4 74 71 72 84
2906 4 74 71 72 85
2907 4 74 71 72 86
2908 4 74 71 73 87
2909 4 74 71 73 88
2910 4 74 71 73 89
2911 3 66 76 75 69
2912 3 66 76 75 93
2913 3 35 45 44 38
2914 3 35 45 44 62
2915 5 37 38 39 40
2916 3 37 38 44 45
2917 3 39 38 44 45
2918 5 37 38 39 51
2919 5 37 38 39 52
2920 3 37 38 44 62
2921 3 39 38 37 50
2922 3 39 38 44 62
2923 3 44 38 37 50
2924 5 44 38 39 51
2925 5 44 38 39 52
2926 3 34 35 36 37
2927 3 34 35 45 44
2928 1 36 35 34 64
2929 3 36 35 45 44
2930 1 45 35 34 64
2931 3 34 35 36 49
2932 3 34 35 45 63
2933 9 36 35 34 48
2934 5 36 35 34 48
2935 3 36 35 45 63
2936 9 45 35 34 48
2937 5 45 35 34 48
2938 3 45 35 36 49
2939 3 35 36 37 38
2940 3 37 36 35 45
2941 3 35 36 37 50
2942 3 49 36 37 50
2943 3 36 37 38 39
2944 3 36 37 38 44
2945 3 38 37 36 49
2946 3 38 44 45 63
2947 3 62 44 45 63
2948 6 38 39 40 41
2949 7 38 39 40 41
2950 6 38 39 40 42
2951 7 38 39 40 42
2952 6 38 39 40 43
2953 7 38 39 40 43
2954 5 40 39 38 44
2955 4 39 40 41 53
2956 4 39 40 41 54
2957 4 39 40 41 55
2958 4 39 40 42 56
2959 4 39 40 42 57
2960 4 39 40 42 58
2961 4 39 40 43 59
2962 4 39 40 43 60
2963 4 39 40 43 61
2964 4 41 40 39 51
2965 4 41 40 39 52
2966 4 41 40 42 56
2967 4 41 40 42 57
2968 4 41 40 42 58
2969 4 41 40 43 59
2970 4 41 40 43 60
2971 4 41 40 43 61
2972 4 42 40 39 51
2973 4 42 40 39 52
2974 4 42 40 41 53
2975 4 42 40 41 54
2976 4 42 40 41 55
2977 4 42 40 43 59
2978 4 42 40 43 60
2979 4 42 40 43 61
2980 4 43 40 39 51
2981 4 43 40 39 52
2982 4 43 40 41 53
2983 4 43 40 41 54
2984 4 43 40 41 55
2985 4 43 40 42 56
2986 4 43 40 42 57
2987 4 43 40 42 58
2988 3 3 4 5 6
2989 3 5 4 3 13
2990 3 3 4 5 19
2991 3 18 4 5 19
2992 3 920 921 922 923
2993 3 920 921 922 928
2994 3 922 921 920 934
2995 6 922 923 924 925
2996 7 922 923 924 925
2997 6 922 923 924 926
2998 7 922 923 924 926
2999 6 922 923 924 927
3000 7 922 923 924 927
3001 5 924 923 922 928
3002 3 857 867 866 860
3003 3 857 867 866 884
3004 3 860 866 867 885
3005 3 884 866 867 885
3006 5 859 860 861 862
3007 3 859 860 866 867
3008 3 861 860 866 867
3009 5 859 860 861 873
3010 5 859 860 861 874
3011 3 859 860 866 884
3012 3 861 860 859 872
3013 3 861 860 866 884
3014 3 866 860 859 872
3015 5 866 860 861 873
3016 5 866 860 861 874
3017 3 858 859 860 861
3018 3 858 859 860 866
3019 3 860 859 858 871
3020 6 860 861 862 863
3021 7 860 861 862 863
3022 6 860 861 862 864
3023 7 860 861 862 864
3024 6 860 861 862 865
3025 7 860 861 862 865
3026 5 862 861 860 866
3027 4 861 862 863 875
3028 4 861 862 863 876
3029 4 861 862 863 877
3030 4 861 862 864 878
3031 4 861 862 864 879
3032 4 861 862 864 880
3033 4 861 862 865 881
3034 4 861 862 865 882
3035 4 861 862 865 883
3036 4 863 862 861 873
3037 4 863 862 861 874
3038 4 863 862 864 878
3039 4 863 862 864 879
3040 4 863 862 864 880
3041 4 863 862 865 881
3042 4 863 862 865 882
3043 4 863 862 865 883
3044 4 864 862 861 873
3045 4 864 862 861 874
3046 4 864 862 863 875
3047 4 864 862 863 876
3048 4 864 862 863 877
3049 4 864 862 865 881
3050 4 864 862 865 882
3051 4 864 862 865 883
3052 4 865 862 861 873
3053 4 865 862 861 874
3054 4 865 862 863 875
3055 4 865 862 863 876
3056 4 865 862 863 877
3057 4 865 862 864 878
3058 4 865 862 864 879
3059 4 865 862 864 880
3060 4 923 924 925 938
3061 4 923 924 925 939
3062 4 923 924 925 940
3063 4 923 924 926 941
3064 4 923 924 926 942
3065 4 923 924 926 943
3066 4 923 924 927 944
3067 4 923 924 927 945
3068 4 923 924 927 946
3069 4 925 924 923 936
3070 4 925 924 923 937
3071 4 925 924 926 941
3072 4 925 924 926 942
3073 4 925 924 926 943
3074 4 925 924 927 944
3075 4 925 924 927 945
3076 4 925 924 927 946
3077 4 926 924 923 936
3078 4 926 924 923 937
3079 4 926 924 925 938
3080 4 926 924 925 939
3081 4 926 924 925 940
3082 4 926 924 927 944
3083 4 926 924 927 945
3084 4 926 924 927 946
3085 4 927 924 923 936
3086 4 927 924 923 937
3087 4 927 924 925 938
3088 4 927 924 925 939
3089 4 927 924 925 940
3090 4 927 924 926 941
3091 4 927 924 926 942
3092 4 927 924 926 943
3093 4 643 644 645 658
3094 4 643 644 645 659
3095 4 643 644 645 660
3096 4 643 644 646 661
3097 4 643 644 646 662
3098 4 643 644 646 663
3099 4 643 644 647 664
3100 4 643 644 647 665
3101 4 643 644 647 666
3102 4 645 644 643 656
3103 4 645 644 643 657
3104 4 645 644 646 661
3105 4 645 644 646 662
3106 4 645 644 646 663
3107 4 645 644 647 664
3108 4 645 644 647 665
3109 4 645 644 647 666
3110 4 646 644 643 656
3111 4 646 644 643 657
3112 4 646 644 645 658
3113 4 646 644 645 659
3114 4 646 644 645 660
3115 4 646 644 647 664
3116 4 646 644 647 665
3117 4 646 644 647 666
3118 4 647 644 643 656
3119 4 647 644 643 657
3120 4 647 644 645 658
3121 4 647 644 645 659
3122 4 647 644 645 660
3123 4 647 644 646 661
3124 4 647 644 646 662
3125 4 647 644 646 663
3126 6 642 643 644 645
3127 7 642 643 644 645
3128 6 642 643 644 646
3129 7 642 643 644 646
3130 6 642 643 644 647
3131 7 642 643 644 647
3132 5 644 643 642 648
3133 5 641 642 643 644
3134 3 641 642 648 649
3135 3 643 642 648 649
3136 5 641 642 643 656
3137 5 641 642 643 657
3138 3 641 642 648 667
3139 3 643 642 641 655
3140 3 643 642 648 667
3141 3 648 642 641 655
3142 5 648 642 643 656
3143 5 648 642 643 657
3144 3 642 648 649 668
3145 3 667 648 649 668
3146 3 1276 1277 1278 1279
3147 3 1276 1277 1278 1284
3148 3 1278 1277 1276 1290
3149 4 1279 1280 1281 1294
3150 4 1279 1280 1281 1295
3151 4 1279 1280 1281 1296
3152 4 1279 1280 1282 1297
3153 4 1279 1280 1282 1298
3154 4 1279 1280 1282 1299
3155 4 1279 1280 1283 1300
3156 4 1279 1280 1283 1301
3157 4 1279 1280 1283 1302
3158 4 1281 1280 1279 1292
3159 4 1281 1280 1279 1293
3160 4 1281 1280 1282 1297
3161 4 1281 1280 1282 1298
3162 4 1281 1280 1282 1299
3163 4 1281 1280 1283 1300
3164 4 1281 1280 1283 1301
3165 4 1281 1280 1283 1302
3166 4 1282 1280 1279 1292
3167 4 1282 1280 1279 1293
3168 4 1282 1280 1281 1294
3169 4 1282 1280 1281 1295
3170 4 1282 1280 1281 1296
3171 4 1282 1280 1283 1300
3172 4 1282 1280 1283 1301
3173 4 1282 1280 1283 1302
3174 4 1283 1280 1279 1292
3175 4 1283 1280 1279 1293
3176 4 1283 1280 1281 1294
3177 4 1283 1280 1281 1295
3178 4 1283 1280 1281 1296
3179 4 1283 1280 1282 1297
3180 4 1283 1280 1282 1298
3181 4 1283 1280 1282 1299
3182 6 1278 1279 1280 1281
3183 7 1278 1279 1280 1281
3184 6 1278 1279 1280 1282
3185 7 1278 1279 1280 1282
3186 6 1278 1279 1280 1283
3187 7 1278 1279 1280 1283
3188 5 1280 1279 1278 1284
3189 5 1277 1278 1279 1280
3190 3 1277 1278 1284 1285
3191 3 1279 1278 1284 1285
3192 5 1277 1278 1279 1292
3193 5 1277 1278 1279 1293
3194 3 1277 1278 1284 1303
3195 3 1279 1278 1277 1291
3196 3 1279 1278 1284 1303
3197 3 1284 1278 1277 1291
3198 5 1284 1278 1279 1292
3199 5 1284 1278 1279 1293
3200 3 1278 1284 1285 1304
3201 3 1303 1284 1285 1304
3202 3 1275 1276 1277 1278
3203 3 1277 1276 1275 1285
3204 3 1275 1276 1277 1291
3205 3 1290 1276 1277 1291
3206 3 1275 1285 1284 1278
3207 3 1275 1285 1284 1303
3208 3 1274 1275 1276 1277
3209 3 1274 1275 1285 1284
3210 1 1276 1275 1274 1305
3211 3 1276 1275 1285 1284
3212 1 1285 1275 1274 1305
3213 3 1274 1275 1276 1290
3214 3 1274 1275 1285 1304
3215 9 1276 1275 1274 1289
3216 3 1276 1275 1285 1304
3217 9 1285 1275 1274 1289
3218 5 1285 1275 1274 1289
3219 3 1285 1275 1276 1290
3220 3 1308 1309 1310 1311
3221 3 1308 1309 1310 1316
3222 3 1310 1309 1308 1321
3223 3 1307 1308 1309 1310
3224 3 1309 1308 1307 1317
3225 3 1307 1308 1309 1322
3226 3 1321 1308 1309 1322
3227 4 1286 1273 1274 1275
3228 2 1286 1273 1274 1305
3229 8 1274 1273 1286 1585
3230 8 1274 1273 1286 1586
3231 8 1274 1273 1286 1587
3232 4 1287 1273 1274 1275
3233 4 1288 1273 1274 1275
3234 8 1286 1273 1274 1289
3235 10 1287 1273 1274 1289
3236 8 1287 1273 1274 1305
3237 10 1287 1273 1286 1585
3238 10 1287 1273 1286 1586
3239 10 1287 1273 1286 1587
3240 10 1288 1273 1274 1289
3241 8 1288 1273 1274 1305
3242 10 1288 1273 1286 1585
3243 10 1288 1273 1286 1586
3244 10 1288 1273 1286 1587
3245 1 1273 1274 1275 1276
3246 1 1273 1274 1275 1285
3247 2 1273 1274 1305 1306
3248 4 1275 1274 1305 1306
3249 8 1273 1274 1305 1318
3250 8 1273 1274 1305 1319
3251 4 1275 1274 1305 1318
3252 4 1275 1274 1305 1319
3253 8 1289 1274 1305 1306
3254 10 1289 1274 1305 1318
3255 10 1289 1274 1305 1319
3256 4 1274 1305 1306 1307
3257 2 1274 1305 1306 1336
3258 8 1274 1305 1306 1320
3259 10 1318 1305 1306 1320
3260 8 1318 1305 1306 1336
3261 10 1319 1305 1306 1320
3262 8 1319 1305 1306 1336
3263 3 1307 1317 1316 1310
3264 3 1307 1317 1316 1334
3265 3 1310 1316 1317 1335
3266 3 1334 1316 1317 1335
3267 1 1305 1306 1307 1308
3268 1 1305 1306 1307 1317
3269 2 1305 1306 1336 1337
3270 4 1307 1306 1336 1337
3271 8 1305 1306 1336 1349
3272 8 1305 1306 1336 1350
3273 4 1307 1306 1305 1318
3274 4 1307 1306 1305 1319
3275 4 1307 1306 1336 1349
3276 4 1307 1306 1336 1350
3277 8 1320 1306 1336 1337
3278 10 1320 1306 1336 1349
3279 10 1320 1306 1336 1350
3280 3 1306 1307 1308 1309
3281 3 1306 1307 1317 1316
3282 1 1308 1307 1306 1336
3283 3 1308 1307 1317 1316
3284 1 1317 1307 1306 1336
3285 3 1306 1307 1308 1321
3286 3 1306 1307 1317 1335
3287 9 1308 1307 1306 1320
3288 5 1308 1307 1306 1320
3289 3 1308 1307 1317 1335
3290 9 1317 1307 1306 1320
3291 5 1317 1307 1306 1320
3292 3 1317 1307 1308 1321
3293 5 1309 1310 1311 1312
3294 3 1309 1310 1316 1317
3295 3 1311 1310 1316 1317
3296 5 1309 1310 1311 1323
3297 5 1309 1310 1311 1324
3298 3 1309 1310 1316 1334
3299 3 1311 1310 1309 1322
3300 3 1311 1310 1316 1334
3301 3 1316 1310 1309 1322
3302 5 1316 1310 1311 1323
3303 5 1316 1310 1311 1324
3304 4 1311 1312 1313 1325
3305 4 1311 1312 1313 1326
3306 4 1311 1312 1313 1327
3307 4 1311 1312 1314 1328
3308 4 1311 1312 1314 1329
3309 4 1311 1312 1314 1330
3310 4 1311 1312 1315 1331
3311 4 1311 1312 1315 1332
3312 4 1311 1312 1315 1333
3313 4 1313 1312 1311 1323
3314 4 1313 1312 1311 1324
3315 4 1313 1312 1314 1328
3316 4 1313 1312 1314 1329
3317 4 1313 1312 1314 1330
3318 4 1313 1312 1315 1331
3319 4 1313 1312 1315 1332
3320 4 1313 1312 1315 1333
3321 4 1314 1312 1311 1323
3322 4 1314 1312 1311 1324
3323 4 1314 1312 1313 1325
3324 4 1314 1312 1313 1326
3325 4 1314 1312 1313 1327
3326 4 1314 1312 1315 1331
3327 4 1314 1312 1315 1332
3328 4 1314 1312 1315 1333
3329 4 1315 1312 1311 1323
3330 4 1315 1312 1311 1324
3331 4 1315 1312 1313 1325
3332 4 1315 1312 1313 1326
3333 4 1315 1312 1313 1327
3334 4 1315 1312 1314 1328
3335 4 1315 1312 1314 1329
3336 4 1315 1312 1314 1330
3337 6 1310 1311 1312 1313
3338 7 1310 1311 1312 1313
3339 6 1310 1311 1312 1314
3340 7 1310 1311 1312 1314
3341 6 1310 1311 1312 1315
3342 7 1310 1311 1312 1315
3343 5 1312 1311 1310 1316
3344 3 640 641 642 643
3345 3 640 641 642 648
3346 3 642 641 640 654
3347 3 639 640 641 642
3348 3 641 640 639 649
3349 3 639 640 641 655
3350 3 654 640 641 655
3351 3 639 649 648 642
3352 3 639 649 648 667
3353 3 638 639 640 641
3354 3 638 639 649 648
3355 1 640 639 638 669
3356 3 640 639 649 648
3357 1 649 639 638 669
3358 3 638 639 640 654
3359 3 638 639 649 668
3360 9 640 639 638 653
3361 3 640 639 649 668
3362 9 649 639 638 653
3363 5 649 639 638 653
3364 3 649 639 640 654
3365 1 637 638 639 640
3366 1 637 638 639 649
3367 2 637 638 669 670
3368 4 639 638 669 670
3369 8 637 638 669 682
3370 8 637 638 669 683
3371 4 639 638 669 682
3372 4 639 638 669 683
3373 8 653 638 669 670
3374 10 653 638 669 682
3375 10 653 638 669 683
3376 5 673 674 675 676
3377 3 673 674 680 681
3378 3 675 674 680 681
3379 5 673 674 675 687
3380 5 673 674 675 688
3381 3 673 674 680 698
3382 3 675 674 673 686
3383 3 675 674 680 698
3384 3 680 674 673 686
3385 5 680 674 675 687
3386 5 680 674 675 688
3387 3 674 680 681 699
3388 3 698 680 681 699
3389 3 670 671 672 673
3390 3 670 671 681 680
3391 1 672 671 670 700
3392 3 672 671 681 680
3393 1 681 671 670 700
3394 3 670 671 672 685
3395 3 670 671 681 699
3396 9 672 671 670 684
3397 5 672 671 670 684
3398 3 672 671 681 699
3399 9 681 671 670 684
3400 5 681 671 670 684
3401 3 681 671 672 685
3402 3 672 673 674 675
3403 3 672 673 674 680
3404 3 674 673 672 685
3405 3 671 672 673 674
3406 3 673 672 671 681
3407 3 671 672 673 686
3408 3 685 672 673 686
3409 4 638 669 670 671
3410 2 638 669 670 700
3411 8 638 669 670 684
3412 10 682 669 670 684
3413 8 682 669 670 700
3414 10 683 669 670 684
3415 8 683 669 670 700
3416 1 669 670 671 672
3417 1 669 670 671 681
3418 2 669 670 700 701
3419 4 671 670 700 701
3420 8 669 670 700 713
3421 8 669 670 700 714
3422 4 671 670 669 682
3423 4 671 670 669 683
3424 4 671 670 700 713
3425 4 671 670 700 714
3426 8 684 670 700 701
3427 10 684 670 700 713
3428 10 684 670 700 714
3429 3 671 681 680 674
3430 3 671 681 680 698
3431 4 670 700 701 702
3432 2 670 700 701 731
3433 8 670 700 701 715
3434 10 713 700 701 715
3435 8 713 700 701 731
3436 10 714 700 701 715
3437 8 714 700 701 731
3438 4 1497 1498 1499 1511
3439 4 1497 1498 1499 1512
3440 4 1497 1498 1499 1513
3441 4 1497 1498 1500 1514
3442 4 1497 1498 1500 1515
3443 4 1497 1498 1500 1516
3444 4 1497 1498 1501 1517
3445 4 1497 1498 1501 1518
3446 4 1497 1498 1501 1519
3447 4 1499 1498 1497 1509
3448 4 1499 1498 1497 1510
3449 4 1499 1498 1500 1514
3450 4 1499 1498 1500 1515
3451 4 1499 1498 1500 1516
3452 4 1499 1498 1501 1517
3453 4 1499 1498 1501 1518
3454 4 1499 1498 1501 1519
3455 4 1500 1498 1497 1509
3456 4 1500 1498 1497 1510
3457 4 1500 1498 1499 1511
3458 4 1500 1498 1499 1512
3459 4 1500 1498 1499 1513
3460 4 1500 1498 1501 1517
3461 4 1500 1498 1501 1518
3462 4 1500 1498 1501 1519
3463 4 1501 1498 1497 1509
3464 4 1501 1498 1497 1510
3465 4 1501 1498 1499 1511
3466 4 1501 1498 1499 1512
3467 4 1501 1498 1499 1513
3468 4 1501 1498 1500 1514
3469 4 1501 1498 1500 1515
3470 4 1501 1498 1500 1516
3471 6 1496 1497 1498 1499
3472 7 1496 1497 1498 1499
3473 6 1496 1497 1498 1500
3474 7 1496 1497 1498 1500
3475 6 1496 1497 1498 1501
3476 7 1496 1497 1498 1501
3477 5 1498 1497 1496 1502
3478 3 733 734 735 736
3479 3 735 734 733 743
3480 3 733 734 735 748
3481 3 747 734 735 748
3482 3 734 735 736 737
3483 3 734 735 736 742
3484 3 736 735 734 747
3485 3 732 733 734 735
3486 3 732 733 743 742
3487 1 734 733 732 762
3488 3 734 733 743 742
3489 1 743 733 732 762
3490 3 732 733 734 747
3491 3 732 733 743 761
3492 9 734 733 732 746
3493 5 734 733 732 746
3494 3 734 733 743 761
3495 9 743 733 732 746
3496 5 743 733 732 746
3497 3 743 733 734 747
3498 5 735 736 737 738
3499 3 735 736 742 743
3500 3 737 736 742 743
3501 5 735 736 737 749
3502 5 735 736 737 750
3503 3 735 736 742 760
3504 3 737 736 735 748
3505 3 737 736 742 760
3506 3 742 736 735 748
3507 5 742 736 737 749
3508 5 742 736 737 750
3509 6 736 737 738 739
3510 7 736 737 738 739
3511 6 736 737 738 740
3512 7 736 737 738 740
3513 6 736 737 738 741
3514 7 736 737 738 741
3515 5 738 737 736 742
3516 3 733 743 742 736
3517 3 733 743 742 760
3518 3 736 742 743 761
3519 3 760 742 743 761
3520 4 737 738 739 751
3521 4 737 738 739 752
3522 4 737 738 739 753
3523 4 737 738 740 754
3524 4 737 738 740 755
3525 4 737 738 740 756
3526 4 737 738 741 757
3527 4 737 738 741 758
3528 4 737 738 741 759
3529 4 739 738 737 749
3530 4 739 738 737 750
3531 4 739 738 740 754
3532 4 739 738 740 755
3533 4 739 738 740 756
3534 4 739 738 741 757
3535 4 739 738 741 758
3536 4 739 738 741 759
3537 4 740 738 737 749
3538 4 740 738 737 750
3539 4 740 738 739 751
3540 4 740 738 739 752
3541 4 740 738 739 753
3542 4 740 738 741 757
3543 4 740 738 741 758
3544 4 740 738 741 759
3545 4 741 738 737 749
3546 4 741 738 737 750
3547 4 741 738 739 751
3548 4 741 738 739 752
3549 4 741 738 739 753
3550 4 741 738 740 754
3551 4 741 738 740 755
3552 4 741 738 740 756
3553 3 3 13 12 6
3554 3 3 13 12 31
3555 3 6 12 13 32
3556 3 31 12 13 32
3557 3 798 804 805 823
3558 3 822 804 805 823
3559 5 797 798 799 800
3560 3 797 798 804 805
3561 3 799 798 804 805
3562 5 797 798 799 811
3563 5 797 798 799 812
3564 3 797 798 804 822
3565 3 799 798 797 810
3566 3 799 798 804 822
3567 3 804 798 797 810
3568 5 804 798 799 811
3569 5 804 798 799 812
3570 4 799 800 801 813
3571 4 799 800 801 814
3572 4 799 800 801 815
3573 4 799 800 802 816
3574 4 799 800 802 817
3575 4 799 800 802 818
3576 4 799 800 803 819
3577 4 799 800 803 820
3578 4 799 800 803 821
3579 4 801 800 799 811
3580 4 801 800 799 812
3581 4 801 800 802 816
3582 4 801 800 802 817
3583 4 801 800 802 818
3584 4 801 800 803 819
3585 4 801 800 803 820
3586 4 801 800 803 821
3587 4 802 800 799 811
3588 4 802 800 799 812
3589 4 802 800 801 813
3590 4 802 800 801 814
3591 4 802 800 801 815
3592 4 802 800 803 819
3593 4 802 800 803 820
3594 4 802 800 803 821
3595 4 803 800 799 811
3596 4 803 800 799 812
3597 4 803 800 801 813
3598 4 803 800 801 814
3599 4 803 800 801 815
3600 4 803 800 802 816
3601 4 803 800 802 817
3602 4 803 800 802 818
3603 6 798 799 800 801
3604 7 798 799 800 801
3605 6 798 799 800 802
3606 7 798 799 800 802
3607 6 798 799 800 803
3608 7 798 799 800 803
3609 5 800 799 798 804
3610 5 5 6 7 8
3611 3 5 6 12 13
3612 3 7 6 12 13
3613 5 5 6 7 20
3614 5 5 6 7 21
3615 3 5 6 12 31
3616 3 7 6 5 19
3617 3 7 6 12 31
3618 3 12 6 5 19
3619 5 12 6 7 20
3620 5 12 6 7 21
3621 3 4 5 6 7
3622 3 4 5 6 12
3623 3 6 5 4 18
3624 6 6 7 8 9
3625 7 6 7 8 9
3626 6 6 7 8 10
3627 7 6 7 8 10
3628 6 6 7 8 11
3629 7 6 7 8 11
3630 5 8 7 6 12
3631 4 7 8 9 22
3632 4 7 8 9 23
3633 4 7 8 9 24
3634 4 7 8 10 25
3635 4 7 8 10 26
3636 4 7 8 10 27
3637 4 7 8 11 28
3638 4 7 8 11 29
3639 4 7 8 11 30
3640 4 9 8 7 20
3641 4 9 8 7 21
3642 4 9 8 10 25
3643 4 9 8 10 26
3644 4 9 8 10 27
3645 4 9 8 11 28
3646 4 9 8 11 29
3647 4 9 8 11 30
3648 4 10 8 7 20
3649 4 10 8 7 21
3650 4 10 8 9 22
3651 4 10 8 9 23
3652 4 10 8 9 24
3653 4 10 8 11 28
3654 4 10 8 11 29
3655 4 10 8 11 30
3656 4 11 8 7 20
3657 4 11 8 7 21
3658 4 11 8 9 22
3659 4 11 8 9 23
3660 4 11 8 9 24
3661 4 11 8 10 25
3662 4 11 8 10 26
3663 4 11 8 10 27
3664 3 1341 1347 1348 1366
3665 3 1365 1347 1348 1366
3666 3 1339 1340 1341 1342
3667 3 1339 1340 1341 1347
3668 3 1341 1340 1339 1352
3669 4 1342 1343 1344 1356
3670 4 1342 1343 1344 1357
3671 4 1342 1343 1344 1358
3672 4 1342 1343 1345 1359
3673 4 1342 1343 1345 1360
3674 4 1342 1343 1345 1361
3675 4 1342 1343 1346 1362
3676 4 1342 1343 1346 1363
3677 4 1342 1343 1346 1364
3678 4 1344 1343 1342 1354
3679 4 1344 1343 1342 1355
3680 4 1344 1343 1345 1359
3681 4 1344 1343 1345 1360
3682 4 1344 1343 1345 1361
3683 4 1344 1343 1346 1362
3684 4 1344 1343 1346 1363
3685 4 1344 1343 1346 1364
3686 4 1345 1343 1342 1354
3687 4 1345 1343 1342 1355
3688 4 1345 1343 1344 1356
3689 4 1345 1343 1344 1357
3690 4 1345 1343 1344 1358
3691 4 1345 1343 1346 1362
3692 4 1345 1343 1346 1363
3693 4 1345 1343 1346 1364
3694 4 1346 1343 1342 1354
3695 4 1346 1343 1342 1355
3696 4 1346 1343 1344 1356
3697 4 1346 1343 1344 1357
3698 4 1346 1343 1344 1358
3699 4 1346 1343 1345 1359
3700 4 1346 1343 1345 1360
3701 4 1346 1343 1345 1361
3702 6 1341 1342 1343 1344
3703 7 1341 1342 1343 1344
3704 6 1341 1342 1343 1345
3705 7 1341 1342 1343 1345
3706 6 1341 1342 1343 1346
3707 7 1341 1342 1343 1346
3708 5 1343 1342 1341 1347
3709 5 1340 1341 1342 1343
3710 3 1340 1341 1347 1348
3711 3 1342 1341 1347 1348
3712 5 1340 1341 1342 1354
3713 5 1340 1341 1342 1355
3714 3 1340 1341 1347 1365
3715 3 1342 1341 1340 1353
3716 3 1342 1341 1347 1365
3717 3 1347 1341 1340 1353
3718 5 1347 1341 1342 1354
3719 5 1347 1341 1342 1355
3720 4 1306 1336 1337 1338
3721 2 1306 1336 1337 1367
3722 8 1306 1336 1337 1351
3723 10 1349 1336 1337 1351
3724 8 1349 1336 1337 1367
3725 10 1350 1336 1337 1351
3726 8 1350 1336 1337 1367
3727 3 1338 1339 1340 1341
3728 3 1340 1339 1338 1348
3729 3 1338 1339 1340 1353
3730 3 1352 1339 1340 1353
3731 3 1338 1348 1347 1341
3732 3 1338 1348 1347 1365
3733 3 1337 1338 1339 1340
3734 3 1337 1338 1348 1347
3735 1 1339 1338 1337 1367
3736 3 1339 1338 1348 1347
3737 1 1348 1338 1337 1367
3738 3 1337 1338 1339 1352
3739 3 1337 1338 1348 1366
3740 9 1339 1338 1337 1351
3741 5 1339 1338 1337 1351
3742 3 1339 1338 1348 1366
3743 9 1348 1338 1337 1351
3744 5 1348 1338 1337 1351
3745 3 1348 1338 1339 1352
3746 1 1336 1337 1338 1339
3747 1 1336 1337 1338 1348
3748 2 1336 1337 1367 1368
3749 4 1338 1337 1367 1368
3750 8 1336 1337 1367 1380
3751 8 1336 1337 1367 1381
3752 4 1338 1337 1336 1349
3753 4 1338 1337 1336 1350
3754 4 1338 1337 1367 1380
3755 4 1338 1337 1367 1381
3756 8 1351 1337 1367 1368
3757 10 1351 1337 1367 1380
3758 10 1351 1337 1367 1381
3759 4 1337 1367 1368 1369
3760 2 1337 1367 1368 1398
3761 8 1337 1367 1368 1382
3762 10 1380 1367 1368 1382
3763 8 1380 1367 1368 1398
3764 10 1381 1367 1368 1382
3765 8 1381 1367 1368 1398
3766 3 1368 1369 1370 1371
3767 3 1368 1369 1379 1378
3768 1 1370 1369 1368 1398
3769 3 1370 1369 1379 1378
3770 1 1379 1369 1368 1398
3771 3 1368 1369 1370 1383
3772 3 1368 1369 1379 1397
3773 9 1370 1369 1368 1382
3774 5 1370 1369 1368 1382
3775 3 1370 1369 1379 1397
3776 9 1379 1369 1368 1382
3777 5 1379 1369 1368 1382
3778 3 1379 1369 1370 1383
3779 1 1367 1368 1369 1370
3780 1 1367 1368 1369 1379
3781 2 1367 1368 1398 1399
3782 4 1369 1368 1398 1399
3783 8 1367 1368 1398 1411
3784 8 1367 1368 1398 1412
3785 4 1369 1368 1367 1380
3786 4 1369 1368 1367 1381
3787 4 1369 1368 1398 1411
3788 4 1369 1368 1398 1412
3789 8 1382 1368 1398 1399
3790 10 1382 1368 1398 1411
3791 10 1382 1368 1398 1412
3792 4 1368 1398 1399 1400
3793 2 1368 1398 1399 1429
3794 8 1368 1398 1399 1413
3795 10 1411 1398 1399 1413
3796 8 1411 1398 1399 1429
3797 10 1412 1398 1399 1413
3798 8 1412 1398 1399 1429
3799 3 1369 1379 1378 1372
3800 3 1369 1379 1378 1396
3801 1 1398 1399 1400 1401
3802 1 1398 1399 1400 1410
3803 2 1398 1399 1429 1430
3804 4 1400 1399 1429 1430
3805 8 1398 1399 1429 1442
3806 8 1398 1399 1429 1443
3807 4 1400 1399 1398 1411
3808 4 1400 1399 1398 1412
3809 4 1400 1399 1429 1442
3810 4 1400 1399 1429 1443
3811 8 1413 1399 1429 1430
3812 10 1413 1399 1429 1442
3813 10 1413 1399 1429 1443
3814 6 1403 1404 1405 1406
3815 7 1403 1404 1405 1406
3816 6 1403 1404 1405 1407
3817 7 1403 1404 1405 1407
3818 6 1403 1404 1405 1408
3819 7 1403 1404 1405 1408
3820 5 1405 1404 1403 1409
3821 3 1400 1410 1409 1403
3822 3 1400 1410 1409 1427
3823 3 1403 1409 1410 1428
3824 3 1427 1409 1410 1428
3825 3 1400 1401 1402 1403
3826 3 1402 1401 1400 1410
3827 3 1400 1401 1402 1415
3828 3 1414 1401 1402 1415
3829 3 1399 1400 1401 1402
3830 3 1399 1400 1410 1409
3831 1 1401 1400 1399 1429
3832 3 1401 1400 1410 1409
3833 1 1410 1400 1399 1429
3834 3 1399 1400 1401 1414
3835 3 1399 1400 1410 1428
3836 9 1401 1400 1399 1413
3837 5 1401 1400 1399 1413
3838 3 1401 1400 1410 1428
3839 9 1410 1400 1399 1413
3840 5 1410 1400 1399 1413
3841 3 1410 1400 1401 1414
3842 5 1402 1403 1404 1405
3843 3 1402 1403 1409 1410
3844 3 1404 1403 1409 1410
3845 5 1402 1403 1404 1416
3846 5 1402 1403 1404 1417
3847 3 1402 1403 1409 1427
3848 3 1404 1403 1402 1415
3849 3 1404 1403 1409 1427
3850 3 1409 1403 1402 1415
3851 5 1409 1403 1404 1416
3852 5 1409 1403 1404 1417
3853 3 1401 1402 1403 1404
3854 3 1401 1402 1403 1409
3855 3 1403 1402 1401 1414
3856 4 1404 1405 1406 1418
3857 4 1404 1405 1406 1419
3858 4 1404 1405 1406 1420
3859 4 1404 1405 1407 1421
3860 4 1404 1405 1407 1422
3861 4 1404 1405 1407 1423
3862 4 1404 1405 1408 1424
3863 4 1404 1405 1408 1425
3864 4 1404 1405 1408 1426
3865 4 1406 1405 1404 1416
3866 4 1406 1405 1404 1417
3867 4 1406 1405 1407 1421
3868 4 1406 1405 1407 1422
3869 4 1406 1405 1407 1423
3870 4 1406 1405 1408 1424
3871 4 1406 1405 1408 1425
3872 4 1406 1405 1408 1426
3873 4 1407 1405 1404 1416
3874 4 1407 1405 1404 1417
3875 4 1407 1405 1406 1418
3876 4 1407 1405 1406 1419
3877 4 1407 1405 1406 1420
3878 4 1407 1405 1408 1424
3879 4 1407 1405 1408 1425
3880 4 1407 1405 1408 1426
3881 4 1408 1405 1404 1416
3882 4 1408 1405 1404 1417
3883 4 1408 1405 1406 1418
3884 4 1408 1405 1406 1419
3885 4 1408 1405 1406 1420
3886 4 1408 1405 1407 1421
3887 4 1408 1405 1407 1422
3888 4 1408 1405 1407 1423
3889 4 650 637 638 639
3890 2 650 637 638 669
3891 8 638 637 650 949
3892 8 638 637 650 950
3893 8 638 637 650 951
3894 4 651 637 638 639
3895 4 652 637 638 639
3896 8 650 637 638 653
3897 10 651 637 638 653
3898 8 651 637 638 669
3899 10 651 637 650 949
3900 10 651 637 650 950
3901 10 651 637 650 951
3902 10 652 637 638 653
3903 8 652 637 638 669
3904 10 652 637 650 949
3905 10 652 637 650 950
3906 10 652 637 650 951
3907 3 960 966 967 986
3908 3 985 966 967 986
3909 5 959 960 961 962
3910 3 959 960 966 967
3911 3 961 960 966 967
3912 5 959 960 961 974
3913 5 959 960 961 975
3914 3 959 960 966 985
3915 3 961 960 959 973
3916 3 961 960 966 985
3917 3 966 960 959 973
3918 5 966 960 961 974
3919 5 966 960 961 975
3920 6 960 961 962 963
3921 7 960 961 962 963
3922 6 960 961 962 964
3923 7 960 961 962 964
3924 6 960 961 962 965
3925 7 960 961 962 965
3926 5 962 961 960 966
3927 3 957 967 966 960
3928 3 957 967 966 985
3929 3 956 957 958 959
3930 3 956 957 967 966
3931 1 958 957 956 987
3932 3 958 957 967 966
3933 1 967 957 956 987
3934 3 956 957 958 972
3935 3 956 957 967 986
3936 9 958 957 956 971
3937 3 958 957 967 986
3938 9 967 957 956 971
3939 5 967 957 956 971
3940 3 967 957 958 972
3941 3 957 958 959 960
3942 3 959 958 957 967
3943 3 957 958 959 973
3944 3 972 958 959 973
3945 3 958 959 960 961
3946 3 958 959 960 966
3947 3 960 959 958 972
3948 3 1525 1526 1527 1528
3949 3 1525 1526 1527 1533
3950 3 1527 1526 1525 1538
3951 3 1524 1525 1526 1527
3952 3 1526 1525 1524 1534
3953 3 1524 1525 1526 1539
3954 3 1538 1525 1526 1539
3955 5 1526 1527 1528 1529
3956 3 1526 1527 1533 1534
3957 3 1528 1527 1533 1534
3958 5 1526 1527 1528 1540
3959 5 1526 1527 1528 1541
3960 3 1526 1527 1533 1551
3961 3 1528 1527 1526 1539
3962 3 1528 1527 1533 1551
3963 3 1533 1527 1526 1539
3964 5 1533 1527 1528 1540
3965 5 1533 1527 1528 1541
3966 3 1524 1534 1533 1527
3967 3 1524 1534 1533 1551
3968 3 1523 1524 1525 1526
3969 3 1523 1524 1534 1533
3970 1 1525 1524 1523 1553
3971 3 1525 1524 1534 1533
3972 1 1534 1524 1523 1553
3973 3 1523 1524 1525 1538
3974 3 1523 1524 1534 1552
3975 9 1525 1524 1523 1537
3976 5 1525 1524 1523 1537
3977 3 1525 1524 1534 1552
3978 9 1534 1524 1523 1537
3979 5 1534 1524 1523 1537
3980 3 1534 1524 1525 1538
3981 3 1527 1533 1534 1552
3982 3 1551 1533 1534 1552
3983 3 1494 1495 1496 1497
3984 3 1494 1495 1496 1502
3985 3 1496 1495 1494 1507
3986 5 1495 1496 1497 1498
3987 3 1495 1496 1502 1503
3988 3 1497 1496 1502 1503
3989 5 1495 1496 1497 1509
3990 5 1495 1496 1497 1510
3991 3 1495 1496 1502 1520
3992 3 1497 1496 1495 1508
3993 3 1497 1496 1502 1520
3994 3 1502 1496 1495 1508
3995 5 1502 1496 1497 1509
3996 5 1502 1496 1497 1510
3997 3 1492 1493 1494 1495
3998 3 1492 1493 1503 1502
3999 1 1494 1493 1492 1522
4000 3 1494 1493 1503 1502
4001 1 1503 1493 1492 1522
4002 3 1492 1493 1494 1507
4003 3 1492 1493 1503 1521
4004 9 1494 1493 1492 1506
4005 5 1494 1493 1492 1506
4006 3 1494 1493 1503 1521
4007 9 1503 1493 1492 1506
4008 5 1503 1493 1492 1506
4009 3 1503 1493 1494 1507
4010 1 1491 1492 1493 1494
4011 1 1491 1492 1493 1503
4012 2 1491 1492 1522 1523
4013 4 1493 1492 1522 1523
4014 8 1491 1492 1522 1535
4015 8 1491 1492 1522 1536
4016 4 1493 1492 1491 1504
4017 4 1493 1492 1491 1505
4018 4 1493 1492 1522 1535
4019 4 1493 1492 1522 1536
4020 8 1506 1492 1522 1523
4021 10 1506 1492 1522 1535
4022 10 1506 1492 1522 1536
4023 3 1493 1494 1495 1496
4024 3 1495 1494 1493 1503
4025 3 1493 1494 1495 1508
4026 3 1507 1494 1495 1508
4027 3 1496 1502 1503 1521
4028 3 1520 1502 1503 1521
4029 3 1493 1503 1502 1496
4030 3 1493 1503 1502 1520
4031 4 1492 1522 1523 1524
4032 2 1492 1522 1523 1553
4033 8 1492 1522 1523 1537
4034 10 1535 1522 1523 1537
4035 8 1535 1522 1523 1553
4036 10 1536 1522 1523 1537
4037 8 1536 1522 1523 1553
4038 1 1522 1523 1524 1525
4039 1 1522 1523 1524 1534
4040 2 1522 1523 1553 1554
4041 4 1524 1523 1553 1554
4042 8 1522 1523 1553 1566
4043 8 1522 1523 1553 1567
4044 4 1524 1523 1522 1535
4045 4 1524 1523 1522 1536
4046 4 1524 1523 1553 1566
4047 4 1524 1523 1553 1567
4048 8 1537 1523 1553 1554
4049 10 1537 1523 1553 1566
4050 10 1537 1523 1553 1567
4051 4 956 987 988 989
4052 2 956 987 988 1018
4053 8 956 987 988 1002
4054 10 1000 987 988 1002
4055 8 1000 987 988 1018
4056 10 1001 987 988 1002
4057 8 1001 987 988 1018
4058 4 968 955 956 957
4059 2 968 955 956 987
4060 8 956 955 968 1267
4061 8 956 955 968 1268
4062 8 956 955 968 1269
4063 4 969 955 956 957
4064 4 970 955 956 957
4065 8 968 955 956 971
4066 10 969 955 956 971
4067 8 969 955 956 987
4068 10 969 955 968 1267
4069 10 969 955 968 1268
4070 10 969 955 968 1269
4071 10 970 955 956 971
4072 8 970 955 956 987
4073 10 970 955 968 1267
4074 10 970 955 968 1268
4075 10 970 955 968 1269
4076 1 955 956 957 958
4077 1 955 956 957 967
4078 2 955 956 987 988
4079 4 957 956 987 988
4080 8 955 956 987 1000
4081 8 955 956 987 1001
4082 4 957 956 987 1000
4083 4 957 956 987 1001
4084 8 971 956 987 988
4085 10 971 956 987 1000
4086 10 971 956 987 1001
4087 4 1528 1529 1530 1542
4088 4 1528 1529 1530 1543
4089 4 1528 1529 1530 1544
4090 4 1528 1529 1531 1545
4091 4 1528 1529 1531 1546
4092 4 1528 1529 1531 1547
4093 4 1528 1529 1532 1548
4094 4 1528 1529 1532 1549
4095 4 1528 1529 1532 1550
4096 4 1530 1529 1528 1540
4097 4 1530 1529 1528 1541
4098 4 1530 1529 1531 1545
4099 4 1530 1529 1531 1546
4100 4 1530 1529 1531 1547
4101 4 1530 1529 1532 1548
4102 4 1530 1529 1532 1549
4103 4 1530 1529 1532 1550
4104 4 1531 1529 1528 1540
4105 4 1531 1529 1528 1541
4106 4 1531 1529 1530 1542
4107 4 1531 1529 1530 1543
4108 4 1531 1529 1530 1544
4109 4 1531 1529 1532 1548
4110 4 1531 1529 1532 1549
4111 4 1531 1529 1532 1550
4112 4 1532 1529 1528 1540
4113 4 1532 1529 1528 1541
4114 4 1532 1529 1530 1542
4115 4 1532 1529 1530 1543
4116 4 1532 1529 1530 1544
4117 4 1532 1529 1531 1545
4118 4 1532 1529 1531 1546
4119 4 1532 1529 1531 1547
4120 6 1527 1528 1529 1530
4121 7 1527 1528 1529 1530
4122 6 1527 1528 1529 1531
4123 7 1527 1528 1529 1531
4124 6 1527 1528 1529 1532
4125 7 1527 1528 1529 1532
4126 5 1529 1528 1527 1533
4127 6 1372 1373 1374 1375
4128 7 1372 1373 1374 1375
4129 6 1372 1373 1374 1376
4130 7 1372 1373 1374 1376
4131 6 1372 1373 1374 1377
4132 7 1372 1373 1374 1377
4133 5 1374 1373 1372 1378
4134 4 1373 1374 1375 1387
4135 4 1373 1374 1375 1388
4136 4 1373 1374 1375 1389
4137 4 1373 1374 1376 1390
4138 4 1373 1374 1376 1391
4139 4 1373 1374 1376 1392
4140 4 1373 1374 1377 1393
4141 4 1373 1374 1377 1394
4142 4 1373 1374 1377 1395
4143 4 1375 1374 1373 1385
4144 4 1375 1374 1373 1386
4145 4 1375 1374 1376 1390
4146 4 1375 1374 1376 1391
4147 4 1375 1374 1376 1392
4148 4 1375 1374 1377 1393
4149 4 1375 1374 1377 1394
4150 4 1375 1374 1377 1395
4151 4 1376 1374 1373 1385
4152 4 1376 1374 1373 1386
4153 4 1376 1374 1375 1387
4154 4 1376 1374 1375 1388
4155 4 1376 1374 1375 1389
4156 4 1376 1374 1377 1393
4157 4 1376 1374 1377 1394
4158 4 1376 1374 1377 1395
4159 4 1377 1374 1373 1385
4160 4 1377 1374 1373 1386
4161 4 1377 1374 1375 1387
4162 4 1377 1374 1375 1388
4163 4 1377 1374 1375 1389
4164 4 1377 1374 1376 1390
4165 4 1377 1374 1376 1391
4166 4 1377 1374 1376 1392
4167 6 1434 1435 1436 1437
4168 7 1434 1435 1436 1437
4169 6 1434 1435 1436 1438
4170 7 1434 1435 1436 1438
4171 6 1434 1435 1436 1439
4172 7 1434 1435 1436 1439
4173 5 1436 1435 1434 1440
4174 4 1435 1436 1437 1449
4175 4 1435 1436 1437 1450
4176 4 1435 1436 1437 1451
4177 4 1435 1436 1438 1452
4178 4 1435 1436 1438 1453
4179 4 1435 1436 1438 1454
4180 4 1435 1436 1439 1455
4181 4 1435 1436 1439 1456
4182 4 1435 1436 1439 1457
4183 4 1437 1436 1435 1447
4184 4 1437 1436 1435 1448
4185 4 1437 1436 1438 1452
4186 4 1437 1436 1438 1453
4187 4 1437 1436 1438 1454
4188 4 1437 1436 1439 1455
4189 4 1437 1436 1439 1456
4190 4 1437 1436 1439 1457
4191 4 1438 1436 1435 1447
4192 4 1438 1436 1435 1448
4193 4 1438 1436 1437 1449
4194 4 1438 1436 1437 1450
4195 4 1438 1436 1437 1451
4196 4 1438 1436 1439 1455
4197 4 1438 1436 1439 1456
4198 4 1438 1436 1439 1457
4199 4 1439 1436 1435 1447
4200 4 1439 1436 1435 1448
4201 4 1439 1436 1437 1449
4202 4 1439 1436 1437 1450
4203 4 1439 1436 1437 1451
4204 4 1439 1436 1438 1452
4205 4 1439 1436 1438 1453
4206 4 1439 1436 1438 1454
4207 4 1210 1211 1212 1224
4208 4 1210 1211 1212 1225
4209 4 1210 1211 1212 1226
4210 4 1210 1211 1213 1227
4211 4 1210 1211 1213 1228
4212 4 1210 1211 1213 1229
4213 4 1210 1211 1214 1230
4214 4 1210 1211 1214 1231
4215 4 1210 1211 1214 1232
4216 4 1212 1211 1210 1222
4217 4 1212 1211 1210 1223
4218 4 1212 1211 1213 1227
4219 4 1212 1211 1213 1228
4220 4 1212 1211 1213 1229
4221 4 1212 1211 1214 1230
4222 4 1212 1211 1214 1231
4223 4 1212 1211 1214 1232
4224 4 1213 1211 1210 1222
4225 4 1213 1211 1210 1223
4226 4 1213 1211 1212 1224
4227 4 1213 1211 1212 1225
4228 4 1213 1211 1212 1226
4229 4 1213 1211 1214 1230
4230 4 1213 1211 1214 1231
4231 4 1213 1211 1214 1232
4232 4 1214 1211 1210 1222
4233 4 1214 1211 1210 1223
4234 4 1214 1211 1212 1224
4235 4 1214 1211 1212 1225
4236 4 1214 1211 1212 1226
4237 4 1214 1211 1213 1227
4238 4 1214 1211 1213 1228
4239 4 1214 1211 1213 1229
4240 6 1209 1210 1211 1212
4241 7 1209 1210 1211 1212
4242 6 1209 1210 1211 1213
4243 7 1209 1210 1211 1213
4244 6 1209 1210 1211 1214
4245 7 1209 1210 1211 1214
4246 5 1211 1210 1209 1215
4247 5 1208 1209 1210 1211
4248 3 1208 1209 1215 1216
4249 3 1210 1209 1215 1216
4250 5 1208 1209 1210 1222
4251 5 1208 1209 1210 1223
4252 3 1208 1209 1215 1233
4253 3 1210 1209 1208 1221
4254 3 1210 1209 1215 1233
4255 3 1215 1209 1208 1221
4256 5 1215 1209 1210 1222
4257 5 1215 1209 1210 1223
4258 4 1117 1118 1119 1131
4259 4 1117 1118 1119 1132
4260 4 1117 1118 1119 1133
4261 4 1117 1118 1120 1134
4262 4 1117 1118 1120 1135
4263 4 1117 1118 1120 1136
4264 4 1117 1118 1121 1137
4265 4 1117 1118 1121 1138
4266 4 1117 1118 1121 1139
4267 4 1119 1118 1117 1129
4268 4 1119 1118 1117 1130
4269 4 1119 1118 1120 1134
4270 4 1119 1118 1120 1135
4271 4 1119 1118 1120 1136
4272 4 1119 1118 1121 1137
4273 4 1119 1118 1121 1138
4274 4 1119 1118 1121 1139
4275 4 1120 1118 1117 1129
4276 4 1120 1118 1117 1130
4277 4 1120 1118 1119 1131
4278 4 1120 1118 1119 1132
4279 4 1120 1118 1119 1133
4280 4 1120 1118 1121 1137
4281 4 1120 1118 1121 1138
4282 4 1120 1118 1121 1139
4283 4 1121 1118 1117 1129
4284 4 1121 1118 1117 1130
4285 4 1121 1118 1119 1131
4286 4 1121 1118 1119 1132
4287 4 1121 1118 1119 1133
4288 4 1121 1118 1120 1134
4289 4 1121 1118 1120 1135
4290 4 1121 1118 1120 1136
4291 3 1114 1115 1116 1117
4292 3 1114 1115 1116 1122
4293 3 1116 1115 1114 1127
4294 4 1024 1025 1026 1038
4295 4 1024 1025 1026 1039
4296 4 1024 1025 1026 1040
4297 4 1024 1025 1027 1041
4298 4 1024 1025 1027 1042
4299 4 1024 1025 1027 1043
4300 4 1024 1025 1028 1044
4301 4 1024 1025 1028 1045
4302 4 1024 1025 1028 1046
4303 4 1026 1025 1024 1036
4304 4 1026 1025 1024 1037
4305 4 1026 1025 1027 1041
4306 4 1026 1025 1027 1042
4307 4 1026 1025 1027 1043
4308 4 1026 1025 1028 1044
4309 4 1026 1025 1028 1045
4310 4 1026 1025 1028 1046
4311 4 1027 1025 1024 1036
4312 4 1027 1025 1024 1037
4313 4 1027 1025 1026 1038
4314 4 1027 1025 1026 1039
4315 4 1027 1025 1026 1040
4316 4 1027 1025 1028 1044
4317 4 1027 1025 1028 1045
4318 4 1027 1025 1028 1046
4319 4 1028 1025 1024 1036
4320 4 1028 1025 1024 1037
4321 4 1028 1025 1026 1038
4322 4 1028 1025 1026 1039
4323 4 1028 1025 1026 1040
4324 4 1028 1025 1027 1041
4325 4 1028 1025 1027 1042
4326 4 1028 1025 1027 1043
4327 3 1369 1370 1371 1372
4328 3 1371 1370 1369 1379
4329 3 1369 1370 1371 1384
4330 3 1383 1370 1371 1384
4331 5 1371 1372 1373 1374
4332 3 1371 1372 1378 1379
4333 3 1373 1372 1378 1379
4334 5 1371 1372 1373 1385
4335 5 1371 1372 1373 1386
4336 3 1371 1372 1378 1396
4337 3 1373 1372 1371 1384
4338 3 1373 1372 1378 1396
4339 3 1378 1372 1371 1384
4340 5 1378 1372 1373 1385
4341 5 1378 1372 1373 1386
4342 3 1372 1378 1379 1397
4343 3 1396 1378 1379 1397
4344 3 1370 1371 1372 1373
4345 3 1370 1371 1372 1378
4346 3 1372 1371 1370 1383
4347 5 1433 1434 1435 1436
4348 3 1433 1434 1440 1441
4349 3 1435 1434 1440 1441
4350 5 1433 1434 1435 1447
4351 5 1433 1434 1435 1448
4352 3 1433 1434 1440 1458
4353 3 1435 1434 1433 1446
4354 3 1435 1434 1440 1458
4355 3 1440 1434 1433 1446
4356 5 1440 1434 1435 1447
4357 5 1440 1434 1435 1448
4358 4 1399 1429 1430 1431
4359 2 1399 1429 1430 1460
4360 8 1399 1429 1430 1444
4361 10 1442 1429 1430 1444
4362 8 1442 1429 1430 1460
4363 10 1443 1429 1430 1444
4364 8 1443 1429 1430 1460
4365 3 1431 1441 1440 1434
4366 3 1431 1441 1440 1458
4367 1 1429 1430 1431 1432
4368 1 1429 1430 1431 1441
4369 2 1429 1430 1460 1461
4370 4 1431 1430 1460 1461
4371 8 1429 1430 1460 1473
4372 8 1429 1430 1460 1474
4373 4 1431 1430 1429 1442
4374 4 1431 1430 1429 1443
4375 4 1431 1430 1460 1473
4376 4 1431 1430 1460 1474
4377 8 1444 1430 1460 1461
4378 10 1444 1430 1460 1473
4379 10 1444 1430 1460 1474
4380 3 1462 1463 1464 1465
4381 3 1464 1463 1462 1472
4382 3 1462 1463 1464 1477
4383 3 1476 1463 1464 1477
4384 3 1432 1433 1434 1435
4385 3 1432 1433 1434 1440
4386 3 1434 1433 1432 1445
4387 3 1434 1440 1441 1459
4388 3 1458 1440 1441 1459
4389 3 1430 1431 1432 1433
4390 3 1430 1431 1441 1440
4391 1 1432 1431 1430 1460
4392 3 1432 1431 1441 1440
4393 1 1441 1431 1430 1460
4394 3 1430 1431 1432 1445
4395 3 1430 1431 1441 1459
4396 9 1432 1431 1430 1444
4397 5 1432 1431 1430 1444
4398 3 1432 1431 1441 1459
4399 9 1441 1431 1430 1444
4400 5 1441 1431 1430 1444
4401 3 1441 1431 1432 1445
4402 3 1431 1432 1433 1434
4403 3 1433 1432 1431 1441
4404 3 1431 1432 1433 1446
4405 3 1445 1432 1433 1446
4406 3 1461 1462 1463 1464
4407 3 1461 1462 1472 1471
4408 1 1463 1462 1461 1491
4409 3 1463 1462 1472 1471
4410 1 1472 1462 1461 1491
4411 3 1461 1462 1463 1476
4412 3 1461 1462 1472 1490
4413 9 1463 1462 1461 1475
4414 5 1463 1462 1461 1475
4415 3 1463 1462 1472 1490
4416 9 1472 1462 1461 1475
4417 5 1472 1462 1461 1475
4418 3 1472 1462 1463 1476
4419 3 1462 1472 1471 1465
4420 3 1462 1472 1471 1489
4421 3 1463 1464 1465 1466
4422 3 1463 1464 1465 1471
4423 3 1465 1464 1463 1476
4424 3 1465 1471 1472 1490
4425 3 1489 1471 1472 1490
4426 5 1464 1465 1466 1467
4427 3 1464 1465 1471 1472
4428 3 1466 1465 1471 1472
4429 5 1464 1465 1466 1478
4430 5 1464 1465 1466 1479
4431 3 1464 1465 1471 1489
4432 3 1466 1465 1464 1477
4433 3 1466 1465 1471 1489
4434 3 1471 1465 1464 1477
4435 5 1471 1465 1466 1478
4436 5 1471 1465 1466 1479
4437 6 1465 1466 1467 1468
4438 7 1465 1466 1467 1468
4439 6 1465 1466 1467 1469
4440 7 1465 1466 1467 1469
4441 6 1465 1466 1467 1470
4442 7 1465 1466 1467 1470
4443 5 1467 1466 1465 1471
4444 4 1466 1467 1468 1480
4445 4 1466 1467 1468 1481
4446 4 1466 1467 1468 1482
4447 4 1466 1467 1469 1483
4448 4 1466 1467 1469 1484
4449 4 1466 1467 1469 1485
4450 4 1466 1467 1470 1486
4451 4 1466 1467 1470 1487
4452 4 1466 1467 1470 1488
4453 4 1468 1467 1466 1478
4454 4 1468 1467 1466 1479
4455 4 1468 1467 1469 1483
4456 4 1468 1467 1469 1484
4457 4 1468 1467 1469 1485
4458 4 1468 1467 1470 1486
4459 4 1468 1467 1470 1487
4460 4 1468 1467 1470 1488
4461 4 1469 1467 1466 1478
4462 4 1469 1467 1466 1479
4463 4 1469 1467 1468 1480
4464 4 1469 1467 1468 1481
4465 4 1469 1467 1468 1482
4466 4 1469 1467 1470 1486
4467 4 1469 1467 1470 1487
4468 4 1469 1467 1470 1488
4469 4 1470 1467 1466 1478
4470 4 1470 1467 1466 1479
4471 4 1470 1467 1468 1480
4472 4 1470 1467 1468 1481
4473 4 1470 1467 1468 1482
4474 4 1470 1467 1469 1483
4475 4 1470 1467 1469 1484
4476 4 1470 1467 1469 1485
4477 4 1055 1056 1057 1069
4478 4 1055 1056 1057 1070
4479 4 1055 1056 1057 1071
4480 4 1055 1056 1058 1072
4481 4 1055 1056 1058 1073
4482 4 1055 1056 1058 1074
4483 4 1055 1056 1059 1075
4484 4 1055 1056 1059 1076
4485 4 1055 1056 1059 1077
4486 4 1057 1056 1055 1067
4487 4 1057 1056 1055 1068
4488 4 1057 1056 1058 1072
4489 4 1057 1056 1058 1073
4490 4 1057 1056 1058 1074
4491 4 1057 1056 1059 1075
4492 4 1057 1056 1059 1076
4493 4 1057 1056 1059 1077
4494 4 1058 1056 1055 1067
4495 4 1058 1056 1055 1068
4496 4 1058 1056 1057 1069
4497 4 1058 1056 1057 1070
4498 4 1058 1056 1057 1071
4499 4 1058 1056 1059 1075
4500 4 1058 1056 1059 1076
4501 4 1058 1056 1059 1077
4502 4 1059 1056 1055 1067
4503 4 1059 1056 1055 1068
4504 4 1059 1056 1057 1069
4505 4 1059 1056 1057 1070
4506 4 1059 1056 1057 1071
4507 4 1059 1056 1058 1072
4508 4 1059 1056 1058 1073
4509 4 1059 1056 1058 1074
4510 6 1054 1055 1056 1057
4511 7 1054 1055 1056 1057
4512 6 1054 1055 1056 1058
4513 7 1054 1055 1056 1058
4514 6 1054 1055 1056 1059
4515 7 1054 1055 1056 1059
4516 5 1056 1055 1054 1060
4517 5 1053 1054 1055 1056
4518 3 1053 1054 1060 1061
4519 3 1055 1054 1060 1061
4520 5 1053 1054 1055 1067
4521 5 1053 1054 1055 1068
4522 3 1053 1054 1060 1078
4523 3 1055 1054 1053 1066
4524 3 1055 1054 1060 1078
4525 3 1060 1054 1053 1066
4526 5 1060 1054 1055 1067
4527 5 1060 1054 1055 1068
4528 3 1052 1053 1054 1055
4529 3 1052 1053 1054 1060
4530 3 1054 1053 1052 1065
4531 3 1054 1060 1061 1079
4532 3 1078 1060 1061 1079
4533 3 1051 1052 1053 1054
4534 3 1053 1052 1051 1061
4535 3 1051 1052 1053 1066
4536 3 1065 1052 1053 1066
4537 3 1051 1061 1060 1054
4538 3 1051 1061 1060 1078
4539 3 1050 1051 1052 1053
4540 3 1050 1051 1061 1060
4541 1 1052 1051 1050 1080
4542 3 1052 1051 1061 1060
4543 1 1061 1051 1050 1080
4544 3 1050 1051 1052 1065
4545 3 1050 1051 1061 1079
4546 9 1052 1051 1050 1064
4547 5 1052 1051 1050 1064
4548 3 1052 1051 1061 1079
4549 9 1061 1051 1050 1064
4550 5 1061 1051 1050 1064
4551 3 1061 1051 1052 1065
4552 1 1049 1050 1051 1052
4553 1 1049 1050 1051 1061
4554 2 1049 1050 1080 1081
4555 4 1051 1050 1080 1081
4556 8 1049 1050 1080 1093
4557 8 1049 1050 1080 1094
4558 4 1051 1050 1049 1062
4559 4 1051 1050 1049 1063
4560 4 1051 1050 1080 1093
4561 4 1051 1050 1080 1094
4562 8 1064 1050 1080 1081
4563 10 1064 1050 1080 1093
4564 10 1064 1050 1080 1094
4565 3 1019 1020 1021 1022
4566 3 1019 1020 1030 1029
4567 1 1021 1020 1019 1049
4568 3 1021 1020 1030 1029
4569 1 1030 1020 1019 1049
4570 3 1019 1020 1021 1034
4571 3 1019 1020 1030 1048
4572 9 1021 1020 1019 1033
4573 5 1021 1020 1019 1033
4574 3 1021 1020 1030 1048
4575 9 1030 1020 1019 1033
4576 5 1030 1020 1019 1033
4577 3 1030 1020 1021 1034
4578 4 1019 1049 1050 1051
4579 2 1019 1049 1050 1080
4580 8 1019 1049 1050 1064
4581 10 1062 1049 1050 1064
4582 8 1062 1049 1050 1080
4583 10 1063 1049 1050 1064
4584 8 1063 1049 1050 1080
4585 1 1018 1019 1020 1021
4586 1 1018 1019 1020 1030
4587 2 1018 1019 1049 1050
4588 4 1020 1019 1049 1050
4589 8 1018 1019 1049 1062
4590 8 1018 1019 1049 1063
4591 4 1020 1019 1018 1031
4592 4 1020 1019 1018 1032
4593 4 1020 1019 1049 1062
4594 4 1020 1019 1049 1063
4595 8 1033 1019 1049 1050
4596 10 1033 1019 1049 1062
4597 10 1033 1019 1049 1063
4598 3 1020 1030 1029 1023
4599 3 1020 1030 1029 1047
4600 3 1023 1029 1030 1048
4601 3 1047 1029 1030 1048
4602 3 1020 1021 1022 1023
4603 3 1022 1021 1020 1030
4604 3 1020 1021 1022 1035
4605 3 1034 1021 1022 1035
4606 6 1023 1024 1025 1026
4607 7 1023 1024 1025 1026
4608 6 1023 1024 1025 1027
4609 7 1023 1024 1025 1027
4610 6 1023 1024 1025 1028
4611 7 1023 1024 1025 1028
4612 5 1025 1024 1023 1029
4613 5 1022 1023 1024 1025
4614 3 1022 1023 1029 1030
4615 3 1024 1023 1029 1030
4616 5 1022 1023 1024 1036
4617 5 1022 1023 1024 1037
4618 3 1022 1023 1029 1047
4619 3 1024 1023 1022 1035
4620 3 1024 1023 1029 1047
4621 3 1029 1023 1022 1035
4622 5 1029 1023 1024 1036
4623 5 1029 1023 1024 1037
4624 3 1021 1022 1023 1024
4625 3 1021 1022 1023 1029
4626 3 1023 1022 1021 1034
4627 4 961 962 963 976
4628 4 961 962 963 977
4629 4 961 962 963 978
4630 4 961 962 964 979
4631 4 961 962 964 980
4632 4 961 962 964 981
4633 4 961 962 965 982
4634 4 961 962 965 983
4635 4 961 962 965 984
4636 4 963 962 961 974
4637 4 963 962 961 975
4638 4 963 962 964 979
4639 4 963 962 964 980
4640 4 963 962 964 981
4641 4 963 962 965 982
4642 4 963 962 965 983
4643 4 963 962 965 984
4644 4 964 962 961 974
4645 4 964 962 961 975
4646 4 964 962 963 976
4647 4 964 962 963 977
4648 4 964 962 963 978
4649 4 964 962 965 982
4650 4 964 962 965 983
4651 4 964 962 965 984
4652 4 965 962 961 974
4653 4 965 962 961 975
4654 4 965 962 963 976
4655 4 965 962 963 977
4656 4 965 962 963 978
4657 4 965 962 964 979
4658 4 965 962 964 980
4659 4 965 962 964 981
4660 4 1430 1460 1461 1462
4661 2 1430 1460 1461 1491
4662 8 1430 1460 1461 1475
4663 10 1473 1460 1461 1475
4664 8 1473 1460 1461 1491
4665 10 1474 1460 1461 1475
4666 8 1474 1460 1461 1491
4667 1 1460 1461 1462 1463
4668 1 1460 1461 1462 1472
4669 2 1460 1461 1491 1492
4670 4 1462 1461 1491 1492
4671 8 1460 1461 1491 1504
4672 8 1460 1461 1491 1505
4673 4 1462 1461 1460 1473
4674 4 1462 1461 1460 1474
4675 4 1462 1461 1491 1504
4676 4 1462 1461 1491 1505
4677 8 1475 1461 1491 1492
4678 10 1475 1461 1491 1504
4679 10 1475 1461 1491 1505
4680 4 1461 1491 1492 1493
4681 2 1461 1491 1492 1522
4682 8 1461 1491 1492 1506
4683 10 1504 1491 1492 1506
4684 8 1504 1491 1492 1522
4685 10 1505 1491 1492 1506
4686 8 1505 1491 1492 1522
4687 4 988 1018 1019 1020
4688 2 988 1018 1019 1049
4689 8 988 1018 1019 1033
4690 10 1031 1018 1019 1033
4691 8 1031 1018 1019 1049
4692 10 1032 1018 1019 1033
4693 8 1032 1018 1019 1049
4694 1 987 988 989 990
4695 1 987 988 989 999
4696 2 987 988 1018 1019
4697 4 989 988 1018 1019
4698 8 987 988 1018 1031
4699 8 987 988 1018 1032
4700 4 989 988 987 1000
4701 4 989 988 987 1001
4702 4 989 988 1018 1031
4703 4 989 988 1018 1032
4704 8 1002 988 1018 1019
4705 10 1002 988 1018 1031
4706 10 1002 988 1018 1032
4707 1 1553 1554 1555 1556
4708 1 1553 1554 1555 1565
4709 8 1553 1554 1568 1588
4710 8 1553 1554 1568 1589
4711 8 1553 1554 1568 1590
4712 4 1555 1554 1553 1566
4713 4 1555 1554 1553 1567
4714 4 1555 1554 1568 1588
4715 4 1555 1554 1568 1589
4716 4 1555 1554 1568 1590
4717 10 1569 1554 1568 1588
4718 10 1569 1554 1568 1589
4719 10 1569 1554 1568 1590
4720 4 1523 1553 1554 1555
4721 2 1523 1553 1554 1568
4722 8 1523 1553 1554 1569
4723 8 1566 1553 1554 1568
4724 10 1566 1553 1554 1569
4725 8 1567 1553 1554 1568
4726 10 1567 1553 1554 1569
4727 3 1207 1208 1209 1210
4728 3 1207 1208 1209 1215
4729 3 1209 1208 1207 1220
4730 3 1209 1215 1216 1234
4731 3 1233 1215 1216 1234
4732 3 1113 1114 1115 1116
4733 3 1115 1114 1113 1123
4734 3 1113 1114 1115 1128
4735 3 1127 1114 1115 1128
4736 6 1116 1117 1118 1119
4737 7 1116 1117 1118 1119
4738 6 1116 1117 1118 1120
4739 7 1116 1117 1118 1120
4740 6 1116 1117 1118 1121
4741 7 1116 1117 1118 1121
4742 5 1118 1117 1116 1122
4743 5 1115 1116 1117 1118
4744 3 1115 1116 1122 1123
4745 3 1117 1116 1122 1123
4746 5 1115 1116 1117 1129
4747 5 1115 1116 1117 1130
4748 3 1115 1116 1122 1140
4749 3 1117 1116 1115 1128
4750 3 1117 1116 1122 1140
4751 3 1122 1116 1115 1128
4752 5 1122 1116 1117 1129
4753 5 1122 1116 1117 1130
4754 1 1080 1081 1082 1083
4755 1 1080 1081 1082 1092
4756 2 1080 1081 1111 1112
4757 4 1082 1081 1111 1112
4758 8 1080 1081 1111 1124
4759 8 1080 1081 1111 1125
4760 4 1082 1081 1080 1093
4761 4 1082 1081 1080 1094
4762 4 1082 1081 1111 1124
4763 4 1082 1081 1111 1125
4764 8 1095 1081 1111 1112
4765 10 1095 1081 1111 1124
4766 10 1095 1081 1111 1125
4767 4 1050 1080 1081 1082
4768 2 1050 1080 1081 1111
4769 8 1050 1080 1081 1095
4770 10 1093 1080 1081 1095
4771 8 1093 1080 1081 1111
4772 10 1094 1080 1081 1095
4773 8 1094 1080 1081 1111
4774 3 988 989 990 991
4775 3 988 989 999 998
4776 1 990 989 988 1018
4777 3 990 989 999 998
4778 1 999 989 988 1018
4779 3 988 989 990 1003
4780 3 988 989 999 1017
4781 9 990 989 988 1002
4782 5 990 989 988 1002
4783 3 990 989 999 1017
4784 9 999 989 988 1002
4785 5 999 989 988 1002
4786 3 999 989 990 1003
4787 3 989 990 991 992
4788 3 991 990 989 999
4789 3 989 990 991 1004
4790 3 1003 990 991 1004

Impropers

1 1 1554 1556 1555 1565
2 1 1559 1557 1558 1564
3 1 1555 1557 1556 1570
4 1 1556 1558 1557 1571
5 1 1558 1565 1564 1583
6 1 1555 1564 1565 1584
7 1 992 999 998 1016
8 1 600 602 601 611
9 1 605 603 604 610
10 1 601 603 602 616
11 1 602 604 603 617
12 1 604 611 610 629
13 1 601 610 611 630
14 1 542 549 548 566
15 1 573 580 579 597
16 1 570 579 580 598
17 1 569 571 570 580
18 1 574 572 573 579
19 1 570 572 571 584
20 1 571 573 572 585
21 1 447 449 448 461
22 1 450 448 449 455
23 1 446 448 447 460
24 1 446 455 456 474
25 1 445 447 446 456
26 1 449 456 455 473
27 1 418 425 424 442
28 1 415 424 425 443
29 1 388 386 387 393
30 1 384 386 385 398
31 1 385 387 386 399
32 1 384 393 394 412
33 1 383 385 384 394
34 1 387 394 393 411
35 1 1236 1238 1237 1247
36 1 1179 1177 1178 1184
37 1 1175 1177 1176 1189
38 1 1174 1176 1175 1185
39 1 1209 1216 1215 1233
40 1 1205 1207 1206 1216
41 1 1178 1185 1184 1202
42 1 1116 1123 1122 1140
43 1 1113 1122 1123 1141
44 1 1143 1145 1144 1154
45 1 1148 1146 1147 1153
46 1 1144 1146 1145 1158
47 1 1145 1147 1146 1159
48 1 1147 1154 1153 1171
49 1 1144 1153 1154 1172
50 1 1085 1092 1091 1109
51 1 1082 1091 1092 1110
52 1 1081 1083 1082 1092
53 1 1086 1084 1085 1091
54 1 1082 1084 1083 1096
55 1 1083 1085 1084 1097
56 1 993 991 992 998
57 1 989 991 990 1003
58 1 989 998 999 1017
59 1 990 992 991 1004
60 1 508 517 518 536
61 1 509 511 510 523
62 1 283 292 293 312
63 1 286 293 292 311
64 1 221 230 231 249
65 1 222 224 223 236
66 1 284 286 285 299
67 1 287 285 286 292
68 1 283 285 284 298
69 1 282 284 283 293
70 1 540 542 541 554
71 1 511 518 517 535
72 1 539 548 549 567
73 1 543 541 542 548
74 1 539 541 540 553
75 1 512 510 511 517
76 1 508 510 509 522
77 1 507 509 508 518
78 1 538 540 539 549
79 1 476 478 477 487
80 1 480 487 486 504
81 1 478 480 479 492
82 1 481 479 480 486
83 1 477 479 478 491
84 1 477 486 487 505
85 1 416 418 417 430
86 1 419 417 418 424
87 1 415 417 416 429
88 1 414 416 415 425
89 1 357 355 356 362
90 1 353 355 354 367
91 1 354 356 355 368
92 1 353 362 363 381
93 1 352 354 353 363
94 1 356 363 362 380
95 1 322 331 321 320
96 1 324 331 330 349
97 1 321 330 331 350
98 1 1241 1239 1240 1246
99 1 1237 1239 1238 1252
100 1 1238 1240 1239 1253
101 1 1240 1247 1246 1265
102 1 322 324 323 337
103 1 1176 1178 1177 1190
104 1 1175 1184 1185 1203
105 1 325 323 324 330
106 1 321 323 322 336
107 1 1237 1246 1247 1266
108 1 190 199 200 218
109 1 98 100 99 112
110 1 251 253 252 262
111 1 256 254 255 261
112 1 252 254 253 266
113 1 159 168 169 187
114 1 162 169 168 186
115 1 253 255 254 267
116 1 193 200 199 217
117 1 191 193 192 205
118 1 194 192 193 199
119 1 190 192 191 204
120 1 189 191 190 200
121 1 224 231 230 248
122 1 220 222 221 231
123 1 255 262 261 279
124 1 252 261 262 280
125 1 225 223 224 230
126 1 221 223 222 235
127 1 101 99 100 106
128 1 97 99 98 111
129 1 97 106 107 125
130 1 96 98 97 107
131 1 100 107 106 124
132 1 158 160 159 169
133 1 160 162 161 174
134 1 163 161 162 168
135 1 159 161 160 173
136 1 830 828 829 835
137 1 826 828 827 840
138 1 827 829 828 841
139 1 825 827 826 836
140 1 892 890 891 897
141 1 888 890 889 902
142 1 887 889 888 898
143 1 67 69 68 81
144 1 131 138 137 155
145 1 128 137 138 156
146 1 127 129 128 138
147 1 129 131 130 143
148 1 132 130 131 137
149 1 128 130 129 142
150 1 70 68 69 75
151 1 66 68 67 80
152 1 65 67 66 76
153 1 918 920 919 929
154 1 922 929 928 947
155 1 919 928 929 948
156 1 920 922 921 935
157 1 889 891 890 903
158 1 891 898 897 915
159 1 888 897 898 916
160 1 701 703 702 712
161 1 706 704 705 711
162 1 702 704 703 716
163 1 705 712 711 729
164 1 702 711 712 730
165 1 703 705 704 717
166 1 763 765 764 774
167 1 799 797 798 804
168 1 795 797 796 809
169 1 794 796 795 805
170 1 798 805 804 822
171 1 826 835 836 854
172 1 829 836 835 853
173 1 767 774 773 791
174 1 768 766 767 773
175 1 764 766 765 778
176 1 765 767 766 779
177 1 764 773 774 792
178 1 856 858 857 867
179 1 66 75 76 94
180 1 69 76 75 93
181 1 38 45 44 62
182 1 36 38 37 50
183 1 34 36 35 45
184 1 39 37 38 44
185 1 35 37 36 49
186 1 35 44 45 63
187 1 923 921 922 928
188 1 919 921 920 934
189 1 860 867 866 884
190 1 857 866 867 885
191 1 858 860 859 872
192 1 861 859 860 866
193 1 857 859 858 871
194 1 640 642 641 655
195 1 639 648 649 668
196 1 1279 1277 1278 1284
197 1 1275 1277 1276 1290
198 1 1276 1278 1277 1291
199 1 1275 1284 1285 1304
200 1 1276 1285 1275 1274
201 1 1278 1285 1284 1303
202 1 1311 1309 1310 1316
203 1 1307 1309 1308 1321
204 1 1306 1308 1307 1317
205 1 1310 1317 1316 1334
206 1 1307 1316 1317 1335
207 1 1308 1310 1309 1322
208 1 643 641 642 648
209 1 639 641 640 654
210 1 640 649 639 638
211 1 642 649 648 667
212 1 672 674 673 686
213 1 671 680 681 699
214 1 675 673 674 680
215 1 671 673 672 685
216 1 670 672 671 681
217 1 674 681 680 698
218 1 732 734 733 743
219 1 737 735 736 742
220 1 733 735 734 747
221 1 734 736 735 748
222 1 736 743 742 760
223 1 733 742 743 761
224 1 4 13 3 2
225 1 6 13 12 31
226 1 3 12 13 32
227 1 795 804 805 823
228 1 796 798 797 810
229 1 4 6 5 19
230 1 7 5 6 12
231 1 3 5 4 18
232 1 1338 1347 1348 1366
233 1 1342 1340 1341 1347
234 1 1338 1340 1339 1352
235 1 1339 1341 1340 1353
236 1 1337 1339 1338 1348
237 1 1341 1348 1347 1365
238 1 1372 1379 1378 1396
239 1 1403 1410 1409 1427
240 1 1400 1409 1410 1428
241 1 1399 1401 1400 1410
242 1 1401 1403 1402 1415
243 1 1404 1402 1403 1409
244 1 1400 1402 1401 1414
245 1 957 966 967 986
246 1 958 960 959 973
247 1 958 967 957 956
248 1 960 967 966 985
249 1 961 959 960 966
250 1 957 959 958 972
251 1 1528 1526 1527 1533
252 1 1524 1526 1525 1538
253 1 1523 1525 1524 1534
254 1 1525 1527 1526 1539
255 1 1527 1534 1533 1551
256 1 1524 1533 1534 1552
257 1 1497 1495 1496 1502
258 1 1493 1495 1494 1507
259 1 1494 1496 1495 1508
260 1 1492 1494 1493 1503
261 1 1493 1502 1503 1521
262 1 1496 1503 1502 1520
263 1 1207 1209 1208 1221
264 1 1117 1115 1116 1122
265 1 1113 1115 1114 1127
266 1 1368 1370 1369 1379
267 1 1370 1372 1371 1384
268 1 1369 1378 1379 1397
269 1 1373 1371 1372 1378
270 1 1369 1371 1370 1383
271 1 1432 1434 1433 1446
272 1 1434 1441 1440 1458
273 1 1461 1463 1462 1472
274 1 1435 1433 1434 1440
275 1 1431 1433 1432 1445
276 1 1431 1440 1441 1459
277 1 1430 1432 1431 1441
278 1 1465 1472 1471 1489
279 1 1466 1464 1465 1471
280 1 1462 1464 1463 1476
281 1 1462 1471 1472 1490
282 1 1463 1465 1464 1477
283 1 1052 1054 1053 1066
284 1 1055 1053 1054 1060
285 1 1051 1053 1052 1065
286 1 1051 1060 1061 1079
287 1 1050 1052 1051 1061
288 1 1054 1061 1060 1078
289 1 1023 1030 1029 1047
290 1 1020 1029 1030 1048
291 1 1019 1021 1020 1030
292 1 1021 1023 1022 1035
293 1 1024 1022 1023 1029
294 1 1020 1022 1021 1034
295 1 1210 1208 1209 1215
296 1 1206 1208 1207 1220
297 1 1206 1215 1216 1234
298 1 1112 1114 1113 1123
299 1 1114 1116 1115 1128
300 1 988 990 989 999
