LAMMPS (22 Jul 2025 - Update 1)
OMP_NUM_THREADS environment is not set. Defaulting to 1 thread.
  using 1 OpenMP thread(s) per MPI task
package gpu 1 neigh no
# iteration 0
# generated by aemwater -- do not edit; edit the template instead

units           real
atom_style      full
boundary        p p p

pair_style      lj/cut/coul/long 10.0 10.0
# GAFF2 is a Lorentz-Berthelot force field. The LAMMPS default for lj/cut is
# GEOMETRIC mixing, which silently changes every cross interaction.
pair_modify     mix arithmetic tail yes
kspace_style    pppm 0.0001
bond_style      harmonic
angle_style     harmonic
dihedral_style  charmm
improper_style  cvff
# Amber 1-4 scaling: LJ/2 and Coulomb/1.2. Applied here, so every CHARMM
# dihedral weight in the data file is 0.
special_bonds   lj 0.0 0.0 0.5 coul 0.0 0.0 0.8333333333

read_data       start.data
Reading data file ...
  orthogonal box = (0 0 0) to (25.613153 25.613153 25.613153)
  1 by 1 by 1 MPI processor grid
  reading atoms ...
  1840 atoms
  scanning bonds ...
  4 = max bonds/atom
  scanning angles ...
  6 = max angles/atom
  scanning dihedrals ...
  33 = max dihedrals/atom
  scanning impropers ...
  2 = max impropers/atom
  orthogonal box = (0 0 0) to (25.613153 25.613153 25.613153)
  1 by 1 by 1 MPI processor grid
  reading bonds ...
  1785 bonds
  reading angles ...
  3110 angles
  reading dihedrals ...
  4790 dihedrals
  reading impropers ...
  300 impropers
Finding 1-2 1-3 1-4 neighbors ...
  special bond factors lj:    0        0        0.5     
  special bond factors coul:  0        0        0.8333333333
     4 = max # of 1-2 neighbors
    12 = max # of 1-3 neighbors
    18 = max # of 1-4 neighbors
    22 = max # of special neighbors
  special bonds CPU = 0.002 seconds
  read_data CPU = 0.074 seconds
neighbor        2.0 bin
neigh_modify    delay 0 every 1 check yes
# The ghost-atom cutoff defaults to the pair cutoff + skin. Bonded partners must
# also be within it, and a stretched bond in a freshly packed cell can exceed it,
# which LAMMPS reports as a communication-cutoff warning before losing atoms.
comm_modify     cutoff 12.0

# Molecule IDs are assigned by the data writer in packing order: polymer chains
# first, then counterions, then any water added later. `<>` is LAMMPS's inclusive
# range operator.
group           polymer molecule <> 1 5
1590 atoms in group polymer
group           ions molecule <> 6 55
100 atoms in group ions
group           water type 9 10
150 atoms in group water

thermo          500
thermo_style    custom step temp press vol density etotal ke pe ebond eangle edihed evdwl ecoul elong
thermo_modify   flush yes

timestep        1.0
velocity        all create 300.0 87231 mom yes rot yes dist gaussian

# ---------------------------------------------------------------- relax -------
# The newly inserted waters were placed in geometric voids, which is not the same
# as an energetically relaxed position. A short NVE/limit run absorbs the initial
# strain without letting any atom move far enough to cross a chain.
fix             nve_settle all nve/limit 0.05
fix             temp_settle all temp/rescale 10 300.0 300.0 10.0 1.0
run             5000

CITE-CITE-CITE-CITE-CITE-CITE-CITE-CITE-CITE-CITE-CITE-CITE-CITE

Your simulation uses code contributions which should be cited:

- GPU package (short-range, long-range and three-body potentials): doi:10.1016/j.cpc.2010.12.021, doi:10.1016/j.cpc.2011.10.012, doi:10.1016/j.cpc.2013.08.002, doi:10.1016/j.commatsci.2014.10.068, doi:10.1016/j.cpc.2016.10.020, doi:10.3233/APC200086

@Article{Brown11,
 author = {W. M. Brown and P. Wang and S. J. Plimpton and A. N. Tharrington},
 title = {Implementing Molecular Dynamics on Hybrid High Performance Computers---Short Range Forces},
 journal = {Comput.\ Phys.\ Commun.},
 year =    2011,
 volume =  182,
 pages =   {898--911},
 doi =     {10.1016/j.cpc.2010.12.021}
}

@Article{Brown12,
 author = {W. M. Brown and A. Kohlmeyer and S. J. Plimpton and A. N. Tharrington},
 title = {Implementing Molecular Dynamics on Hybrid High Performance Computers - Particle-Particle Particle-Mesh},
 journal = {Comput.\ Phys.\ Commun.},
 year =    2012,
 volume =  183,
 doi =     {10.1016/j.cpc.2011.10.012},
 pages =   {449--459}
}

@Article{Brown13,
 author = {W. M. Brown and Y. Masako},
 title = {Implementing Molecular Dynamics on Hybrid High Performance Computers---Three-Body Potentials},
 journal = {Comput.\ Phys.\ Commun.},
 year =    2013,
 volume =  184,
 pages =   {2785--2793},
 doi =     {10.1016/j.cpc.2013.08.002},
}

@Article{Trung15,
 author = {T. D. Nguyen and S. J. Plimpton},
 title = {Accelerating Dissipative Particle Dynamics Simulations for Soft Matter Systems},
 journal = {Comput.\ Mater.\ Sci.},
 year =    2015,
 doi =     {10.1016/j.commatsci.2014.10.068},
 volume =  100,
 pages =   {173--180}
}

@Article{Trung17,
 author = {T. D. Nguyen},
 title = {{GPU}-Accelerated {T}ersoff Potentials for Massively Parallel
    Molecular Dynamics Simulations},
 journal = {Comput.\ Phys.\ Commun.},
 year =    2017,
 doi =     {10.1016/j.cpc.2016.10.020},
 volume =  212,
 pages =   {113--122}
}

@inproceedings{Nikolskiy19,
 author = {V. Nikolskiy and V. Stegailov},
 title = {{GPU} Acceleration of Four-Site Water Models in {LAMMPS}},
 booktitle = {Proceedings of the International Conference on Parallel
    Computing (ParCo 2019), Prague, Czech Republic},
 doi =     {10.3233/APC200086},
 year =    2019
}

CITE-CITE-CITE-CITE-CITE-CITE-CITE-CITE-CITE-CITE-CITE-CITE-CITE

PPPM initialization ...
  using 12-bit tables for long-range coulomb
  G vector (1/distance) = 0.25531433
  grid = 12 12 12
  stencil order = 5
  estimated absolute RMS force accuracy = 0.014413209
  estimated relative force accuracy = 4.3404952e-05
  using double precision KISS FFT
  3d grid and FFT values/proc = 4913 1728
Generated 45 of 45 mixed pair_coeff terms from arithmetic mixing rule
Neighbor list info ...
  update: every = 1 steps, delay = 0 steps, check = yes
  max neighbors/atom: 2000, page size: 100000
  master list distance cutoff = 12
  ghost atom cutoff = 12
  binsize = 6, bins = 5 5 5
  1 neighbor lists, perpetual/occasional/extra = 1 0 0
  (1) pair lj/cut/coul/long/gpu, perpetual
      attributes: full, newton on
      pair build: full/bin
      stencil: full/bin/3d
      bin: standard
Per MPI rank memory allocation (min/avg/max) = 28.51 | 28.51 | 28.51 Mbytes
   Step          Temp          Press          Volume        Density         TotEng         KinEng         PotEng         E_bond        E_angle        E_dihed         E_vdwl         E_coul         E_long    
         0   300            464.32677      16803.089      1.0589109      156.60308      1644.5129     -1487.9098      555.11043      770.32789      488.52023     -703.63133      6026.8689     -8636.5908    
       500   306.49901     -72.137031      16803.089      1.0589109     -519.28506      1680.1386     -2199.4237      575.68611      734.3284       491.07317     -538.86983      5178.9871     -8652.6043    
      1000   291.67478      846.79504      16803.089      1.0589109     -704.05317      1598.8765     -2302.9297      597.92897      740.69236      517.78321     -433.35749      4915.9306     -8654.3211    
      1500   293.32813      621.95641      16803.089      1.0589109     -760.4037       1607.9397     -2368.3434      558.47351      750.1875       494.9503      -416.19954      4890.3521     -8657.281     
      2000   291.30892     -830.06535      16803.089      1.0589109     -759.01322      1596.8709     -2355.8841      616.52979      741.9235       508.4337      -427.8735       4845.0404     -8652.7911    
      2500   301.87635     -278.03574      16803.089      1.0589109     -779.06219      1654.7985     -2433.8607      569.9482       729.11679      516.424       -381.85759      4767.5387     -8648.5509    
      3000   295.30544      766.1392       16803.089      1.0589109     -803.45326      1618.7787     -2422.2319      585.07718      748.0734       515.86068     -399.44405      4768.0869     -8651.6304    
      3500   298.30482      2539.5417      16803.089      1.0589109     -832.89855      1635.2204     -2468.119       591.95793      721.35439      529.10446     -325.77804      4652.0524     -8650.1453    
      4000   299.30322      1569.8752      16803.089      1.0589109     -976.08858      1640.6934     -2616.782       551.8063       711.87573      501.88127     -361.21993      4615.1554     -8648.2501    
      4500   299.93718      1980.4832      16803.089      1.0589109     -883.55485      1644.1686     -2527.7234      569.42912      717.33652      518.22452     -348.94189      4642.062      -8638.4218    
      5000   297.26487      1847.6476      16803.089      1.0589109     -882.4055       1629.5197     -2511.9252      582.51724      751.84979      522.69978     -365.55838      4628.1267     -8644.4124    
Loop time of 31.2877 on 1 procs for 5000 steps with 1840 atoms

Performance: 13.807 ns/day, 1.738 hours/ns, 159.807 timesteps/s, 294.045 katom-step/s
94.8% CPU use with 1 MPI tasks x 1 OpenMP threads

MPI task timing breakdown:
Section |  min time  |  avg time  |  max time  |%varavg| %total
---------------------------------------------------------------
Pair    | 4.1257     | 4.1257     | 4.1257     |   0.0 | 13.19
Bond    | 4.1729     | 4.1729     | 4.1729     |   0.0 | 13.34
Kspace  | 3.283      | 3.283      | 3.283      |   0.0 | 10.49
Neigh   | 18.863     | 18.863     | 18.863     |   0.0 | 60.29
Comm    | 0.51234    | 0.51234    | 0.51234    |   0.0 |  1.64
Output  | 0.0036114  | 0.0036114  | 0.0036114  |   0.0 |  0.01
Modify  | 0.21114    | 0.21114    | 0.21114    |   0.0 |  0.67
Other   |            | 0.1158     |            |       |  0.37

Nlocal:           1840 ave        1840 max        1840 min
Histogram: 1 0 0 0 0 0 0 0 0 0
Nghost:          11702 ave       11702 max       11702 min
Histogram: 1 0 0 0 0 0 0 0 0 0
Neighs:              0 ave           0 max           0 min
Histogram: 1 0 0 0 0 0 0 0 0 0
FullNghs:  1.46923e+06 ave 1.46923e+06 max 1.46923e+06 min
Histogram: 1 0 0 0 0 0 0 0 0 0

Total # of neighbors = 1469232
Ave neighs/atom = 798.49565
Ave special neighs/atom = 10.097826
Neighbor list builds = 214
Dangerous builds = 0
unfix           nve_settle
unfix           temp_settle

min_style       cg
minimize        1e-06 1e-06 20000 200000
PPPM initialization ...
  using 12-bit tables for long-range coulomb
  G vector (1/distance) = 0.25531433
  grid = 12 12 12
  stencil order = 5
  estimated absolute RMS force accuracy = 0.014413209
  estimated relative force accuracy = 4.3404952e-05
  using double precision KISS FFT
  3d grid and FFT values/proc = 4913 1728
Generated 45 of 45 mixed pair_coeff terms from arithmetic mixing rule
Per MPI rank memory allocation (min/avg/max) = 29.64 | 29.64 | 29.64 Mbytes
   Step          Temp          Press          Volume        Density         TotEng         KinEng         PotEng         E_bond        E_angle        E_dihed         E_vdwl         E_coul         E_long    
      5000   297.26487      1847.6473      16803.089      1.0589109     -882.40552      1629.5197     -2511.9252      582.51724      751.84979      522.69978     -365.55839      4628.1267     -8644.4124    
      5344   297.26487      1600.5408      16803.089      1.0589109     -2605.0713      1629.5197     -4234.591       152.80323      166.51262      315.5701      -491.86979      4281.6693     -8661.3126    
Loop time of 2.27406 on 1 procs for 344 steps with 1840 atoms

99.9% CPU use with 1 MPI tasks x 1 OpenMP threads

Minimization stats:
  Stopping criterion = energy tolerance
  Energy initial, next-to-last, final = 
      -2511.9252198622  -4234.58888206001  -4234.59103538698
  Force two-norm initial, final = 1307.0951 7.2989683
  Force max component initial, final = 74.846846 1.3691013
  Final line search alpha, max atom move = 0.011301464 0.015472849
  Iterations, force evaluations = 344 688

MPI task timing breakdown:
Section |  min time  |  avg time  |  max time  |%varavg| %total
---------------------------------------------------------------
Pair    | 0.43811    | 0.43811    | 0.43811    |   0.0 | 19.27
Bond    | 0.62552    | 0.62552    | 0.62552    |   0.0 | 27.51
Kspace  | 0.46748    | 0.46748    | 0.46748    |   0.0 | 20.56
Neigh   | 0.63618    | 0.63618    | 0.63618    |   0.0 | 27.98
Comm    | 0.063638   | 0.063638   | 0.063638   |   0.0 |  2.80
Output  | 0          | 0          | 0          |   0.0 |  0.00
Modify  | 5.0047e-05 | 5.0047e-05 | 5.0047e-05 |   0.0 |  0.00
Other   |            | 0.04309    |            |       |  1.89

Nlocal:           1840 ave        1840 max        1840 min
Histogram: 1 0 0 0 0 0 0 0 0 0
Nghost:          11724 ave       11724 max       11724 min
Histogram: 1 0 0 0 0 0 0 0 0 0
Neighs:              0 ave           0 max           0 min
Histogram: 1 0 0 0 0 0 0 0 0 0
FullNghs:  1.47236e+06 ave 1.47236e+06 max 1.47236e+06 min
Histogram: 1 0 0 0 0 0 0 0 0 0

Total # of neighbors = 1472362
Ave neighs/atom = 800.19674
Ave special neighs/atom = 10.097826
Neighbor list builds = 7
Dangerous builds = 0

fix             shake_all all shake 0.0001 20 0 b 9 a 14
Finding SHAKE clusters ...
       0 = # of size 2 clusters
       0 = # of size 3 clusters
       0 = # of size 4 clusters
      50 = # of frozen angles
  find clusters CPU = 0.001 seconds

# ---------------------------------------------------------------- NPT ---------
# Swelling is the point: the box must be free to expand as water goes in, so the
# uptake is measured at constant pressure, not constant volume.
fix             npt_swell all npt temp 300.0 300.0 100.0 iso 1.0 1.0 1000.0
run             25000
PPPM initialization ...
  using 12-bit tables for long-range coulomb
  G vector (1/distance) = 0.25531433
  grid = 12 12 12
  stencil order = 5
  estimated absolute RMS force accuracy = 0.014413209
  estimated relative force accuracy = 4.3404952e-05
  using double precision KISS FFT
  3d grid and FFT values/proc = 4913 1728
Generated 45 of 45 mixed pair_coeff terms from arithmetic mixing rule
Per MPI rank memory allocation (min/avg/max) = 29.44 | 29.44 | 29.44 Mbytes
   Step          Temp          Press          Volume        Density         TotEng         KinEng         PotEng         E_bond        E_angle        E_dihed         E_vdwl         E_coul         E_long    
      5344   305.573        2939.2531      16803.089      1.0589109     -2725.4946      1629.5197     -4355.0143      48.456739      150.43582      315.5701      -491.86979      4281.6693     -8661.3126    
      5500   182.63739      3690.2848      16808.301      1.0585825     -2254.1303      973.94476     -3228.0751      250.71267      481.24857      425.50777     -481.77102      4744.4101     -8655.7826    
      6000   298.44032      665.03216      16595.575      1.0721517     -882.02724      1591.4835     -2473.5107      499.60443      758.58099      502.13737     -467.43161      4869.005      -8647.537     
      6500   301.05486      1649.4065      16809.39       1.0585139     -944.07366      1605.426      -2549.4996      475.02246      739.71832      481.33849     -466.33154      4856.8769     -8645.6196    
      7000   288.8229       1261.9573      16959.3        1.0491573     -929.81635      1540.197      -2470.0133      494.48893      780.96128      494.1791      -467.31815      4857.1674     -8639.9925    
      7500   303.1749      -394.03069      16850.94       1.0559039     -865.2311       1616.7314     -2481.9625      526.69224      730.65293      501.80002     -472.42244      4866.263      -8647.1078    
      8000   302.66933      141.41088      16849.185      1.0560139     -841.6818       1614.0354     -2455.7172      509.71335      787.62742      499.44859     -419.46566      4803.0721     -8647.4741    
      8500   304.37982      1581.4268      16719.636      1.0641962     -867.2255       1623.1569     -2490.3824      480.33054      789.51616      491.85977     -455.14297      4835.7912     -8644.1338    
      9000   302.44233     -1932.0192      16886.633      1.0536721     -923.4997       1612.8249     -2536.3246      495.55397      746.79465      518.15227     -508.40404      4846.1304     -8648.4132    
      9500   294.72428      402.36484      16746.975      1.0624589     -926.15949      1571.6671     -2497.8266      508.16237      773.45012      506.74201     -497.35819      4848.5391     -8649.2259    
     10000   301.47721     -439.9144       17039.771      1.0442026     -877.53802      1607.6782     -2485.2162      507.96393      762.38893      501.66777     -478.43199      4861.3705     -8651.0943    
     10500   304.94652      133.37614      16998.071      1.0467643     -822.96362      1626.1789     -2449.1426      541.58112      778.3191       506.85583     -437.69346      4801.07       -8652.1525    
     11000   301.73518     -719.33912      16777.237      1.0605425     -877.08003      1609.0539     -2486.1339      503.65448      776.17664      500.89844     -493.68213      4861.3133     -8646.4502    
     11500   299.1669       4134.937       16412.485      1.0841121     -931.46996      1595.3581     -2526.8281      491.76776      782.84934      517.82893     -484.76198      4800.7889     -8648.7037    
     12000   300.34179      532.34752      16486.736      1.0792296     -949.30857      1601.6234     -2550.932       533.6931       746.0513       485.15661     -444.14281      4766.024      -8648.1522    
     12500   301.2619       920.34907      16768.179      1.0611154     -925.30461      1606.53       -2531.8346      503.46202      736.85058      480.11598     -467.00764      4852.184      -8648.5312    
     13000   307.23121      1945.634       16757.594      1.0617857     -860.41017      1638.3624     -2498.7726      523.00549      758.86798      510.03724     -475.73572      4824.4366     -8653.0352    
     13500   302.68753      1560.8207      16546.369      1.0753401     -898.73868      1614.1324     -2512.8711      512.36218      802.32162      492.54079     -494.33047      4817.6919     -8655.1143    
     14000   300.97058     -352.10833      16846.571      1.0561778     -884.76615      1604.9765     -2489.7427      547.33479      757.53493      504.20788     -469.31904      4801.4678     -8643.9588    
     14500   301.53759     -920.53803      16453.24       1.0814267     -930.44507      1608.0002     -2538.4453      569.45179      730.68591      484.1506      -469.58229      4786.1893     -8650.9777    
     15000   305.88244      894.81665      16479.687      1.0796912     -908.69481      1631.1699     -2539.8647      543.59488      747.51611      474.57319     -471.54143      4804.8941     -8650.8612    
     15500   298.38969      1474.5716      16589.613      1.072537      -918.95365      1591.2135     -2510.1672      556.10519      757.64223      478.98663     -451.46424      4783.5108     -8646.2881    
     16000   301.6288       687.24038      16598.302      1.0719755     -983.0953       1608.4866     -2591.5819      521.76571      733.01901      482.48754     -487.42396      4791.5221     -8645.6372    
     16500   293.89398     -712.75742      16460.471      1.0809516     -989.82462      1567.2394     -2557.064       554.69046      755.4575       480.69586     -506.66082      4793.0147     -8645.3809    
     17000   296.82587      578.23752      16483.829      1.0794199     -1008.3215      1582.8742     -2591.1957      541.85605      722.46214      489.60937     -475.32449      4768.0402     -8649.4565    
     17500   301.1384       499.38502      16563.888      1.0742027     -936.86521      1605.8715     -2542.7367      537.34768      766.69131      500.9758      -491.47075      4773.3308     -8641.9364    
     18000   292.05386      1227.8683      16669.859      1.067374      -902.53559      1557.4266     -2459.9622      534.75058      821.32609      504.37738     -464.8151       4774.0659     -8643.5471    
     18500   302.40904      419.29026      16526.133      1.0766568     -930.15098      1612.6474     -2542.7983      538.57796      778.6012       493.95411     -456.19512      4738.3113     -8647.8899    
     19000   296.9132      -295.63406      16385.014      1.0859297     -1006.4579      1583.3399     -2589.7978      558.3401       727.457        490.86715     -464.62397      4738.3698     -8650.9754    
     19500   300.92907     -714.69543      16583.166      1.072954      -901.0205       1604.7552     -2505.7757      564.7518       795.01993      488.61085     -460.77657      4742.4252     -8647.5367    
     20000   307.95924      654.38059      16496.341      1.0786012     -896.39375      1642.2447     -2538.6385      550.52413      791.95913      496.8428      -503.04256      4765.9572     -8651.5265    
     20500   298.56569     -2104.7421      16624.127      1.0703102     -916.1595       1592.152      -2508.3115      573.14485      760.88997      498.24756     -475.54768      4773.0227     -8649.3978    
     21000   295.43967     -3113.7764      16621.146      1.0705022     -948.72341      1575.482      -2524.2055      540.97793      789.18606      505.09131     -505.8522       4782.2687     -8648.7109    
     21500   296.7255      -2222.7881      16529.174      1.0764587     -972.10146      1582.3389     -2554.4404      544.18985      771.76277      478.5991      -470.16256      4758.2334     -8647.5911    
     22000   302.03032     -518.00789      16567.287      1.0739823     -933.08118      1610.6278     -2543.7089      560.38581      780.49272      502.75008     -499.71687      4743.1286     -8641.6551    
     22500   292.42623      506.79609      16215.135      1.0973065     -1000.2386      1559.4123     -2559.6509      537.54736      781.22239      503.53181     -444.0737       4699.2981     -8650.1323    
     23000   292.68256     -851.42622      16574.054      1.0735438     -1017.1168      1560.7793     -2577.896       529.96409      773.63897      517.95383     -438.60857      4678.7439     -8653.1746    
     23500   300.74127     -230.64706      16438.7        1.0823832     -994.71323      1603.7537     -2598.4669      544.81894      743.41762      473.76996     -471.28049      4739.2397     -8640.1924    
     24000   308.33384      1491.7397      16466.641      1.0805467     -957.66556      1644.2423     -2601.9079      576.49939      740.89365      482.82581     -433.86013      4663.4741     -8643.7096    
     24500   298.26001     -1679.7818      16420.603      1.0835761     -931.55587      1590.5219     -2522.0778      581.04346      820.56106      486.85332     -485.15949      4716.3674     -8654.5861    
     25000   301.2754       1750.7283      16441.054      1.0822283     -875.14323      1606.602      -2481.7453      587.34662      785.91813      497.40128     -483.02131      4759.0208     -8640.6464    
     25500   311.0445       450.34869      16630.902      1.0698742     -916.46251      1658.6974     -2575.1599      563.18501      750.98227      473.26895     -463.15935      4736.3632     -8647.1107    
     26000   301.32604      464.32153      16384.076      1.0859919     -980.09316      1606.8721     -2586.9652      547.6109       735.081        499.47956     -501.736        4772.7853     -8652.7726    
     26500   299.01302     -487.78686      16488.276      1.0791288     -973.79823      1594.5375     -2568.3358      565.92421      759.41656      506.22671     -507.2461       4743.2783     -8649.4301    
     27000   290.41411      1480.2509      16524.174      1.0767844     -1054.2929      1548.6824     -2602.9752      551.17122      736.84643      485.23247     -493.31025      4752.6499     -8647.4575    
     27500   296.91617     -1384.473       16398.649      1.0850268     -983.89893      1583.3557     -2567.2547      559.73157      753.94843      497.17136     -465.34302      4725.1179     -8650.2064    
     28000   299.64435      494.44754      16547.304      1.0752793     -943.59817      1597.9042     -2541.5023      564.34642      740.31938      521.90265     -479.80184      4749.1124     -8651.5833    
     28500   302.85196      655.43552      16509.767      1.0777241     -942.41873      1615.0093     -2557.428       540.74719      750.53876      508.26174     -460.73166      4740.4979     -8648.6119    
     29000   294.6658       496.85017      16325.872      1.0898636     -1017.9489      1571.3552     -2589.3041      558.36002      756.06461      506.60916     -481.03875      4717.3179     -8656.8567    
     29500   309.96136     -3547.0445      16584.918      1.0728406     -858.30915      1652.9214     -2511.2305      564.03451      793.24123      494.78009     -489.59054      4755.963      -8643.5785    
     30000   304.4686       1258.998       16554.473      1.0748137     -941.53216      1623.6303     -2565.1625      562.32471      741.84172      498.27927     -458.29188      4720.9382     -8641.8944    
     30344   294.59239      1002.5376      16493.301      1.0788        -1000.4075      1570.9637     -2571.3713      535.34233      766.72202      494.07962     -473.7803       4732.6807     -8638.6127    
Loop time of 184.782 on 1 procs for 25000 steps with 1840 atoms

Performance: 11.689 ns/day, 2.053 hours/ns, 135.294 timesteps/s, 248.942 katom-step/s
93.5% CPU use with 1 MPI tasks x 1 OpenMP threads

MPI task timing breakdown:
Section |  min time  |  avg time  |  max time  |%varavg| %total
---------------------------------------------------------------
Pair    | 23.562     | 23.562     | 23.562     |   0.0 | 12.75
Bond    | 25.889     | 25.889     | 25.889     |   0.0 | 14.01
Kspace  | 18.141     | 18.141     | 18.141     |   0.0 |  9.82
Neigh   | 98.411     | 98.411     | 98.411     |   0.0 | 53.26
Comm    | 2.687      | 2.687      | 2.687      |   0.0 |  1.45
Output  | 0.0092244  | 0.0092244  | 0.0092244  |   0.0 |  0.00
Modify  | 15.364     | 15.364     | 15.364     |   0.0 |  8.31
Other   |            | 0.7193     |            |       |  0.39

Nlocal:           1840 ave        1840 max        1840 min
Histogram: 1 0 0 0 0 0 0 0 0 0
Nghost:          11606 ave       11606 max       11606 min
Histogram: 1 0 0 0 0 0 0 0 0 0
Neighs:              0 ave           0 max           0 min
Histogram: 1 0 0 0 0 0 0 0 0 0
FullNghs:  1.49242e+06 ave 1.49242e+06 max 1.49242e+06 min
Histogram: 1 0 0 0 0 0 0 0 0 0

Total # of neighbors = 1492422
Ave neighs/atom = 811.09891
Ave special neighs/atom = 10.097826
Neighbor list builds = 1104
Dangerous builds = 0

variable        dens equal density
variable        vol_ equal vol
fix             avg all ave/time 500 10 5000 v_dens v_vol_ file density.dat
run             25000
PPPM initialization ...
  using 12-bit tables for long-range coulomb
  G vector (1/distance) = 0.25585439
  grid = 12 12 12
  stencil order = 5
  estimated absolute RMS force accuracy = 0.014151388
  estimated relative force accuracy = 4.2616484e-05
  using double precision KISS FFT
  3d grid and FFT values/proc = 4913 1728
Generated 45 of 45 mixed pair_coeff terms from arithmetic mixing rule
Per MPI rank memory allocation (min/avg/max) = 29.83 | 29.83 | 29.83 Mbytes
   Step          Temp          Press          Volume        Density         TotEng         KinEng         PotEng         E_bond        E_angle        E_dihed         E_vdwl         E_coul         E_long    
     30344   294.59239      996.09156      16493.301      1.0788        -1000.3999      1570.9637     -2571.3637      535.34233      766.72202      494.07962     -473.78032      4750.3009     -8656.2254    
     30500   298.6245       1204.3066      16427.251      1.0831376     -953.84359      1592.4657     -2546.3092      563.73815      789.73902      486.34223     -466.78209      4737.6132     -8667.3113    
     31000   297.78423     -834.25835      16633.169      1.0697284     -954.61802      1587.9848     -2542.6028      563.77357      757.75694      493.90292     -496.2627       4790.7811     -8664.8669    
     31500   294.71122      1144.2379      16630.359      1.0699091     -969.00261      1571.5974     -2540.6001      570.10592      809.00569      469.50017     -460.15482      4723.6604     -8663.0928    
     32000   292.22745      165.76166      16309.999      1.0909243     -1023.7887      1558.3523     -2582.141       549.15351      780.74711      501.64404     -488.40496      4728.8053     -8666.6001    
     32500   307.44372     -3359.2793      16609.285      1.0712667     -937.24507      1639.4956     -2576.7407      592.58786      754.99893      490.89768     -486.70931      4719.3012     -8658.9569    
     33000   302.42028      1503.5138      16446.586      1.0818643     -968.797        1612.7073     -2581.5043      561.08026      767.44166      500.74749     -459.81671      4697.5131     -8660.4104    
     33500   292.10918      1546.2897      16415.008      1.0839454     -1042.0065      1557.7216     -2599.7282      558.51825      776.93952      490.79955     -475.24459      4698.0737     -8661.433     
     34000   305.89722     -2162.7243      16585.192      1.0728229     -945.57841      1631.2487     -2576.8271      524.59396      772.95892      520.19316     -451.77018      4707.1473     -8663.7837    
     34500   304.32939      1658.3004      16482.325      1.0795184     -946.22508      1622.8879     -2569.113       548.3225       770.67127      502.68445     -461.08325      4718.1168     -8661.6498    
     35000   300.933       -1534.7528      16582.445      1.0730006     -945.78104      1604.7761     -2550.5572      562.90995      779.43772      493.39348     -455.95299      4723.6373     -8665.3142    
     35500   294.03467      1843.2201      16408.723      1.0843607     -1023.8122      1567.9896     -2591.8018      509.4244       785.18989      496.86111     -475.03692      4738.4894     -8656.9318    
     36000   298.2441       1201.6773      16400.351      1.0849142     -998.12602      1590.4371     -2588.5632      535.91655      774.39115      491.71381     -474.33007      4732.5995     -8661.1422    
     36500   306.47986      520.13273      16536.038      1.0760119     -928.66613      1634.3557     -2563.0218      533.4955       808.86448      479.89699     -413.73627      4669.4544     -8650.778     
     37000   297.60375     -368.94587      16494.168      1.0787433     -974.68278      1587.0224     -2561.7051      565.4134       769.44873      489.44375     -460.41135      4714.1485     -8652.4241    
     37500   293.85034      243.39641      16279.383      1.0929759     -963.93228      1567.0066     -2530.9389      576.00943      798.88702      498.77684     -453.95927      4696.7331     -8659.6293    
     38000   304.33699      1217.5675      16293.603      1.092022      -1004.6444      1622.9285     -2627.5729      561.61501      763.90662      477.34676     -432.93682      4654.0361     -8662.3475    
     38500   297.26229      2131.5338      16392.18       1.085455      -969.80561      1585.2015     -2555.0071      562.75153      751.30859      504.7168      -474.1128       4747.5957     -8659.0968    
     39000   303.95553      929.47598      16387.474      1.0857667     -941.33227      1620.8943     -2562.2265      550.70004      779.19645      500.60855     -437.56803      4689.1422     -8657.1389    
     39500   298.36625     -1699.6375      16415.077      1.0839409     -936.77333      1591.0885     -2527.8618      584.9195       763.90668      513.92748     -452.39018      4708.0211     -8658.8765    
     40000   295.74637      465.54815      16435.866      1.0825699     -989.37406      1577.1176     -2566.4916      555.13994      781.55652      489.49794     -444.177        4702.2671     -8663.6963    
     40500   301.56779     -2724.8033      16582.906      1.0729708     -986.30995      1608.1613     -2594.4712      559.65112      776.67061      491.52047     -503.98681      4732.9168     -8662.4623    
     41000   304.59632     -86.416175      16357.023      1.087788      -1024.482       1624.3114     -2648.7934      565.03204      725.45483      483.13098     -483.86128      4716.3992     -8666.1724    
     41500   298.91685     -1073.3588      16337.116      1.0891135     -1017.8824      1594.0247     -2611.9071      565.79306      728.1176       493.59081     -419.44667      4666.3091     -8657.5104    
     42000   290.64765     -1363.2707      16395.457      1.0852381     -1019.0187      1549.9277     -2568.9464      568.29989      765.95759      499.38173     -459.48218      4714.195      -8669.73      
     42500   308.69369     -1215.6297      16339.103      1.0889811     -818.76132      1646.1613     -2464.9227      571.44867      830.5192       521.61733     -451.93926      4711.8091     -8661.6681    
     43000   303.96989      573.60041      16462.182      1.0808393     -959.64152      1620.9709     -2580.6124      574.59864      767.39168      481.59524     -456.97315      4697.9068     -8656.4605    
     43500   295.27347      2491.589       16401.295      1.0848517     -967.23091      1574.5957     -2541.8267      575.97289      784.27966      478.83652     -441.43         4703.5806     -8654.2734    
     44000   297.5014       400.61181      16370.819      1.0868713     -1006.2241      1586.4766     -2592.7007      573.41299      737.59513      493.83785     -473.48939      4720.9241     -8658.0758    
     44500   295.05324      1503.8528      16286.238      1.0925158     -1027.028       1573.4213     -2600.4493      570.43923      751.81689      496.86588     -447.19966      4673.7609     -8657.9065    
     45000   285.95084      286.61223      16433.161      1.0827481     -1048.0161      1524.8813     -2572.8973      541.16656      768.71766      479.89416     -467.79342      4752.2149     -8658.6384    
     45500   307.39199      704.4276       16497.981      1.078494      -932.6359       1639.2198     -2571.8557      539.76951      801.55215      502.79987     -490.01887      4721.0025     -8659.574     
     46000   298.19012      2250.6943      16299.108      1.0916532     -965.9482       1590.1493     -2556.0975      545.33302      798.77933      501.03544     -481.3229       4725.2965     -8658.0992    
     46500   297.24948      1544.185       16365.874      1.0871997     -997.32959      1585.1332     -2582.4628      550.99224      741.66547      487.24598     -445.25518      4731.8422     -8661.3115    
     47000   300.11373     -178.58701      16421.18       1.083538      -935.04483      1600.4073     -2535.4521      567.35836      745.07218      503.84438     -403.58752      4698.8142     -8659.4975    
     47500   300.80095      644.0464       16220.463      1.0969461     -953.1519       1604.0719     -2557.2238      558.70523      777.73298      496.04305     -442.75273      4703.748      -8663.589     
     48000   288.94696     -2504.7436      16277.562      1.0930982     -1013.9852      1540.8586     -2554.8437      582.57657      779.50725      497.73975     -492.84299      4721.7277     -8655.057     
     48500   287.77922     -3213.1201      16401.46       1.0848408     -1074.4157      1534.6314     -2609.047       573.24483      744.09596      499           -477.62068      4694.3519     -8653.8314    
     49000   304.62869     -604.33178      16242.439      1.0954619     -942.21415      1624.484      -2566.6982      569.75812      780.07679      501.79988     -489.54555      4724.1742     -8664.9045    
     49500   298.48813     -2810.8392      16221.893      1.0968494     -961.60143      1591.7384     -2553.3399      563.80985      807.60106      514.87168     -468.84056      4682.4177     -8665.1961    
     50000   297.44467      1100.8699      16274.044      1.0933345     -1040.9206      1586.174      -2627.0946      541.28211      755.22167      485.84955     -428.95521      4663.1599     -8654.6567    
     50500   293.71366     -1963.3771      16086.593      1.1060747     -1035.2465      1566.2778     -2601.5242      568.35         779.71598      485.7716      -468.59865      4685.9959     -8664.0532    
     51000   297.91472      2001.9493      16241.461      1.0955279     -921.34266      1588.6807     -2510.0233      584.76671      795.59005      507.8643      -470.45171      4720.1801     -8660.5804    
     51500   303.6876      -2997.9501      16090.698      1.1057925     -925.97439      1619.4655     -2545.4399      582.91996      827.95302      488.24342     -484.801        4688.883      -8659.3042    
     52000   304.74971     -901.70991      16065.529      1.1075249     -999.63016      1625.1294     -2624.7595      569.70252      766.0874       492.31021     -489.83667      4690.3452     -8665.3857    
     52500   291.83624      1657.7055      15955.402      1.1151693     -1048.854       1556.2661     -2605.1201      531.32558      775.65987      494.24937     -423.76429      4664.8557     -8659.7706    
     53000   292.84371     -655.74527      16162.272      1.1008956     -1024.7695      1561.6386     -2586.4081      572.13565      771.18776      476.72245     -430.93711      4675.23       -8664.1031    
     53500   318.08625     -2102.2936      16230.684      1.0962553     -811.94177      1696.2487     -2508.1905      617.9633       804.00795      518.83936     -522.73696      4718.8248     -8658.9617    
     54000   299.12642     -593.53555      16050.632      1.1085528     -1012.9636      1595.1422     -2608.1058      562.31961      793.49433      481.80744     -467.30353      4680.1922     -8671.0334    
     54500   298.02723     -2948.9696      16212.95       1.0974544     -1013.0723      1589.2806     -2602.353       541.1693       758.47631      508.67318     -454.43884      4690.8428     -8660.9133    
     55000   288.2101       199.36306      16046.109      1.1088653     -1028.5811      1536.9291     -2565.5103      583.51699      773.8411       510.50253     -441.88136      4649.385      -8653.3123    
     55344   300.52592     -1129.3691      16036.125      1.1095556     -931.01377      1602.6053     -2533.6191      597.79549      799.35242      503.25933     -475.43568      4687.6842     -8658.2957    
Loop time of 176.938 on 1 procs for 25000 steps with 1840 atoms

Performance: 12.208 ns/day, 1.966 hours/ns, 141.292 timesteps/s, 259.978 katom-step/s
94.4% CPU use with 1 MPI tasks x 1 OpenMP threads

MPI task timing breakdown:
Section |  min time  |  avg time  |  max time  |%varavg| %total
---------------------------------------------------------------
Pair    | 22.74      | 22.74      | 22.74      |   0.0 | 12.85
Bond    | 24.892     | 24.892     | 24.892     |   0.0 | 14.07
Kspace  | 18.198     | 18.198     | 18.198     |   0.0 | 10.29
Neigh   | 92.351     | 92.351     | 92.351     |   0.0 | 52.19
Comm    | 2.6153     | 2.6153     | 2.6153     |   0.0 |  1.48
Output  | 0.0086561  | 0.0086561  | 0.0086561  |   0.0 |  0.00
Modify  | 15.408     | 15.408     | 15.408     |   0.0 |  8.71
Other   |            | 0.7252     |            |       |  0.41

Nlocal:           1840 ave        1840 max        1840 min
Histogram: 1 0 0 0 0 0 0 0 0 0
Nghost:          11768 ave       11768 max       11768 min
Histogram: 1 0 0 0 0 0 0 0 0 0
Neighs:              0 ave           0 max           0 min
Histogram: 1 0 0 0 0 0 0 0 0 0
FullNghs:  1.53361e+06 ave 1.53361e+06 max 1.53361e+06 min
Histogram: 1 0 0 0 0 0 0 0 0 0

Total # of neighbors = 1533606
Ave neighs/atom = 833.48152
Ave special neighs/atom = 10.097826
Neighbor list builds = 1054
Dangerous builds = 0

# ------------------------------------------------------------- chemical pot ---
# Widom insertion of a test water into the swollen membrane, to be compared with
# the same quantity in bulk water. The comparison is only meaningful if both
# sides use identical cutoff, kspace accuracy and water model -- see bulk.in.j2.
#
# The test particle is inserted but never kept, so this measures the free energy
# the *next* water would pay, which is exactly the saturation question.
molecule        h2o h2o.mol
Read molecule template h2o:
# Rigid water for Widom test insertions.
  1 molecules
  0 fragments
  0 bodies
  3 atoms with max type 10
  2 bonds with max type 9
  1 angles with max type 14
  0 dihedrals with max type 0
  0 impropers with max type 0
fix             w all widom 100 400 0 87231 300.0 mol h2o full_energy
WARNING: Molecule attributes do not match system attributes
For more information see https://docs.lammps.org/err0026 (src/molecule.cpp:3634)
variable        muex equal f_w[1]
variable        boltz equal f_w[2]
variable        wvol equal f_w[3]
# Preserve one observation per Widom burst.  Python groups this raw time series
# into contiguous blocks; averaging a whole block here leaves only n_blocks
# values and makes the effective-sample-size diagnostic impossible.
fix             muavg all ave/time 100 1 100 v_muex v_boltz v_wvol file mu.dat
run             50000
PPPM initialization ...
  using 12-bit tables for long-range coulomb
  G vector (1/distance) = 0.25666842
  grid = 12 12 12
  stencil order = 5
  estimated absolute RMS force accuracy = 0.013764495
  estimated relative force accuracy = 4.1451367e-05
  using double precision KISS FFT
  3d grid and FFT values/proc = 4913 1728
Generated 45 of 45 mixed pair_coeff terms from arithmetic mixing rule
0 atoms in group FixWidom:widom_exclusion_group:w
0 atoms in group FixWidom:rotation_gas_atoms:w
WARNING: Neighbor exclusions used with KSpace solver may give inconsistent Coulombic energies (src/neighbor.cpp:671)
Per MPI rank memory allocation (min/avg/max) = 29.83 | 29.83 | 29.83 Mbytes
   Step          Temp          Press          Volume        Density         TotEng         KinEng         PotEng         E_bond        E_angle        E_dihed         E_vdwl         E_coul         E_long    
     55344   300.52592     -1112.2238      16036.125      1.1095556     -931.01006      1602.6053     -2533.6154      597.79549      799.35242      503.25933     -475.43568      4714.2563     -8684.8641    
     55500   302.61435     -1358.0312      16146.038      1.1020024     -965.75132      1613.7422     -2579.4935      561.76835      805.35896      497.17215     -455.49276      4691.1968     -8691.1584    
     56000   307.60794      2606.9768      16050.284      1.1085768     -899.8288       1640.3714     -2540.2002      567.58031      799.33481      509.58861     -454.52679      4711.4623     -8686.5512    
     56500   306.76801      222.53746      15964.745      1.1145166     -933.11213      1635.8923     -2569.0044      556.07309      801.00789      491.38391     -452.74395      4710.4007     -8687.3364    
     57000   302.82527     -3050.5693      16070.074      1.1072117     -978.12956      1614.867      -2592.9966      567.32826      767.75138      507.99155     -470.45385      4708.6945     -8687.7199    
     57500   302.01449     -2014.8841      16249.391      1.0949932     -1027.014       1610.5434     -2637.5574      541.90929      778.13524      488.38522     -504.45396      4738.4146     -8691.9846    
     58000   300.85492     -99.268362      16063.448      1.1076684     -988.52578      1604.3598     -2592.8855      537.4182       800.55586      497.13334     -475.98013      4723.6169     -8687.7421    
     58500   311.18521      829.1565       16065.511      1.1075262     -915.34777      1659.4478     -2574.7955      531.75114      810.85064      494.82412     -486.42982      4752.6348     -8690.6445    
     59000   300.38732     -246.92809      16210.396      1.0976273     -970.95962      1601.8662     -2572.8258      549.6434       797.42368      490.52622     -474.60082      4745.2568     -8692.1784    
     59500   296.68307      2620.1363      15829.89       1.1240112     -1024.0825      1582.1127     -2606.1952      524.34563      789.41854      495.91543     -462.87754      4727.6595     -8694.7878    
     60000   288.27203     -2808.1944      16306.454      1.0911614     -1046.2285      1537.2594     -2583.4879      565.38462      742.20144      516.11219     -443.59242      4714.2844     -8690.4983    
     60500   297.9889      -116.81615      16057.937      1.1080485     -1052.1512      1589.0762     -2641.2274      547.27985      738.29969      492.13282     -428.63972      4683.4004     -8685.8525    
     61000   295.78257     -484.69458      16062.33       1.1077455     -964.58155      1577.3106     -2541.8921      578.91698      798.84381      500.08688     -485.56047      4738.9172     -8685.8934    
     61500   299.36691      2.8865296      16065.607      1.1075195     -998.12486      1596.4247     -2594.5496      543.84483      790.08746      508.85863     -495.14033      4734.2026     -8690.5597    
     62000   301.65067     -289.63118      16096.632      1.1053849     -1027.2097      1608.6032     -2635.8129      543.99342      751.77162      496.88378     -467.17799      4717.3931     -8691.6769    
     62500   304.11939     -612.06442      16286.483      1.0924994     -968.42839      1621.7681     -2590.1965      582.31636      777.13308      494.67086     -461.18168      4690.4857     -8686.0948    
     63000   297.41973     -2250.5415      16182.887      1.0994931     -990.97259      1586.041      -2577.0136      587.58167      758.2007       500.92744     -480.90835      4724.4928     -8679.815     
     63500   294.34096     -739.75781      16202.724      1.0981471     -1029.5241      1569.6229     -2599.1471      574.27221      744.63601      476.57493     -426.77545      4706.0643     -8684.1048    
     64000   288.82469     -330.37687      16123.778      1.1035239     -1060.1116      1540.2065     -2600.3182      592.12366      727.62315      494.75012     -415.87049      4680.2612     -8691.8547    
     64500   303.66742      2886.1879      16173.265      1.1001473     -956.36638      1619.3579     -2575.7243      566.55034      789.00321      491.31219     -424.05168      4679.883      -8689.0067    
     65000   304.64547      2018.3746      16079.415      1.1065685     -977.91056      1624.5735     -2602.4841      542.03461      796.34979      493.79182     -426.07803      4667.5785     -8687.5297    
     65500   292.53159     -1095.6589      16102.73       1.1049663     -1085.167       1559.9742     -2645.1411      554.55201      755.88628      494.88893     -474.76653      4699.6918     -8685.7914    
     66000   305.25774     -786.45367      16240.242      1.0956101     -1037.164       1627.8385     -2665.0025      525.51242      769.84343      489.82043     -470.89539      4698.3337     -8688.6324    
     66500   300.04855     -117.83424      15997.777      1.1122153     -1006.0674      1600.0596     -2606.127       565.29317      784.32099      499.44304     -484.28771      4706.5399     -8690.6143    
     67000   306.32109     -269.82504      16470.338      1.0803041     -924.80637      1633.509      -2558.3154      552.13575      795.78815      490.36777     -435.02191      4709.9077     -8684.0985    
     67500   307.07673     -1531.4707      16140.252      1.1023975     -977.59092      1637.5386     -2615.1295      561.59553      786.01801      494.43149     -468.31785      4688.8809     -8689.5336    
