LAMMPS data file via write_data, version 22 Jul 2025, timestep = 105344, units = real

1840 atoms
10 atom types
1785 bonds
9 bond types
3110 angles
14 angle types
4790 dihedrals
10 dihedral types
300 impropers
1 improper types

0.14968114413879796 25.463471855860668 xlo xhi
0.14968114413879796 25.463471855860668 ylo yhi
0.14968114413879796 25.463471855860668 zlo zhi

Masses

1 12.01
2 12.01
3 14.01
4 1.008
5 1.008
6 1.008
7 15.9994
8 1.008
9 15.9994
10 1.008

Pair Coeffs # lj/cut/coul/long/gpu

1 0.1078 3.39771
2 0.0988 3.31521
3 3.8748 2.49951
4 0.0208 2.60018
5 0.0161 2.62548
6 0.0208 1.88746
7 0.1553 3.166
8 0 0
9 0.1553 3.166
10 0 0

Bond Coeffs # harmonic

1 228.89 1.5354
2 243.91 1.5147
3 354.25 1.3986
4 215.86 1.5167
5 345.25 1.0962
6 360.69 1.086
7 352.86 1.0911
8 553 0.98
9 553 1

Angle Coeffs # harmonic

1 60.33 112.42
2 59.87 112.63
3 60.74 120.83
4 63.67 120.02
5 63.53 115.67
6 76.02 109.36
7 43.27 109.68
8 43.61 110.63
9 44.9 119.88
10 43.48 111.41
11 46.79 108.17
12 35.8 107.73
13 35.63 109.79
14 100 109.47

Dihedral Coeffs # charmm

1 0.24 2 180 0
2 0.52 3 0 0
3 3.625 2 180 0
4 0.155556 3 0 0
5 0 2 0 0
6 0.7 2 0 0
7 0.156 3 0 0
8 0.13 3 0 0
9 0 1 0 0
10 0.12 3 0 0

Improper Coeffs # cvff

1 1.1 -1 2

Atoms # full

1384 5 5 0.137136 3.66509287068635 1.5563349340172474 1.7974302871879422 0 1 0
1272 4 4 0.045503 3.4652979041579983 4.595831922596255 1.4968468320254935 -1 1 0
1357 5 6 0.102614 0.9975650425691691 3.1032910131963107 1.632983785022324 0 1 0
1371 5 2 -0.09836399999999999 2.992721887050371 1.564645582383454 0.9716192374329877 0 1 0
1250 4 1 -0.088964 3.9727731694370987 5.104702809551013 2.35127063445969 -1 1 0
1344 5 1 0.090236 0.9451744463964198 3.544814354147819 2.639302748694362 0 1 0
1271 4 4 0.045503 3.751335959471048 4.406650690935239 3.2149853427295487 -1 1 0
1356 5 6 0.102614 1.2902832456522573 4.612099954741259 2.7940526950452043 0 1 0
1358 5 6 0.102614 1.3616785459075726 2.8499211191059612 3.4077042599507803 0 1 0
1386 5 6 0.100836 1.9184584266174907 0.8517421546255362 3.0879735460731825 0 1 0
1270 4 4 0.045503 5.054535014588253 5.1033009738593575 2.025099820328429 -1 1 0
1372 5 2 -0.188164 1.8804395183147236 0.6491338143110643 1.0904520338823462 0 1 0
1636 28 8 0.32 2.9211156359331536 1.1037187085722757 4.231764100539077 0 0 -3
1635 28 7 -1.32 2.6241847420797924 1.6124277119455492 5.023066775121116 0 0 -3
1776 84 10 0.4238 4.38826618051489 1.9419204839767734 4.8896214347206906 0 1 -1
1775 84 9 -0.8476 5.3682742700239405 1.7493950363448219 4.839705795020653 0 1 -1
1576 5 6 0.102614 6.404663163442269 1.9568211177739279 0.6464525120773801 0 1 0
501 2 6 0.102614 6.142950965293132 4.112014589076503 4.306595442859642 0 1 0
1373 5 1 0.188236 1.3948150541591597 25.449578723687058 2.4641285100848895 0 0 0
1728 68 10 0.4238 2.3930173502463385 3.1355951029188156 5.139614640574208 0 1 -1
1763 80 9 -0.8476 0.2116890567702238 1.7832939197065083 5.9669679362372205 0 1 -1
1764 80 10 0.4238 1.1535265520468447 1.8178294618142357 5.632717735907865 0 1 -1
1777 84 10 0.4238 5.80050014983771 1.9932376043496927 5.707862425705767 0 1 -1
485 2 1 0.090236 6.14290428336315 4.624445018112719 5.3082606015231315 0 1 0
1347 5 2 -0.09836399999999999 0.6028946895853824 5.376514124700116 0.2928833983518465 0 1 0
1378 5 2 -0.09836399999999999 1.0124226933698448 0.5882229035303277 25.299831339510312 0 1 -1
1560 5 3 -0.6068 8.15370772878436 3.0855365180391288 0.2134376278445526 0 1 0
1577 5 6 0.102614 8.330100626575517 5.2045131068284 25.34057070578241 0 1 -1
1579 5 6 0.102614 6.713209893834541 4.711712856628317 0.7093340712277719 0 1 0
1559 5 1 0.188236 8.623744250453631 2.9526925628690766 1.7130525901400555 0 1 0
440 2 6 0.102614 10.552840102349856 6.013179594806765 0.9608586042942804 0 1 0
1572 5 6 0.100836 9.363582014352646 3.707726477149328 1.9569967452237629 0 1 0
1573 5 6 0.100836 7.740220159456055 3.281832500859646 2.2950089961870512 0 1 0
1558 5 2 -0.188164 9.055299103845107 1.5751940509013116 2.1449545358832243 0 1 0
1564 5 2 -0.09836399999999999 10.362041915791227 1.0342969932049364 1.812792080426201 0 1 0
1583 5 5 0.137136 11.19352830016836 1.6083598940520598 1.3573491374019013 0 1 0
423 2 1 0.090236 11.44854515481648 5.623850037606463 0.7132610218568469 0 1 0
441 2 6 0.102614 11.423996939585965 4.61150091180296 0.29436485079076596 0 1 0
1571 5 5 0.137136 7.0302572483641 1.0042177002240025 2.829598314602231 0 1 0
495 2 6 0.102614 7.7845773623315635 6.410293693798786 3.997935698159788 0 1 0
483 2 1 0.090236 8.328910374902968 5.706967894573615 4.63248515072423 0 1 0
437 2 6 0.102614 10.926512340835869 4.072687143655038 2.5208578536509236 0 1 0
504 2 5 0.137136 10.487402823967894 2.9620221551640866 4.5907348775557235 0 1 0
439 2 6 0.102614 11.956620828150056 6.399943908718577 25.461153832047344 0 1 -1
497 2 6 0.102614 8.828401722448147 4.8674550899707585 4.007388936137101 0 1 0
1557 5 2 -0.09836399999999999 8.075126949330967 0.6477836346904786 2.6156153930552306 0 1 0
482 2 3 -0.6068 7.593893479822348 4.9389965180811926 5.693764926475171 0 1 0
494 2 6 0.100836 8.247304806185515 2.9318984152553536 5.159149983980905 0 1 0
486 2 2 -0.09836399999999999 10.801456128796818 3.127317617691687 5.57200195848161 0 1 0
420 2 3 -0.6068 12.22832829656281 5.526339235005486 1.9851654390438052 0 1 0
505 2 5 0.160636 12.687765012392237 2.2320569439115117 5.393388594713326 0 1 0
487 2 2 -0.120364 12.046881912355152 2.794777983355652 6.047272805483773 0 1 0
1562 5 1 0.090236 7.526701296983718 4.4598895609944496 25.31339265302784 0 1 -1
1574 5 6 0.102614 7.748829521745349 1.10112847507632 25.013708346440175 0 1 -1
862 3 3 -0.6068 15.487621640715505 2.8229347219722056 25.45684061086537 0 2 -1
434 2 6 0.102614 14.011680146769274 4.92333585716698 0.974293244548566 0 1 0
865 3 1 0.090236 14.0893681618402 2.153132278264094 25.441977149602934 0 2 -1
864 3 1 0.090236 15.805732742202581 3.29146569746938 1.4808569172564379 0 2 0
433 2 6 0.102614 14.290643587109193 5.32049435292818 2.613022089807901 0 1 0
421 2 1 0.090236 13.730096519127402 5.609454812656808 1.7095280524829795 0 1 0
878 3 6 0.102614 14.898682121108294 3.7940663033395525 1.8845074466593201 0 2 0
879 3 6 0.102614 16.015055009136532 2.370403628759337 2.0440543775300837 0 2 0
883 3 6 0.102614 13.933255587014596 1.5981893230408024 1.0506846001622794 0 2 0
438 2 6 0.102614 12.440215564981143 3.460773104617329 1.8149660608733353 0 1 0
422 2 1 0.090236 12.01905008650542 4.182742288541274 2.5423421231030203 0 1 0
473 2 5 0.137136 16.998636387519632 5.6585368532602995 3.2461648834208585 0 1 0
880 3 6 0.102614 16.78887418919365 3.771656761784959 1.426090446959621 0 2 0
1627 24 7 -1.32 13.818730789416378 1.7653592864271364 3.259464246720895 -1 1 -1
1628 24 8 0.32 13.408880713729927 0.8574129356117063 3.183883060132659 -1 1 -1
591 2 6 0.102614 15.722401518789152 1.0540175006552825 3.6573205706864256 0 1 0
455 2 2 -0.09836399999999999 17.128350007471234 5.3776074349666585 4.318977118173686 0 1 0
436 2 6 0.102614 12.562844555513891 4.057482314128568 3.53571879682461 0 1 0
474 2 5 0.160636 15.146701099550102 4.682639810407246 4.451542678196908 0 1 0
456 2 2 -0.120364 16.07561798076862 4.85105080393313 5.0246317242154195 0 1 0
577 2 1 0.090236 16.368410298778223 1.3531026508183743 4.500135017610894 0 1 0
876 3 6 0.102614 16.64482191241489 0.8619784369495508 0.39097046660115914 0 2 0
592 2 6 0.102614 15.966531420657908 0.9048201759786224 5.2964637444777365 0 1 0
593 2 6 0.102614 16.369080306399432 2.4006731780917634 4.471454297037875 0 1 0
881 3 6 0.102614 13.415280578801273 3.005186614239921 25.430144290732354 0 2 -1
590 2 6 0.102614 17.399201077773697 1.2762822060341672 2.2623319685165058 0 1 0
575 2 3 -0.6068 17.779163644587634 0.8991847323518298 4.351878401195063 0 1 0
1673 47 7 -1.32 21.341118885333657 4.977951660666096 0.19802781811918901 -1 3 -1
468 2 6 0.102614 19.343823359525864 5.340542562026649 1.7662587303317037 0 1 0
469 2 6 0.102614 20.310714680916107 3.843004330946344 1.9545317140885325 0 1 0
453 2 1 0.090236 19.691122257053806 4.60385951049754 2.5379027223199997 0 1 0
467 2 6 0.102614 18.853351030592215 4.1077916568781685 3.0192366819375156 0 1 0
1355 5 6 0.100836 23.010310477861083 4.01558193051459 1.5875939870082458 -1 1 0
1363 5 6 0.102614 23.082660601193986 2.371005099349173 2.918562525334529 -1 1 0
589 2 6 0.102614 18.369633146626747 2.4591239691660447 3.13482642674157 0 1 0
576 2 1 0.090236 18.30552414804589 1.4465329069037727 2.9479736717335925 0 1 0
451 2 3 -0.6068 20.52084929173555 5.483243352700317 3.6187629025465213 0 1 0
471 2 6 0.102614 21.67126611271359 3.667884812236474 4.101735912200633 0 1 0
1733 70 9 -0.8476 21.759573637093077 0.6533635993523865 4.016008325288418 -1 1 -1
1361 5 6 0.102614 24.58138173056814 5.422970633813611 4.101485592756049 -1 1 0
449 2 2 -0.188164 18.307985100114948 5.810757230580977 4.990536665307221 0 1 0
1734 70 10 0.4238 21.66974866079076 0.7459082439725191 5.007643624903789 -1 1 -1
466 2 6 0.102614 22.052163900498236 5.710045643381878 2.1689161057092026 0 1 0
588 2 6 0.102614 19.254857700678997 1.0673374760741288 2.6314887210947595 0 1 0
697 3 6 0.102614 20.888242238051063 25.289239966157687 0.697735932605867 0 1 0
696 3 6 0.102614 22.616383903174793 0.22643663293246874 1.1337478140557906 0 2 0
454 2 1 0.090236 21.19870253407432 4.509002736867915 4.632616455660717 0 1 0
470 2 6 0.102614 21.973610673069686 4.956070460757196 5.259673247207231 0 1 0
472 2 6 0.102614 20.471938076940944 4.072370526009758 5.343058931889312 0 1 0
578 2 1 0.090236 18.552356941203207 1.4052731540209105 5.47035237701068 0 1 0
1346 5 1 0.090236 24.13389069641422 2.282742054026877 2.887739828457409 -1 1 0
1595 8 7 -1.32 18.704201566391617 24.849353060850298 0.4759381157084763 2 0 -1
1385 5 6 0.100836 0.3164123728391295 0.2255333499644081 2.5226167637108805 0 1 0
1765 80 10 0.4238 25.21179552606236 0.8339020100409233 5.982155512277542 -1 1 -1
1345 5 1 0.090236 24.443789128281978 4.365542408990868 4.261238021745822 -1 1 0
1341 5 2 -0.188164 24.82179192222703 4.481854818507439 0.42523302277635167 -1 1 0
1362 5 6 0.102614 24.418879316469194 1.7857493686203534 1.890965109005462 -1 1 0
1364 5 6 0.102614 24.45281180954808 1.7036444990469626 3.75735541221983 -1 1 0
1343 5 3 -0.6068 24.76100844311989 3.6930685563394086 2.90906522435994 -1 1 0
1354 5 6 0.100836 23.934358656809728 5.477056517908244 1.9717343580294964 -1 1 0
1342 5 1 0.188236 24.01471432877313 4.423846758463773 1.7210383216892169 -1 1 0
1360 5 6 0.102614 25.22493770400678 3.9918527113805293 4.947628360553693 -1 1 0
1359 5 6 0.102614 23.434929958007594 4.113110884362694 4.694309080627338 -1 1 0
1396 5 5 0.137136 25.32681587713842 0.20567549198008805 25.42315597505658 -1 1 -1
502 2 6 0.102614 5.532668502422391 5.553845926330933 5.270056924964796 0 1 0
1365 5 5 0.137136 0.8899507772244805 5.98302424150053 1.238842334314175 0 1 0
1251 4 4 0.069836 2.544406218693787 6.540067805278545 2.978661916608884 -1 1 0
1236 4 1 -0.036264 3.574891236619713 6.547331098045345 2.4972870638947873 -1 1 0
1248 4 4 0.046836 3.7560883073423477 6.8202288260661135 0.314789638607657 -1 1 0
1235 4 1 -0.07226399999999999 3.703805366004324 7.455662003023926 1.1868374129421282 -1 1 0
1219 4 4 0.069836 1.576544226685523 8.029056943099368 1.2434618094399312 -1 1 0
1205 4 1 -0.036264 2.5236972126630395 8.537933538073966 1.0499102113742271 -1 1 0
1188 4 4 0.069836 2.637286364161241 11.42109693729041 0.9830424794284447 -1 1 0
1174 4 1 -0.036264 3.297915528413412 11.037822414671856 1.805363013891189 -1 1 0
1217 4 4 0.046836 1.5911686471799793 9.88396434701669 2.4568731407929496 -1 1 0
1204 4 1 -0.07226399999999999 2.651877996771319 9.683537809485953 2.1186524849025767 -1 1 0
1249 4 4 0.046836 4.692191252623747 7.919132424438024 1.1884256010750187 -1 1 0
1173 4 1 -0.07226399999999999 4.769921150287447 11.031595004641082 1.3218051176704093 -1 1 0
1186 4 4 0.046836 4.841121081637325 10.117136093846586 0.7008023697775221 -1 1 0
1218 4 4 0.046836 3.172158700416648 9.293811753354074 2.9557745301865013 -1 1 0
1237 4 2 -0.011164 4.3916892696089445 7.202656568875345 3.671901134580317 -1 1 0
1203 4 5 0.160636 3.650558155675603 10.590892756284852 4.488777471415811 -1 1 0
1187 4 4 0.046836 5.340312011232153 10.952232805669675 2.2803481685591303 -1 1 0
1266 4 5 0.160636 2.6912030319916744 7.179043204134296 5.012721943030098 -1 1 0
1247 4 2 -0.120364 3.7142713400477145 7.4904367316158345 4.937181333442989 -1 1 0
1238 4 2 -0.120364 5.762201270320394 7.5874617480053725 3.5130598113947897 -1 1 0
1185 4 2 -0.120364 3.32508958542923 11.600361984098356 4.268920939939135 -1 1 0
1246 4 2 -0.09836399999999999 4.418835889022533 8.15079729285638 5.932878469032242 -1 1 0
1240 4 2 -0.188164 5.744543892150748 8.526835046627546 5.723109632470046 -1 1 0
496 2 6 0.102614 9.139965894398015 6.331313073975177 5.049945857821643 0 1 0
432 2 6 0.100836 10.740055902619305 6.360573132616485 3.3375267473988632 0 1 0
419 2 1 0.188236 11.697152182526551 6.616143785447628 2.944642233793814 0 1 0
1611 16 7 -1.32 8.61671374620575 6.462630395103315 1.9201065077051593 0 2 0
1612 16 8 0.32 8.78569610280216 7.234528423318417 2.4519460003651647 0 2 0
1141 4 5 0.160636 8.539241316135135 8.82524348736838 0.17862171402766228 -1 1 0
1126 4 4 0.069836 7.824288325051745 11.251263533670315 0.8083850107415563 -1 1 0
1252 4 5 0.160636 6.225743369930801 7.327747383248481 2.558378055031531 -1 1 0
1092 4 2 -0.120364 10.768122548715455 10.882196029459797 1.9641277661322132 -1 1 0
1085 4 2 -0.188164 10.647756773093064 11.18939726289018 4.325236191881453 -1 1 0
1091 4 2 -0.09836399999999999 10.939416032380642 10.398422549563147 3.197671159484289 -1 1 0
1253 4 5 0.137136 7.565265794272814 8.320356823046389 4.417238398005761 -1 1 0
1239 4 2 -0.09836399999999999 6.4793377663344565 8.204686394944504 4.517414196254501 -1 1 0
1264 4 6 0.102614 6.746145621155567 10.698164200376384 4.506372960509226 -1 1 0
430 2 5 0.137136 11.010422203671256 6.04351710804508 5.4123209491966255 0 1 0
431 2 6 0.100836 11.731196069379319 7.548443423180421 2.4437464009052774 0 1 0
1086 4 1 0.188236 10.934029090516761 10.559889989198473 5.664940598147348 -1 1 0
1098 4 6 0.100836 11.238500731958153 9.532954368952664 5.471557419877236 -1 1 0
417 2 2 -0.09836399999999999 11.985152993160584 6.550151270815375 5.332296457276366 0 1 0
1110 4 5 0.160636 11.087503631318052 10.259519148267136 1.1960693165266703 -1 1 0
1109 4 5 0.137136 11.255569369490837 9.39208976937192 3.316598054544931 -1 1 0
1262 4 6 0.102614 8.270514653155452 10.268264617276268 5.214443243698112 -1 1 0
1245 4 1 0.090236 7.460108158493636 10.977844159420586 5.298037187262902 -1 1 0
1099 4 6 0.100836 10.002919634820714 10.42351956868756 6.246876867108367 -1 1 0
1688 54 8 0.32 10.178131384115105 7.517433295817365 6.880999404132077 2 2 2
435 2 6 0.102614 14.07986208481125 6.637033888252623 1.441191198772134 0 1 0
1664 42 8 0.32 16.324084538530386 7.538532214532908 0.47860614704355264 0 2 -1
1663 42 7 -1.32 16.204354973257153 6.754682998270153 1.0681464628482469 0 2 -1
942 3 6 0.102614 15.072343532456152 8.915058548904485 0.4177612507229181 0 2 0
926 3 1 0.090236 14.026519134181603 8.795858752777667 25.368695974182593 0 2 -1
941 3 6 0.102614 13.62262811819497 8.068021868589737 0.7912208680283814 0 2 0
442 2 5 0.137136 14.341378542943275 7.749783256353578 3.1909824234498188 0 1 0
1043 4 6 0.102614 15.39241068065441 10.434796571076706 2.5031410046526648 -1 1 0
1041 4 6 0.102614 15.81911595797055 9.031896934963628 3.4821420830786876 -1 1 0
1027 4 1 0.090236 15.821188295857816 10.102061102728948 3.4703762847536024 -1 1 0
1025 4 3 -0.6068 17.32856388656495 10.44099527581879 3.422381714626645 -1 1 0
1024 4 1 0.188236 17.29201689228872 11.959978884186082 3.6429099587240295 -1 1 0
424 2 2 -0.09836399999999999 13.87336190602855 7.407635912307916 4.098526322285603 0 1 0
418 2 2 -0.188164 12.585823482993808 6.8327432510275266 4.10692576127445 0 1 0
1042 4 6 0.102614 15.351772030208869 10.61162130211832 4.276450683632397 -1 1 0
1037 4 6 0.100836 16.989530871140538 12.037093722456017 4.679849074359314 -1 1 0
1040 4 6 0.102614 17.661634445622653 10.091232836301941 5.560663356417791 -1 1 0
425 2 2 -0.120364 14.527774175241117 7.640213859750736 5.294698983033022 0 1 0
443 2 5 0.160636 15.485938589653877 8.09577494650689 5.255940172698194 0 1 0
1089 4 1 0.090236 13.387324941951345 11.227992471064695 5.689678125111095 -1 1 0
1045 4 6 0.102614 17.559089203026396 10.674452344051538 1.1524824952705448 -1 1 0
1028 4 1 0.090236 17.968147153556778 10.100660583508901 2.056418785115884 -1 1 0
1046 4 6 0.102614 17.754066414946855 9.012072346745722 1.8381182956810256 -1 1 0
1026 4 1 0.090236 18.060536787033236 9.762438886897 4.570842830850588 -1 1 0
1103 4 6 0.102614 14.045858694455147 10.331497607093677 5.8273895983195825 -1 1 0
1039 4 6 0.102614 18.032661959928014 8.719932164974331 4.470412919156748 -1 1 0
1047 4 5 0.137136 17.29864141905577 12.760022781366072 0.8996063791073262 -1 1 0
1105 4 6 0.102614 13.875610954222234 12.060908650812834 6.155072394650688 -1 1 0
452 2 1 0.090236 21.60929088735731 6.271435502527232 2.9112673450295743 0 1 0
450 2 1 0.188236 19.462360864970044 6.472590273283623 4.260797829322987 0 1 0
465 2 6 0.102614 22.283323724731403 6.687572168119011 3.7052755792513867 0 1 0
463 2 6 0.100836 19.164791203492648 7.229920067791717 3.532770245998579 0 1 0
464 2 6 0.102614 21.09580482007795 7.135845803524745 2.459233535381053 0 1 0
1044 4 6 0.102614 19.069204961800132 10.299486405780074 2.1041466859385647 -1 1 0
1300 5 6 0.102614 21.23573876600574 9.459262668938578 0.1729517266545114 -1 1 0
1295 5 6 0.102614 19.54067793949013 7.967924381606477 1.1553598703387193 -1 1 0
1651 36 7 -1.32 20.5089513514002 11.913664974586112 2.260875277195097 0 0 -1
1803 93 10 0.4238 20.877008677846646 10.303240831935875 2.446191972968947 -1 0 -1
1036 4 6 0.100836 18.309621063579193 12.290837676652664 3.7339573527126477 -1 1 0
1802 93 9 -0.8476 21.125281695770077 9.35808443301934 2.6583551645299943 -1 0 -1
1038 4 6 0.102614 19.11067921664769 10.043475012881473 4.510674448620862 -1 1 0
1804 93 10 0.4238 21.26153639424112 9.262573276538957 3.6444008824877567 -1 0 -1
1816 97 10 0.4238 20.43353719495942 11.811814508533905 3.778674920117411 -1 0 -1
1814 97 9 -0.8476 20.506479318278352 11.63506870793059 4.760211513342008 -1 0 -1
1815 97 10 0.4238 20.751990407946884 10.677183621880147 4.909053290438985 -1 0 -1
1655 38 7 -1.32 21.36555998036424 9.119556198595047 5.213321040764791 -1 1 0
462 2 6 0.100836 20.01185964020955 7.0646478120811365 5.0199899889258015 0 1 0
1652 36 8 0.32 20.776209728354864 12.138903244721547 1.3505546873425347 0 0 -1
1175 4 2 -0.011164 3.192345276441424 12.044063638024465 2.966885463105469 -1 1 0
1143 4 1 -0.036264 5.224025764509573 12.241534427749714 0.4818657856568664 -1 1 0
655 3 5 0.137136 0.5555285011920941 14.875148998010792 1.9848758875742494 1 1 0
1452 5 6 0.102614 1.1571312086605372 17.346423008040993 1.5682060639358733 0 0 0
1189 4 5 0.160636 2.9989222980514088 13.805983781728331 1.6501631399085375 -1 1 0
1176 4 2 -0.120364 2.9939211149468843 13.413802224967059 2.674583853855112 -1 1 0
1177 4 2 -0.09836399999999999 2.8018537503952716 14.338805608999825 3.72824519396731 -1 1 0
1715 64 9 -0.8476 0.9288803428927724 17.188076450081667 4.0388016808969205 0 0 -1
1190 4 5 0.137136 2.4481615178483778 15.320830827555067 3.611988106942013 -1 1 0
1159 4 5 0.137136 5.892588861742739 16.773166854386467 0.44229297360514974 -1 1 0
1165 4 6 0.102614 4.778331274169049 17.007698528370383 3.969986612068716 -1 1 0
1144 4 2 -0.011164 5.541004299031207 13.534344785766898 1.2017895826323157 -1 1 0
1145 4 2 -0.120364 5.401521098748039 14.730303780506006 0.5398698634303829 -1 1 0
1146 4 2 -0.09836399999999999 5.891989592905115 15.864792383004858 1.1342327309187625 -1 1 0
1178 4 2 -0.188164 2.8018415585404948 13.905458121760851 4.974695371690998 -1 1 0
1184 4 2 -0.09836399999999999 3.1117663508377484 12.588796765813823 5.334499726554647 -1 1 0
1192 4 6 0.100836 2.3216033089986357 16.005322449885124 5.386134066569781 -1 1 0
1194 4 6 0.102614 5.0082429997110935 14.631445555259162 5.740502288914431 -1 1 0
1195 4 6 0.102614 4.777338551109896 16.46111484445037 5.82709897602047 -1 1 0
1179 4 1 0.188236 2.398004078383412 15.046177791043036 5.979050326518472 -1 1 0
1082 4 2 -0.011164 10.338550823985258 12.20751828365006 1.7099178779782398 -1 1 0
1263 4 6 0.102614 7.889989239363034 12.01609238363961 5.25421875041591 -1 1 0
1084 4 2 -0.09836399999999999 10.147336740982068 12.461404278958893 4.182652100314064 -1 1 0
1081 4 1 -0.036264 10.142582425158874 12.743048864358467 0.2540823717897812 -1 1 0
1172 4 5 0.160636 6.2793704286000915 12.557074115849812 2.9851594830667274 -1 1 0
1083 4 2 -0.120364 9.94990414130526 12.971489945034891 2.8712385130001907 -1 1 0
1154 4 2 -0.120364 6.186661792802356 13.520401854921952 2.495752314682429 -1 1 0
1096 4 5 0.160636 9.470756775555495 13.971620292385243 2.66519232704759 -1 1 0
1147 4 2 -0.188164 6.6497752388045965 15.884299797617345 2.2938383653766152 -1 1 0
1153 4 2 -0.09836399999999999 6.760127481711796 14.724359163767296 3.0472679933728504 -1 1 0
1148 4 1 0.188236 7.376654026152197 17.15590838665443 2.6328589128114084 -1 1 0
1094 4 4 0.046836 11.024703165941284 14.515252779281216 1.1027874457277722 -1 1 0
1160 4 6 0.100836 8.437955564055748 17.032568625465004 2.7698105292847846 -1 1 0
1171 4 5 0.137136 7.288678096148032 14.68886185835435 3.9811826152384024 -1 1 0
1149 4 3 -0.6068 6.730265172693429 18.020233359879235 3.745081112722682 -1 1 0
1097 4 5 0.137136 9.881507222341414 13.146248857021236 5.052115680514014 -1 1 0
1170 4 6 0.102614 8.265408961563029 17.502473925863868 5.0767790697215105 -1 1 0
1152 4 1 0.090236 7.155213568812615 17.44167405875941 5.079567517399332 -1 1 0
1169 4 6 0.102614 6.753204468348799 16.45495473914046 5.149914234817453 -1 1 0
1008 4 6 0.102614 11.030273650473898 15.640937326194853 4.944428421621901 -1 1 0
1007 4 6 0.102614 11.916565293886356 15.055589577161898 6.242330524494479 -1 1 0
993 4 1 0.188236 11.001959585436158 18.038785245169976 5.726013274281275 -1 1 0
1168 4 6 0.102614 6.729998092123294 18.164759050897253 5.838772673940489 -1 1 0
1609 15 7 -1.32 7.880576493116013 14.410967125609508 6.691038326433092 0 0 0
995 4 1 0.090236 11.00905816663978 15.529984657478868 5.991474164473566 -1 1 0
1101 4 6 0.102614 11.97870962944532 13.409491147993133 6.556110960061171 -1 1 0
992 4 2 -0.188164 12.079273489027685 18.038248892225674 4.664653294300671 -1 1 0
1104 4 6 0.102614 13.160861372634612 11.422604555537431 4.630299710992595 -1 1 0
1023 4 2 -0.188164 16.369954892658654 12.876346589699377 2.8513597244972284 -1 1 0
1029 4 2 -0.09836399999999999 16.591695638534254 13.253436836400414 1.5244785289726366 -1 1 0
1018 4 1 -0.07226399999999999 14.412035627195207 17.080499240994776 0.34987301764542533 -1 1 0
1019 4 1 -0.036264 13.709385695670607 15.7122783715349 0.7740347784713735 -1 1 0
1030 4 2 -0.120364 15.728595870226478 14.198832785571557 0.89804354137094 -1 1 0
1033 4 4 0.069836 12.865338802857336 16.05300985532044 1.4080978857757944 -1 1 0
1020 4 2 -0.011164 14.663161598091348 14.801732800914337 1.58221643679935 -1 1 0
988 4 1 -0.036264 15.077778191298805 17.912473539410122 1.4895147544656129 -1 1 0
1002 4 4 0.069836 15.92549665598526 17.296768387981963 1.8270598609349638 -1 1 0
989 4 2 -0.011164 14.008455726313592 18.09978010089729 2.5968227034117732 -1 1 0
1021 4 2 -0.120364 14.490446340869942 14.475836749726925 2.9238800848587982 -1 1 0
1022 4 2 -0.09836399999999999 15.258243901079297 13.468269856753158 3.5142041384669773 -1 1 0
1034 4 5 0.160636 13.555808899586957 14.790062233586022 3.4245313235461214 -1 1 0
990 4 2 -0.120364 14.310092579522534 17.443375827193883 3.798195995570971 -1 1 0
1003 4 5 0.160636 15.260579030258608 17.015390626918744 3.965444769766445 -1 1 0
1035 4 5 0.137136 15.081461809257918 13.172629694755845 4.579851345982922 -1 1 0
991 4 2 -0.09836399999999999 13.277130379420013 17.297742763815556 4.708262411054246 -1 1 0
718 3 6 0.100836 18.152278456708572 16.842207036437166 1.161386769356507 0 1 0
722 3 6 0.102614 18.62644341755159 14.734254173304842 2.3538894763136837 0 1 0
1004 4 5 0.137136 13.407918970474661 16.680894666001414 5.585927510197844 -1 1 0
720 3 6 0.102614 20.052013666539956 15.794701025223828 2.761622822039618 0 1 0
657 3 6 0.100836 23.56460332424514 12.058236710252187 2.708116199087163 0 1 0
661 3 6 0.102614 22.837796311707542 12.10128162233446 5.021861434967008 0 1 0
626 2 6 0.102614 19.239387838159132 13.970304276047425 4.723565980307084 0 0 0
667 3 5 0.137136 22.573377721578886 12.528461490134658 0.6659491944628503 0 1 0
666 3 6 0.102614 21.575764139497423 13.25141591020294 3.9802588625152246 0 1 0
723 3 6 0.102614 20.536094602314655 13.614411914560298 25.064905713510917 0 1 -1
706 3 1 0.188236 18.481060885136557 16.253966208387077 0.3271254896131689 0 1 0
707 3 3 -0.6068 19.668143954221584 15.361712912514827 0.6719962820159968 0 1 0
710 3 1 0.090236 21.043039853471967 16.043411257291844 0.49261372587287255 0 1 0
727 3 6 0.102614 21.915560633032 15.531649830655331 0.7051472714975425 0 1 0
728 3 6 0.102614 21.08281486240086 16.866846767684144 1.225454373085932 0 1 0
708 3 1 0.090236 19.6330749799303 14.961145417112144 2.152012855498893 0 1 0
721 3 6 0.102614 20.134192039049395 14.060232510390092 2.343430283246729 0 1 0
1829 102 9 -0.8476 21.700652957618907 17.406627231638183 3.5651982171481 -1 0 -1
664 3 6 0.102614 22.082679524563197 14.466696750859445 2.7814563852987026 0 1 0
1830 102 10 0.4238 22.635603826013337 17.68154585979564 3.3410103084852967 -1 0 -1
647 3 1 0.090236 22.233767170479787 14.097820379209336 3.7473262392700515 0 1 0
1831 102 10 0.4238 21.55022987983905 17.507767373207926 4.548619250879183 -1 0 -1
665 3 6 0.102614 21.989495048873295 14.897821313771662 4.448949504394402 0 1 0
648 3 2 -0.09836399999999999 23.299102068822442 13.331968368442693 0.45690481066607413 0 1 0
644 3 3 -0.6068 23.69795435281292 13.742720499644602 3.9583618316248534 0 1 0
658 3 6 0.102614 24.411091520783486 15.785425934902042 3.361512795396196 0 1 0
628 2 6 0.102614 18.298409546333417 15.23250512075207 5.635069280240511 0 0 0
646 3 1 0.090236 23.70267456889365 12.778281203066166 5.184044298759695 0 1 0
1632 26 8 0.32 20.453705190032174 17.343512272760357 5.696234511231708 0 -1 1
1631 26 7 -1.32 21.28332932409225 17.02660922048173 6.163918774816382 0 -1 1
660 3 6 0.102614 23.645585175489764 15.640887901617539 4.8755384585117945 0 1 0
1705 60 10 0.4238 22.764087426362238 17.709321083812526 5.981372407614454 -1 0 -1
1717 64 10 0.4238 25.449571772252952 17.713194345942327 3.7302266837272025 -1 0 -1
643 3 1 0.188236 24.237527831602456 12.954663048385955 2.7660533059583297 0 1 0
642 3 2 -0.188164 24.197707083339083 13.646663263582843 1.477552262615067 0 1 0
656 3 6 0.100836 25.245144609688168 12.66168268068496 3.0843483488613956 0 1 0
659 3 6 0.102614 25.26466183032207 14.89587409253651 4.842008140064605 0 1 0
641 3 2 -0.09836399999999999 25.109404357294764 14.66022862351036 1.2327915474603997 0 1 0
645 3 1 0.090236 24.377875190691142 15.09576511781858 4.287171193668572 0 1 0
662 3 6 0.102614 24.62563990225231 12.234749991842579 5.01027586920965 0 1 0
1151 4 1 0.090236 5.140240267974236 17.98694836014559 3.622265045472151 -1 1 0
1716 64 10 0.4238 1.5670734648807332 17.79531575114885 4.512028409318719 0 0 -1
1438 5 1 0.090236 0.7872533954158055 18.270521794397304 1.0560140397237618 0 0 0
1455 5 6 0.102614 2.7590370588446302 18.766200402551362 2.75501911973241 0 0 0
1166 4 6 0.102614 4.780703670557609 18.848183407946102 4.28742905908053 -1 1 0
1167 4 6 0.102614 4.695328799137809 18.196642129726456 2.69818501131105 -1 1 0
1454 5 6 0.102614 25.366696270099986 18.749908517657737 1.7241647540322131 -1 0 0
1436 5 3 -0.6068 1.9622410808696868 19.162509024488294 0.7510787691125108 0 0 0
1435 5 1 0.188236 1.5219344443042213 20.40216334329233 25.424451473274452 0 0 -1
1448 5 6 0.100836 1.1112866916761184 20.98839694913798 0.8295087107339173 0 0 0
1446 5 5 0.137136 4.12434856949203 21.44849660488468 0.7692992564741927 0 0 0
1394 5 6 0.102614 1.2432546141278136 23.074534844505692 1.0703997720843006 0 0 0
1457 5 6 0.102614 3.510928864729361 20.14047383172639 1.8431298847765678 0 0 0
1439 5 1 0.090236 2.5971559258653776 19.644979738701174 2.0991668777412906 0 0 0
1456 5 6 0.102614 1.9661203605829674 20.40587325212261 2.5477731980691796 0 0 0
1377 5 1 0.090236 0.9614904323043766 23.059854171367363 2.1710246891500264 0 0 0
1393 5 6 0.102614 1.1051929613066331 22.130993228584494 2.683555853422052 0 0 0
1388 5 6 0.102614 3.558271286421717 22.948538338041487 3.3429161388349944 0 0 0
1395 5 6 0.102614 25.216660683212822 23.238030441580825 2.4426962330333364 -1 0 0
1766 81 9 -0.8476 0.16981944225739198 20.561383110683188 3.8794699112783175 0 0 -1
1774 83 10 0.4238 4.14072947876223 21.1428425233102 3.914373423543595 0 0 -1
1767 81 10 0.4238 0.9835284754205597 20.2673664455167 4.380873015593508 0 0 -1
1683 52 7 -1.32 2.564324108947154 18.88628345003341 5.057632428042623 2 2 -1
1773 83 10 0.4238 3.174062922888819 20.23907032133414 4.871090225767035 0 0 -1
1772 83 9 -0.8476 3.5455036446084347 21.154775333744603 4.7178268552013565 0 0 -1
1601 11 7 -1.32 5.146197892838529 21.434799061143146 2.8430175996875366 1 0 -1
557 2 6 0.102614 5.665840421675427 24.574926252673613 4.314479001899506 0 0 0
1392 5 6 0.102614 1.6421633120555894 22.816119720896666 4.6198172289590165 0 0 0
1391 5 6 0.102614 0.41250889247627687 24.070028683442764 4.691535091286217 0 0 0
1684 52 8 0.32 2.212690839540422 19.16833116414395 5.9239321713864275 2 2 -1
1602 11 8 0.32 5.689574876176518 21.910491184668906 2.172575342652226 1 0 -1
560 2 6 0.102614 5.9116032399958645 21.730190070774285 5.269727375587965 0 0 0
1376 5 1 0.090236 1.4635345311478003 23.873945970976123 4.37589645143909 0 0 0
545 2 1 0.090236 5.234001437726202 24.20921836925725 5.282228122653293 0 0 0
558 2 6 0.102614 4.4649588660622195 23.478470881558557 5.1700763669587895 0 0 0
1161 4 6 0.100836 7.288722262115022 17.84083569506054 1.8185000697424385 -1 1 0
1005 4 6 0.100836 10.116049485711114 18.013750612220107 5.085962759291499 -1 1 0
998 4 2 -0.09836399999999999 11.82785039195932 18.78778360749363 3.530780512179659 -1 1 0
1535 5 4 0.046836 10.297094071027104 19.205775258453635 0.27777418131374987 0 0 0
1016 4 5 0.137136 10.892155423459343 19.32369721837574 3.3554738736010106 -1 1 0
1538 5 5 0.160636 8.460028035890161 23.383173399854293 0.23826820304991214 0 0 0
1522 5 1 -0.07226399999999999 9.448430461925252 19.896468525483222 0.30447944910727487 0 0 0
1536 5 4 0.046836 8.775639511704119 19.4283067024804 1.0556732986819406 0 0 0
1523 5 1 -0.036264 10.045028900653023 21.19450459928543 0.9379732321835933 0 0 0
1524 5 2 -0.011164 10.425944263856426 22.397754309982844 25.323147479297376 0 0 -1
1553 5 1 -0.07226399999999999 9.263552240278749 21.618263457748668 2.1910509580615365 0 0 0
1566 5 4 0.046836 8.243678552655119 21.846549798165675 1.883802275904167 0 0 0
1570 5 5 0.160636 7.499213675174486 24.088930538296623 3.3159096431878603 0 0 0
1567 5 4 0.046836 9.241949353777441 20.728634924190345 2.9140531382074473 0 0 0
1555 5 2 -0.011164 9.684149932323216 24.134517616784052 2.8609498819990566 0 0 0
1537 5 4 0.069836 11.034430323879185 20.968306959689492 1.3291744613011314 0 0 0
1163 4 6 0.102614 6.947415398930477 20.039459159179188 2.8171819722267832 -1 1 0
1554 5 1 -0.036264 9.886429620039666 22.69784515743352 3.1870419796684355 0 0 0
1150 4 1 0.090236 7.156538491136561 19.495388741603136 3.726951140725245 -1 1 0
1164 4 6 0.102614 8.196769778512058 19.57933263955227 4.126082731322256 -1 1 0
1569 5 4 0.069836 9.287165104217177 22.52871918398919 4.0858916044458535 0 0 0
1568 5 1 -0.088964 11.352618463214137 22.3666887183973 3.5247682770362436 0 0 0
561 2 6 0.102614 6.9854466760684115 22.489731984677817 4.19480207491039 0 0 0
1162 4 6 0.102614 6.4163655192073366 20.039515761204086 4.337634636696871 -1 1 0
1588 5 4 0.045503 11.432776641141663 21.319831070997054 3.791241348593048 0 0 0
1590 5 4 0.045503 11.691834776452069 22.94549176071031 4.339815304933342 0 0 0
546 2 1 0.090236 6.810481425105122 22.31981745037705 5.2640943988855025 0 0 0
1006 4 6 0.100836 11.121026317707555 18.957367359798504 6.269591179161269 -1 1 0
562 2 6 0.102614 7.49655829959589 21.719710601751345 5.835672828696456 0 0 0
544 2 3 -0.6068 6.400051511058519 23.622963415045326 5.992283615858472 0 0 0
1589 5 4 0.045503 11.952593410165562 22.549595847793356 2.629101672920481 0 0 0
999 4 2 -0.120364 12.732857049612537 18.74840802576481 2.460628955630553 -1 1 0
972 4 5 0.160636 17.412488058496102 18.67843780802587 3.2514778606037846 -1 1 0
1017 4 5 0.160636 12.461527678850898 19.176735434140255 1.4874864686688796 -1 1 0
1001 4 4 0.046836 16.472041855454805 19.207844945918986 0.27406809439863156 -1 1 0
987 4 1 -0.07226399999999999 15.57925631618037 19.308092913972082 0.9430980398788972 -1 1 0
1000 4 4 0.046836 14.797506973782232 19.630662159999723 0.2848869919788468 -1 1 0
969 4 4 0.046836 14.18810234450069 21.63206589915918 1.4927490965017707 -1 1 0
955 4 1 -0.07226399999999999 15.26339516232612 21.771767054314488 1.3930615902972883 -1 1 0
970 4 4 0.046836 15.43138556521048 22.66430741741044 1.946307408869581 -1 1 0
956 4 1 -0.036264 15.92858357019439 20.453311727019717 1.9758302180130314 -1 1 0
971 4 4 0.069836 15.460441625954413 20.265840618863983 2.903146376462233 -1 1 0
957 4 2 -0.011164 17.33434943037212 20.560623469968768 2.3477846469189254 -1 1 0
636 2 4 0.045503 15.669983069339017 18.86697336974676 5.203274214201631 0 0 0
598 2 5 0.160636 13.734332935083021 22.629750538951484 5.129095070365852 0 0 0
634 2 4 0.045503 14.75851009185129 20.373300580375783 5.068029673401819 0 0 0
614 2 1 -0.088964 15.534821778499909 19.8340572626795 5.624349472805637 0 0 0
579 2 2 -0.09836399999999999 15.59449779924258 23.701510459693928 4.726281549179042 0 0 0
580 2 2 -0.120364 14.71239726722944 22.908914338998642 5.464746309455561 0 0 0
986 4 5 0.160636 17.844960284812828 22.65304828408263 1.571985599919654 -1 1 0
958 4 2 -0.120364 17.975394143409453 19.539127082578723 3.0359906459810864 -1 1 0
685 3 5 0.160636 22.818276183187372 18.201643104312787 0.21179081612632014 0 1 0
1704 60 10 0.4238 23.854347708782022 18.344964558567753 4.945107383859844 -1 0 -1
717 3 5 0.137136 19.1353178510329 18.87324243380403 0.5721261908744129 0 1 0
1618 19 8 0.32 23.67361468011812 19.143261785831143 2.5107402422881546 0 3 0
967 4 2 -0.120364 18.129844168711188 21.753047152676565 2.0883533674723807 -1 1 0
973 4 5 0.137136 19.687467491010082 18.81074514308022 4.104107174416507 -1 1 0
966 4 2 -0.09836399999999999 19.42263808506521 21.823653520912707 2.619917830295413 -1 1 0
974 4 6 0.100836 22.03034889508678 21.60782936275512 3.135167729194012 -1 1 0
985 4 5 0.137136 20.03309967340929 22.73510034361358 2.502234287597542 -1 1 0
959 4 2 -0.09836399999999999 19.258082499913414 19.653680102701706 3.5152353735698365 -1 1 0
975 4 6 0.100836 21.75947448158903 19.999384278492762 3.9277731005432246 -1 1 0
960 4 2 -0.188164 19.97824591272031 20.85052743465306 3.3791533497608275 -1 1 0
961 4 1 0.188236 21.43557668429552 21.03828109938894 3.8460046783466626 -1 1 0
673 3 2 -0.09836399999999999 23.111303369086222 20.31665401910643 0.5725996900227981 0 1 0
686 3 5 0.137136 22.74542150646092 20.26131309651435 1.5620832942988627 0 1 0
688 3 6 0.100836 22.858987084489748 22.717547630489783 1.7384498802142956 0 1 0
675 3 1 0.188236 23.2710326924241 22.87334681377922 0.7338987905730242 0 1 0
979 4 6 0.102614 21.617278802967654 23.786417244888277 4.4843763279207485 -1 1 0
980 4 6 0.102614 20.123411977120696 22.822653245111418 4.901089487599819 -1 1 0
964 4 1 0.090236 21.19224845483201 23.1127176677736 5.233686047165548 -1 1 0
962 4 3 -0.6068 21.74849737860948 21.660388536015112 5.205004167173704 -1 1 0
965 4 1 0.090236 23.197457679308194 21.685210142603573 5.462420537941099 -1 1 0
1617 19 7 -1.32 23.933050451491788 18.532254252220746 3.2666046977311494 0 3 0
982 4 6 0.102614 23.518411030096104 20.62436025108437 5.519707143121125 -1 1 0
981 4 6 0.102614 21.23763177779127 23.57649983516206 6.211320533982664 -1 1 0
1624 22 8 0.32 23.573826476912444 23.23996143152563 3.063396011195427 -1 3 1
1703 60 9 -0.8476 23.555657706005476 18.31479539547771 5.898966682724132 -1 0 -1
976 4 6 0.102614 21.542094044665518 19.69453069518454 5.863507793857901 -1 1 0
977 4 6 0.102614 20.05350200201152 20.593773427224548 6.048527235357806 -1 1 0
963 4 1 0.090236 21.141065917566166 20.622059630286962 6.20890449605301 -1 1 0
690 3 6 0.102614 20.545066285515787 22.554158496772928 0.36284389976162434 0 1 0
1453 5 6 0.102614 0.33724435715797874 17.857024738917943 0.1519290229876572 0 0 0
984 4 6 0.102614 23.514143319868538 22.298886512011336 4.484968672519002 -1 1 0
687 3 6 0.100836 24.168525380461922 23.365205628621794 0.9547210966221438 0 1 0
1768 81 10 0.4238 24.896265150345748 19.771191985518193 3.704549349268063 -1 0 -1
1375 5 1 0.090236 3.2497701923416313 23.756712342114874 2.682646429727006 0 0 0
1374 5 3 -0.6068 1.7552331739940434 24.065428678771823 2.9057535079214944 0 0 0
1389 5 6 0.102614 3.3533682460573813 23.282149388688367 1.7448885182216858 0 0 0
1390 5 6 0.102614 2.1194458814703148 24.525078188139837 4.899013485276299 0 0 0
1387 5 6 0.102614 3.8751480396846154 24.63451924748982 2.8919511902417327 0 0 0
559 2 6 0.102614 4.8815418349023 25.09379247758347 5.800984467388524 0 0 0
554 2 5 0.137136 9.823288299831548 0.714025158473846 5.459884438673476 0 1 0
555 2 6 0.100836 7.426788866791404 25.24524235726502 5.116660345660857 0 0 0
543 2 1 0.188236 7.478334194724035 24.670022271610833 6.057842591354551 0 0 0
1556 5 2 -0.120364 8.34458193168438 24.652008131072044 2.9803283682920223 0 0 0
1565 5 2 -0.120364 10.63892759327753 24.966157418895286 2.191660974953921 0 0 0
1584 5 5 0.160636 11.601756137956755 24.54316017527735 1.9209071401227549 0 0 0
541 2 2 -0.09836399999999999 9.962988758016522 25.077352398503706 6.031412358543859 0 0 0
597 2 5 0.137136 15.41238201042658 23.96228787416517 3.71815186780962 0 0 0
573 2 2 -0.188164 16.851760180995683 24.020006019968292 5.214370562464818 0 0 0
1735 70 10 0.4238 22.486189398180976 25.312762968395113 3.8067830436848946 -1 0 -1
587 2 6 0.100836 18.884393196872182 24.421271858182642 4.344094214194939 0 0 0
586 2 6 0.100836 17.52002152050347 24.52878369000055 3.2825985465964096 0 0 0
574 2 1 0.188236 17.827938430867903 24.751753959409548 4.295568088730993 0 0 0
695 3 6 0.102614 21.65091929726598 24.343082007534434 2.0405228544297422 0 1 0
679 3 1 0.090236 21.82221581403104 24.849231689411397 1.0899222939954472 0 1 0
1623 22 7 -1.32 23.566908894305442 24.168569792407702 3.413629506847566 -1 3 1
1596 8 8 0.32 18.111628077507255 24.114140226138858 0.2508156434981076 2 0 -1
1712 63 9 -0.8476 23.920687846611884 24.7442710989949 5.993733018147304 -1 0 -1
1714 63 10 0.4238 23.893434404990003 24.56320802805572 5.01065259397295 -1 0 -1
1707 61 10 0.4238 1.0163637136175978 5.262693995394917 7.369606229049723 0 1 -1
1727 68 9 -0.8476 2.4377096572518626 4.11198101311307 5.350915198347366 0 1 -1
1729 68 10 0.4238 3.0580598488997595 4.258193384738806 6.121474553671844 0 1 -1
1696 57 10 0.4238 3.1600884899645965 0.9708670929530017 6.482418901096428 0 1 -1
1698 58 10 0.4238 4.538710167563437 4.334104811798421 8.918476413187705 0 1 -1
1761 79 10 0.4238 3.491879704047758 5.767557733239445 8.583840830218481 0 1 -1
1695 57 10 0.4238 4.329500155221023 1.37142557991837 7.5494653908878036 0 1 -1
1697 58 9 -0.8476 4.401506180686984 4.198330736270776 7.937296424823104 0 1 -1
1760 79 9 -0.8476 3.3367076239255264 5.949287360705459 9.554855287403267 0 1 -1
1762 79 10 0.4238 3.945023811159786 5.3750926710602185 10.102783389810197 0 1 -1
308 1 6 0.102614 0.9706338027994196 1.9054743446119147 9.369610476027738 1 1 -1
1694 57 9 -0.8476 3.5742588143545864 0.7429061623015096 7.363595230141426 0 1 -1
503 2 6 0.102614 5.780680147607762 4.025744080141246 6.139821968844571 0 1 0
1699 58 10 0.4238 4.985364415797913 3.4513539504486017 7.619320612460918 0 1 -1
1689 55 7 -1.32 5.131430087080641 4.33417334040865 10.761854421221749 0 -1 0
291 1 1 0.090236 25.34839985656378 1.4308058531070567 9.010479355194267 0 1 -1
216 1 6 0.102614 5.16382829277905 1.306340771393995 9.978905854870204 0 1 -1
1685 53 7 -1.32 5.938905961031614 2.028053521766018 7.375526286839246 0 1 -1
1737 71 10 0.4238 3.0500733389451744 2.4145338839287187 11.833151779691317 0 1 -1
198 1 1 0.090236 5.1870276655610015 0.2143208420362153 10.214661376460358 0 1 -1
1736 71 9 -0.8476 4.0377071286830635 2.4247817463109897 11.989509204127778 0 1 -1
1738 71 10 0.4238 4.467959100034641 3.0727543260933015 11.361028123691403 0 1 -1
1686 53 8 0.32 5.9156512165995805 1.17948081304218 7.946433371047712 0 1 -1
1810 95 10 0.4238 6.260001236142065 3.803723706765986 9.716891349792004 0 1 -1
1808 95 9 -0.8476 7.080834366241448 3.591884555760853 9.186485282728965 0 1 -1
1809 95 10 0.4238 6.844933042923901 2.9662855796042606 8.442879179874845 0 1 -1
481 2 1 0.188236 8.374775548815343 3.647012507595628 6.009067999883312 0 1 0
480 2 2 -0.188164 9.864554842893654 3.716627709629921 6.392893478441168 0 1 0
493 2 6 0.100836 7.754726839117192 3.145857196525958 6.728092017191216 0 1 0
479 2 2 -0.09836399999999999 10.279721287655208 4.13590827652327 7.636566112724416 0 1 0
492 2 5 0.137136 9.59836674319983 4.657894439403298 8.279758852054444 0 1 0
211 1 6 0.102614 7.737915243792619 1.3106878966184867 9.277350887505268 0 1 -1
522 2 5 0.160636 9.73387615028531 2.510250167488865 9.582636997422673 0 1 0
509 2 2 -0.120364 10.005915803311263 2.2130597634175446 10.572732928702486 0 1 0
478 2 2 -0.120364 11.486490795697616 3.7191722203800053 8.177949438873423 0 1 0
521 2 4 0.069836 11.47415219101329 0.9390866637096065 8.688652925128045 0 1 0
491 2 5 0.160636 11.648875657633472 4.021722442148977 9.231871398245524 0 1 0
197 1 1 0.090236 7.725720461873549 0.2476433438091405 9.565000132837485 0 1 -1
376 2 6 0.102614 6.707059526312894 5.749424384531162 9.615838246094283 0 1 0
523 2 5 0.137136 8.611126469008571 3.6036683885991403 11.36954385668546 0 1 0
208 1 6 0.102614 6.923657937963776 1.8457520594314474 11.51244478136634 0 1 -1
368 2 5 0.137136 10.721801974226182 5.914001400694259 10.879906317746663 0 1 0
508 2 2 -0.011164 11.063237685284985 1.245131298738231 10.80531042571313 0 1 0
507 2 1 -0.036264 12.052633938585739 0.8613940944867226 9.57258002394171 0 1 0
196 1 1 0.090236 6.775173741599221 0.8704137174795163 11.81760951094211 0 1 -1
477 2 2 -0.011164 12.337117613526871 2.932935080212626 7.408252555790816 0 1 0
1690 55 8 0.32 5.3681235477071 4.87599363475184 11.56889157464454 0 -1 0
510 2 2 -0.09836399999999999 9.35176102449411 2.873130960967146 11.570393556347595 0 1 0
518 2 2 -0.120364 11.144974982052979 0.7251244094579424 12.134712974417855 0 1 0
459 2 4 0.069836 14.10793660900477 4.649768710738994 6.523189719172913 0 1 0
445 2 1 -0.036264 14.916749629510361 4.478418256649515 7.251020140816845 0 1 0
488 2 4 0.046836 15.412038663810074 2.354397087488534 7.0258010801900195 0 1 0
446 2 2 -0.011164 16.147195934162085 4.7070066269561215 6.4370923795509105 0 1 0
490 2 4 0.069836 13.596598405143968 1.1995517599251144 7.648029277785362 0 1 0
476 2 1 -0.036264 13.50091587396041 2.218965149508742 8.043716714611431 0 1 0
475 2 1 -0.07226399999999999 14.860798164617265 2.9614292702492766 7.763330754172861 0 1 0
457 2 4 0.046836 13.63436501762683 5.5082011041901 8.78972305631629 0 1 0
444 2 1 -0.07226399999999999 14.644305668951876 5.553447133823697 8.358716455141712 0 1 0
489 2 4 0.046836 15.582543774698378 2.792997929782697 8.577393228139078 0 1 0
458 2 4 0.046836 15.43394310375115 5.50074989824654 9.10046333184505 0 1 0
506 2 1 -0.07226399999999999 13.292130175103807 1.8165474340248293 9.55828185048763 0 1 0
520 2 4 0.046836 12.950883986984616 2.7092367246328313 10.184811080613262 0 1 0
519 2 4 0.046836 14.165841448356792 1.4581150836114585 10.064778873592969 0 1 0
447 2 2 -0.120364 17.42603745938309 4.905428604177632 7.073300983065019 0 1 0
460 2 5 0.160636 17.579867441561255 4.750447861271469 8.157446726336051 0 1 0
1682 51 8 0.32 15.569390872775967 3.3831142209819665 11.044346434412166 -1 1 -1
398 2 5 0.160636 16.808682918334895 5.764702985073916 10.777558441796339 0 1 0
1681 51 7 -1.32 15.056089007155474 4.119508592559299 11.419350900578713 -1 1 -1
246 1 6 0.102614 12.441054370574104 4.639170848336272 11.93892299174178 0 1 -1
596 2 6 0.102614 19.581314182758966 0.9534281955161411 5.479042216350869 0 1 0
448 2 2 -0.09836399999999999 18.485955589373432 5.504909225240737 6.373723462930957 0 1 0
595 2 6 0.102614 18.50962351158475 2.5000651030608916 5.503888471760524 0 1 0
461 2 5 0.137136 19.45293939461267 5.70036734491903 6.8320342450943325 0 1 0
1679 50 7 -1.32 21.426377997726277 0.6392682854555625 6.585738874104265 0 1 -1
410 2 6 0.102614 21.286521459111675 4.1766427442501906 7.852026296645654 0 1 0
1800 92 10 0.4238 22.19877898498445 1.9580415710516543 6.7861795706963095 -1 1 -1
408 2 6 0.102614 20.00835178533216 4.9923206601912495 8.779765097832472 0 1 0
392 2 1 0.090236 21.06829596763785 4.840504138498917 8.713146350575174 0 1 0
409 2 6 0.102614 21.30615133667211 4.2902871539888325 9.614163555926117 0 1 0
399 2 5 0.137136 19.292357691628972 5.330037759284717 10.574616765138815 0 1 0
300 1 6 0.100836 22.85231479258816 0.7943288206157125 8.666328892108515 0 1 -1
302 1 6 0.102614 23.041763953981885 2.766870223183657 10.468676607326584 0 1 -1
1799 92 9 -0.8476 22.867716316826765 2.695398593469434 6.879993990396577 -1 1 -1
402 2 6 0.102614 22.297555133574335 6.317544459861058 6.647420415554765 0 1 0
311 1 5 0.137136 21.008422252633054 1.331927431740274 10.375764484498585 0 1 -1
304 1 6 0.102614 23.31292603228794 1.687548108353446 11.78948980444747 0 1 -1
1801 92 10 0.4238 23.791406337011786 2.3138906560586294 6.845040330861903 -1 1 -1
407 2 6 0.102614 23.73988418583597 5.492868321154339 8.371057406176748 0 1 0
389 2 3 -0.6068 21.80483004648889 6.22752756048822 8.769985232327219 0 1 0
391 2 1 0.090236 23.166632217533987 5.9858326135363535 9.185135300432702 0 1 0
594 2 6 0.102614 18.06817392243275 1.2238246783406348 6.403758672658353 0 1 0
1706 61 9 -0.8476 0.27570144399333474 4.592024090416667 7.329671935006837 0 1 -1
1708 61 10 0.4238 0.5785518697323568 3.7913768354581734 6.812738417848459 0 1 -1
289 1 1 0.090236 23.812153725166787 2.136151918578438 10.919022841341777 0 1 -1
309 1 6 0.102614 24.95544955043796 2.262783904749917 8.457780975139533 0 1 -1
288 1 3 -0.6068 24.396961012603725 0.9389008750948757 10.059539952803627 0 1 -1
303 1 6 0.102614 24.661005578707353 2.810118068080071 11.234565957629222 0 1 -1
1265 4 5 0.137136 3.8747725309703287 8.262461404372676 6.868299834905331 -1 1 0
1796 91 9 -0.8476 3.428063426274366 11.35120533832999 8.893394941519421 0 1 -1
1257 4 6 0.102614 4.761206442643339 10.963455178045246 6.78645418883847 -1 1 0
1798 91 10 0.4238 4.282702120722499 11.543876124145262 9.37551951660407 0 1 -1
1797 91 10 0.4238 2.7936095612307956 10.887718578321014 9.511959209224194 0 1 -1
375 2 6 0.102614 5.4904249207532665 6.726784891069677 10.492814392538259 0 1 0
16 1 4 0.046836 2.9277441376288866 11.388879290461249 11.443650644643785 0 0 -1
1593 7 7 -1.32 5.645973381806442 11.597945440953849 10.296027707173803 0 -1 -2
1255 4 6 0.100836 5.901721430177908 8.922380140082682 7.868592578246794 -1 1 0
498 2 6 0.102614 6.447857040073246 6.2341175826282145 6.970394719430373 0 1 0
484 2 1 0.090236 7.476230329564263 5.838889711213758 6.9690061833781085 0 1 0
500 2 6 0.102614 7.686809083272218 5.2076664322525135 7.810727429598187 0 1 0
369 2 6 0.100836 8.874871457769434 6.481547385398089 9.112943274116313 0 1 0
499 2 6 0.102614 8.249068854508712 6.612782934979583 6.807740132885069 0 1 0
374 2 6 0.102614 6.117795548758416 7.320675132180617 9.000733653819726 0 1 0
1242 4 3 -0.6068 6.858257806378837 10.61178324358545 6.708917193989277 -1 1 0
1254 4 6 0.100836 7.454197659920948 8.540353562528916 7.024131091381608 -1 1 0
1241 4 1 0.188236 6.481826837741244 9.093676700120161 6.939883962166495 -1 1 0
1687 54 7 -1.32 9.557033618014179 8.273738136499546 6.884144946297279 2 2 2
1260 4 6 0.102614 8.527201608256064 10.237497180648868 7.759542012539683 -1 1 0
1244 4 1 0.090236 7.820402563064455 11.010404299389947 7.819171356092236 -1 1 0
1259 4 6 0.102614 7.416471109150153 10.963738283262412 8.818889277611806 -1 1 0
370 2 6 0.100836 8.55967727054201 8.168277491439952 8.746329507812602 0 1 0
360 2 1 0.090236 6.354806389019154 6.764491246356246 9.88459731264135 0 1 0
357 2 1 0.188236 8.713452283805662 7.464255593670585 9.541870832060155 0 1 0
380 2 5 0.137136 9.910834348582322 9.913581791600933 9.576060736747872 0 1 0
356 2 2 -0.188164 10.139485180675269 7.872955687238855 10.17635635085128 0 1 0
362 2 2 -0.09836399999999999 10.534976187022759 9.205585077891993 10.107381505009796 0 1 0
379 2 6 0.102614 6.40795450537902 8.706049351630668 11.756600255420475 0 1 0
358 2 3 -0.6068 7.57038107408977 7.379753904220266 10.590657319328034 0 1 0
361 2 1 0.090236 7.244501752231495 8.78852086767804 11.018409658976331 0 1 0
378 2 6 0.102614 6.909360744956413 9.181591612137964 10.029016953674645 0 1 0
363 2 2 -0.120364 11.805296662417131 9.58401901803038 10.64423901166807 0 1 0
355 2 2 -0.09836399999999999 11.016692746572913 6.912939861154801 10.74017990416815 0 1 0
1087 4 3 -0.6068 12.050854274192558 11.168447967534263 6.52777124160341 -1 1 0
1107 4 6 0.102614 12.648667637868943 10.46326248725774 8.438062674926837 -1 1 0
1102 4 6 0.102614 10.682418716027852 12.63301712454105 7.571400657560308 -1 1 0
377 2 6 0.102614 8.11069272923082 9.362565120312281 11.413147584882186 0 1 0
429 2 5 0.160636 12.1014835732939 6.389603159121201 7.362107571628301 0 1 0
371 2 6 0.102614 8.580072915587573 5.686699765880209 11.458884478969619 0 1 0
359 2 1 0.090236 7.921796528849499 6.460459947084476 11.806139109299329 0 1 0
349 2 5 0.137136 8.01792754325475 10.726780760791154 12.579032971475922 0 1 0
1106 4 6 0.102614 11.200366262780461 9.72595407915416 7.765193522643859 -1 1 0
416 2 2 -0.120364 12.6603581855623 6.758320312023207 6.524442231374822 0 1 0
414 2 1 -0.036264 14.76284219008956 6.9949017758828544 7.816250218070854 0 1 0
415 2 2 -0.011164 13.997220780390872 7.121212488502541 6.51545979731442 0 1 0
428 2 4 0.069836 15.82618541085182 7.180439948744897 7.581788649178386 0 1 0
1649 35 7 -1.32 16.103177075150406 10.607663939583507 6.676676460238128 -1 1 -2
1108 4 6 0.102614 12.861673106274303 9.3015340437613 7.168287687415363 -1 1 0
1840 105 10 0.4238 15.569279083620344 11.805688480284427 7.482445137199341 -1 0 -1
1650 35 8 0.32 15.884671987247716 9.915689245867272 7.382761542730131 -1 1 -2
1090 4 1 0.090236 12.186545990611526 10.069089628095995 7.557901653791137 -1 1 0
426 2 4 0.046836 14.472302405142111 9.0391073616369 8.487341287819312 0 1 0
427 2 4 0.046836 13.443849813580888 7.76952898398757 9.163392050630133 0 1 0
413 2 1 -0.07226399999999999 14.459391397092805 7.999300884590113 8.915548574122262 0 1 0
412 2 5 0.160636 17.350440978255953 9.426101129379216 8.726775140568602 0 1 0
383 2 1 -0.036264 15.297944638081542 7.853193242026854 10.137626275021457 0 1 0
384 2 2 -0.011164 16.862439849379953 7.688116431427386 9.91043617788313 0 1 0
394 2 2 -0.120364 17.766156161695086 8.59059230254117 9.273450291005009 0 1 0
381 2 5 0.160636 12.101160111112412 10.619685803175646 10.505719239571318 0 1 0
395 2 4 0.046836 15.24435198459466 9.999230842153327 10.406750296809058 0 1 0
385 2 2 -0.120364 17.477457815001067 6.542656227275041 10.371108958275546 0 1 0
397 2 4 0.069836 14.954790581388096 6.913559135375215 10.713445641546722 0 1 0
382 2 1 -0.07226399999999999 15.075914990304703 9.110157193588568 10.975613404088524 0 1 0
354 2 2 -0.120364 12.233024464431379 7.3505250924973105 11.400909125231895 0 1 0
353 2 2 -0.011164 12.664208032887698 8.666859368722365 11.301520023779627 0 1 0
396 2 4 0.046836 15.954526548039132 9.173084157429987 11.606006864216127 0 1 0
625 2 6 0.102614 18.299645164571416 12.262289081563319 6.306989360770675 0 0 0
364 2 4 0.046836 13.815792049776531 11.313751795946661 12.177417373661058 0 1 0
1656 38 8 0.32 21.651070855517922 9.374381450623131 6.140514654556143 -1 1 0
406 2 6 0.102614 23.149757115887738 5.447689912264983 10.175214626768813 0 1 0
386 2 2 -0.09836399999999999 18.871845484110644 6.296678749578534 10.27754649022016 0 1 0
390 2 1 0.090236 21.824881422512753 6.960187563254472 7.411063219963689 0 1 0
404 2 6 0.102614 20.809119824177614 7.161470759484466 7.116360467311815 0 1 0
403 2 6 0.102614 22.437474832361175 7.841301528438306 7.333586684173378 0 1 0
411 2 5 0.137136 19.701295520576778 9.117661268195421 8.623077145142148 0 1 0
393 2 2 -0.09836399999999999 19.126405768698383 8.418022293395303 9.183107945927341 0 1 0
388 2 1 0.188236 21.205884321469924 7.119637962460918 9.796768019819845 0 1 0
387 2 2 -0.188164 19.66253483014173 7.266560627539977 9.696165698735328 0 1 0
400 2 6 0.100836 21.69416045948053 8.02627894121871 9.718951773012344 0 1 0
401 2 6 0.100836 21.311952037194807 6.674048447840647 10.8135334146409 0 1 0
405 2 6 0.102614 23.725032839844886 6.96645721431538 9.227493363229275 0 1 0
621 2 6 0.102614 20.390711934772327 12.305461192316871 7.4126159796531255 0 0 0
1256 4 6 0.102614 5.6207844495413966 11.921858224632535 7.916760452947942 -1 1 0
1243 4 1 0.090236 5.607846357307755 11.477338062335479 6.962012412461242 -1 1 0
1594 7 8 0.32 5.171172571148378 11.603043103698447 11.148706120691216 0 -1 -2
1202 4 5 0.137136 3.1785828527707705 12.233384263029917 6.33844290127091 -1 1 0
1201 4 6 0.102614 4.299213645238279 13.774376617522199 8.2788710112661 -1 1 0
1191 4 6 0.100836 1.4345790240772849 14.808585358162857 6.4966007263321845 -1 1 0
1180 4 3 -0.6068 3.399896576934057 15.44015378083867 6.983541733706433 -1 1 0
1181 4 1 0.090236 4.80941374836357 15.52918577628468 6.3399700016553835 -1 1 0
1183 4 1 0.090236 3.4135918931856573 14.391551591512773 8.20154659748386 -1 1 0
1196 4 6 0.102614 3.2628146925471317 17.59013047302318 6.844927573501928 -1 1 0
1182 4 1 0.090236 3.1041499755224273 16.85501473414547 7.613665702524705 -1 1 0
1199 4 6 0.102614 3.376300650914933 14.998951543288376 9.141668434092956 -1 1 0
1197 4 6 0.102614 2.091160506877168 16.871222937844983 7.9911437815596855 -1 1 0
1198 4 6 0.102614 3.870958681830149 17.01867209590695 8.340310726421801 -1 1 0
1200 4 6 0.102614 2.5794705885041362 13.776640679380963 8.022989560191071 -1 1 0
1671 46 7 -1.32 4.581970481631165 16.485999778021473 10.379327625290035 0 0 -2
1258 4 6 0.102614 5.4889446820769665 12.214036052495565 6.154821825039658 -1 1 0
15 1 4 0.046836 3.0222334259008603 13.125287300427807 11.067787771251096 0 0 -1
1805 94 9 -0.8476 2.0475660355927943 16.288883597377136 10.503431206363684 0 0 -1
1807 94 10 0.4238 3.0370367902111868 16.431293333364813 10.478115112590398 0 0 -1
1193 4 6 0.102614 5.520380676194818 15.580590331075511 7.142765879002639 -1 1 0
182 1 6 0.102614 5.540789762691829 17.57902068087777 7.998561224129866 0 0 -1
1672 46 8 0.32 5.149808316903068 15.73100811329237 10.624915850937677 0 0 -2
345 2 6 0.102614 5.909230703107008 14.664426730613522 10.177616430224964 0 1 0
14 1 1 -0.09496400000000001 1.2658541979567084 12.508282442737778 11.983845595666239 0 0 -1
1 1 1 -0.07226399999999999 2.735308181992079 12.39015033637285 11.834615854290345 0 0 -1
314 1 4 0.045503 0.7483726318008134 12.359449810699116 11.028963453581493 0 0 -1
1806 94 10 0.4238 1.5997173361880983 17.11910108689416 10.835310144133121 0 0 -1
315 1 4 0.045503 0.7062927418180339 11.754955218768833 12.648945649814545 0 0 -1
313 1 4 0.045503 0.9724660230041156 13.518573201727898 12.334208626909943 0 0 -1
1610 15 8 0.32 7.571297192106901 13.900748932394976 7.495145011952793 0 0 0
1261 4 6 0.102614 8.375470197858048 11.954336808622948 7.676966078248622 -1 1 0
1088 4 1 0.090236 11.737307185780272 12.559251505758619 7.18928210012359 -1 1 0
339 2 6 0.100836 7.363211997737165 12.460783401489836 11.13766827363423 0 1 0
348 2 6 0.102614 9.420907342306702 12.905378188094996 9.445147074902097 0 1 0
343 2 6 0.102614 6.886838381602307 15.193332041572933 8.890904675234324 0 1 0
1010 4 6 0.102614 9.06958667845275 18.045246138242007 7.178004812798112 -1 1 0
996 4 1 0.090236 9.412681905086355 16.95887677666849 7.195830314533975 -1 1 0
1011 4 6 0.102614 9.253808724058338 16.507520983672386 8.255015241680164 -1 1 0
1012 4 6 0.102614 8.755446473627638 16.327660697151217 6.477178977258178 -1 1 0
344 2 6 0.102614 6.477044097489836 13.442731591697362 9.096688012181955 0 1 0
994 4 3 -0.6068 10.887112176997631 16.8637549794594 6.713540447800995 -1 1 0
328 2 1 0.090236 6.752263822289953 14.35876418152278 9.566899901564994 0 1 0
346 2 6 0.102614 10.20002782793864 14.382772900307062 9.863548345750823 0 1 0
180 1 6 0.102614 6.707568653031643 17.778664002606057 9.299773782529266 0 0 -1
1009 4 6 0.102614 10.188910935128678 14.881291461162958 6.290237468296913 -1 1 0
347 2 6 0.102614 9.14896323612113 14.162056145721287 8.449511147540157 0 1 0
329 2 1 0.090236 9.264973460658219 13.935244695987224 9.453426533574738 0 1 0
340 2 6 0.102614 7.725716131813855 16.41717807593917 10.30661692505912 0 1 0
326 2 3 -0.6068 8.07126446954034 14.270871835477502 10.40912289125906 0 1 0
1591 6 7 -1.31955 11.568725770675886 16.123719418217455 10.888989402946113 0 0 -1
997 4 1 0.090236 11.852701779545379 16.920551087515285 7.913906265615559 -1 1 0
327 2 1 0.090236 8.302109706520145 15.67586494662982 10.959921993941217 0 1 0
1592 6 8 0.32 11.963767706130229 15.635548217597673 11.649611235139435 0 0 -1
1013 4 6 0.102614 11.764032012144405 16.064444478599917 8.571626706667123 -1 1 0
325 2 1 0.188236 7.853063935706183 13.245799489408222 11.613268535124185 0 1 0
341 2 6 0.102614 9.293137194594289 15.959066107313813 11.09908529461651 0 1 0
1014 4 6 0.102614 12.846103309301455 17.05021578271517 7.533948880329513 -1 1 0
342 2 6 0.102614 7.866781880791349 15.82370775127502 11.94556774193523 0 1 0
324 2 2 -0.188164 9.07062837888154 12.608820163527993 12.295668622499994 0 1 0
338 2 6 0.100836 7.150270444437256 13.629916874707469 12.321031515531345 0 1 0
1838 105 9 -0.8476 15.291897336133768 12.565251645493559 8.070745112936374 -1 0 -1
1100 4 6 0.102614 12.441476139341095 12.807112310328158 7.983792248966767 -1 1 0
623 2 6 0.102614 18.229054718757027 12.56913470856116 8.025229848513796 0 0 0
1015 4 6 0.102614 11.723865224724005 17.733818069595728 8.541643230049068 -1 1 0
1634 27 8 0.32 14.721296796519399 14.655323848801984 6.102756580193332 1 -1 -2
1839 105 10 0.4238 14.702174664336496 13.187458690127801 7.555906204034041 -1 0 -1
1633 27 7 -1.32 14.01084921234029 14.285117200695183 6.658753963667268 1 -1 -2
602 2 2 -0.120364 15.70727661839355 17.013867017565403 7.605307371667276 0 0 0
616 2 5 0.160636 14.70285852582872 16.702226696176794 7.660248005852726 0 0 0
603 2 2 -0.09836399999999999 16.68007915984267 15.985904492457996 7.688085647265855 0 0 0
617 2 5 0.137136 16.331236966371563 14.975125930179354 7.694792778108022 0 0 0
275 1 6 0.102614 14.791653074657104 14.598326155429753 9.33861607701412 0 0 -1
268 1 6 0.100836 14.239172111672021 16.821210373732676 10.325165312119315 0 0 -1
624 2 6 0.102614 17.182482185745783 13.563806567699885 6.734544672205605 0 0 0
273 1 6 0.102614 14.591639367800916 13.377147172855063 10.531211849023899 0 0 -1
259 1 1 0.090236 14.342136382082822 14.386806093525776 10.318844296179423 0 0 -1
274 1 6 0.102614 13.23267542685036 14.543953358099778 10.202547980794797 0 0 -1
604 2 2 -0.188164 18.07539399019867 16.309228981642214 7.784364052468411 0 0 0
256 1 1 0.188236 14.407875701068209 16.658519802228554 11.392971111550677 0 0 -1
260 1 1 0.090236 16.53823468999189 15.209743528983 10.85795862328839 0 0 -1
277 1 6 0.102614 16.458853450546655 15.459833970419018 9.79017491608967 0 0 -1
608 2 1 0.090236 18.125407903345646 13.116503496452017 7.077989789291135 0 0 0
278 1 6 0.102614 16.770465983404826 14.165956445995699 10.948714475860013 0 0 -1
257 1 3 -0.6068 15.04168905984465 15.219009791918197 11.328925961131342 0 0 -1
255 1 2 -0.188164 15.30332886448639 17.794861825289004 11.970777996463905 0 0 -1
276 1 6 0.102614 17.238042995327426 15.710535605405166 11.473194433642565 0 0 -1
622 2 6 0.102614 21.10446837127825 13.684879814685207 8.18963709063668 0 0 0
610 2 2 -0.09836399999999999 18.413967017930077 17.658969525290587 7.714669610684225 0 0 0
618 2 6 0.100836 19.0408505416452 14.800946251616839 8.973671999779302 0 0 0
609 2 1 0.090236 19.23906551290166 14.697101582485827 5.552716743910023 0 0 0
627 2 6 0.102614 20.074411566911827 15.455344483251825 5.442518237043219 0 0 0
663 3 6 0.102614 23.74661805214963 13.296382736256557 6.128577424968377 0 1 0
607 2 1 0.090236 20.66490744124401 13.35150460380237 7.2269885212692335 0 0 0
620 2 6 0.102614 21.335240594339787 13.544394769025583 6.4609092372481625 0 0 0
606 2 3 -0.6068 19.33625563041499 14.088302298855256 6.9692257047113175 0 0 0
1752 76 10 0.4238 22.377494727620117 15.998976639344004 6.6689007532490825 -1 0 -1
629 2 5 0.137136 19.476429814052736 17.83080129478926 7.784923733367989 0 0 0
605 2 1 0.188236 19.177081970834095 15.25102870260727 8.00359936412459 0 0 0
619 2 6 0.100836 20.12904374438608 15.754145026470981 8.047272356335906 0 0 0
1751 76 9 -0.8476 22.843011271344004 15.240014705594433 7.12414187436642 -1 0 -1
1753 76 10 0.4238 23.515711615129746 15.600898877489438 7.77005982293546 -1 0 -1
1788 88 10 0.4238 21.741333063709952 17.612778399827988 7.6958590063959695 -1 0 -1
179 1 6 0.102614 4.0035669941183585 18.538241034953572 9.186481299584857 0 0 -1
185 1 6 0.102614 4.806739704387753 18.87611578417728 6.58274639078508 0 0 -1
1833 103 10 0.4238 3.1343729541050482 23.669680392893028 9.48859932457728 0 0 -1
184 1 6 0.102614 4.438503787851432 20.603402593440578 7.007404926484413 0 0 -1
1622 21 8 0.32 4.007970712427749 21.79053396537443 10.005918541712449 0 1 3
178 1 6 0.102614 4.017424785498784 20.314371926057717 9.229831284247796 0 0 -1
167 1 1 0.090236 5.243715558889273 19.8049190993561 6.975443513059442 0 0 -1
165 1 1 0.090236 4.620383592846776 19.41464269342854 9.343090610987037 0 0 -1
1621 21 7 -1.32 4.457607681114497 22.635330348258734 9.74222668811027 0 1 3
565 2 6 0.102614 5.062137634939435 22.690574350966372 7.227602480508144 0 0 0
177 1 6 0.102614 5.077303052010399 19.37281905778 10.342297092293261 0 0 -1
164 1 3 -0.6068 5.784823764722666 19.49922599702809 8.363709496917378 0 0 -1
183 1 6 0.102614 6.0362202892835395 20.096033346030474 6.265994059302175 0 0 -1
92 1 6 0.102614 1.9729996949333184 21.51157285266975 11.77758192366702 0 0 -1
74 1 1 0.090236 1.7962001923449924 22.552642451376926 12.113151036577104 0 0 -1
90 1 6 0.102614 2.0764569874778047 23.10051942623174 11.198466722323607 0 0 -1
91 1 6 0.102614 0.731074515422698 22.825259923671545 12.187065542075526 0 0 -1
166 1 1 0.090236 6.3695694130032345 18.14282257411437 8.325860271544222 0 0 -1
181 1 6 0.102614 7.134558200900489 18.03660724106068 7.560303978323096 0 0 -1
547 2 1 0.090236 5.881859711831572 23.361338637512112 7.432148111665904 0 0 0
1647 34 7 -1.32 8.729818669635774 19.80209422310655 6.317682938116888 0 0 -1
1648 34 8 0.32 9.277595801943196 20.640076258697846 6.455946602182659 0 0 -1
542 2 2 -0.188164 8.89889828642064 24.235273174204814 6.344313146395703 0 0 0
566 2 5 0.137136 8.357855015984294 22.345691062964477 7.339467270618185 0 0 0
548 2 2 -0.09836399999999999 9.194503629173811 23.083633398584816 7.119757417161836 0 0 0
563 2 6 0.102614 6.640601697829253 22.951104436722893 8.045082301627218 0 0 0
175 1 6 0.100836 7.40028539945637 20.819129040396298 8.001906364210466 0 0 -1
163 1 1 0.188236 6.749579206933162 20.547642708536166 8.822582227229395 0 0 -1
176 1 6 0.100836 6.113001862239246 21.40802357163473 9.04938372519433 0 0 -1
174 1 5 0.137136 9.225584045702664 19.17869460958947 8.698051432098978 0 0 -1
161 1 2 -0.09836399999999999 8.867465553353139 19.42425554228543 9.706003672556877 0 0 -1
217 1 5 0.137136 8.783511313119808 22.509369836874903 9.82881297419087 0 0 -1
549 2 2 -0.120364 10.494970497578638 22.86621731926531 7.640920751668392 0 0 0
567 2 5 0.160636 10.60188803340206 22.03050352073609 8.356013952992425 0 0 0
162 1 2 -0.188164 7.636744795884576 20.148974927283078 9.96376640726573 0 0 -1
539 2 2 -0.011164 11.535586401165217 23.805767168888508 7.453507000421125 0 0 0
206 1 6 0.100836 6.519669093430238 23.161891541097795 10.432532686370841 0 0 -1
199 1 2 -0.09836399999999999 9.084277590937244 22.77288816708971 10.856471658386507 0 0 -1
218 1 5 0.160636 10.964012963830339 21.743948643662073 10.73433796564098 0 0 -1
173 1 5 0.160636 10.605568564454531 18.624771074953358 10.632653197788134 0 0 -1
160 1 2 -0.120364 9.71625909254235 19.12096831125571 10.820566431326817 0 0 -1
168 1 2 -0.09836399999999999 7.224656036315766 20.504552657325362 11.264958373973231 0 0 -1
186 1 5 0.137136 6.280432137620341 20.889274021511717 11.551114558859537 0 0 -1
200 1 2 -0.120364 10.340028877996168 22.371948262419686 11.355664184211639 0 0 -1
194 1 1 0.188236 6.784467457181592 23.8707593183587 11.217595733855218 0 0 -1
193 1 2 -0.188164 8.206031148948748 23.480330980186814 11.705475549970634 0 0 -1
267 1 5 0.137136 16.12870717449355 18.254651300756187 10.092870723231748 0 0 -1
601 2 2 -0.011164 16.067208691004502 18.379028439713736 7.486385162239987 0 0 0
635 2 4 0.045503 16.50516353263248 20.388640780245098 5.713405143437124 0 0 0
254 1 2 -0.09836399999999999 16.062528282564628 18.530233985422356 11.107405548709956 0 0 -1
611 2 2 -0.120364 17.500596127768645 18.722298734888092 7.499851383169827 0 0 0
615 2 4 0.069836 14.062811238388631 19.04697239473311 6.867583645238576 0 0 0
600 2 1 -0.036264 15.094851526786675 19.441114758885817 7.039154937475831 0 0 0
583 2 4 0.069836 13.284466603446345 21.48289804100264 6.998281408615135 0 0 0
570 2 2 -0.011164 15.07897108126749 22.562676199644095 6.807280867293053 0 0 0
569 2 1 -0.036264 14.129533107220286 21.74131934133208 7.638652523127619 0 0 0
599 2 1 -0.07226399999999999 14.859557153020159 20.44601087864234 8.150399061554284 0 0 0
613 2 4 0.046836 14.351031293701809 19.96617316076987 8.997983896024802 0 0 0
538 2 1 -0.036264 12.776715729262602 23.854593586186574 8.423648412313277 0 0 0
568 2 1 -0.07226399999999999 13.521544379889386 22.505881308228545 8.865141846528338 0 0 0
612 2 4 0.046836 15.882485729515762 20.735452535656158 8.463179552774966 0 0 0
571 2 2 -0.120364 16.21819563948099 23.14063086537419 7.377602104844245 0 0 0
581 2 4 0.046836 12.832910481556592 21.822261226611147 9.327498994776684 0 0 0
584 2 5 0.160636 16.435071473944866 22.869422454389884 8.411790429623013 0 0 0
582 2 4 0.046836 14.323038263904257 22.790418560513885 9.547238601303656 0 0 0
572 2 2 -0.09836399999999999 17.21797169932389 23.712553160790335 6.535390871920358 0 0 0
266 1 5 0.160636 17.19341911495519 20.257030251150397 10.775404781319219 0 0 -1
253 1 2 -0.120364 16.620800424111152 19.687392777227103 11.477986822611923 0 0 -1
264 1 4 0.046836 15.84868905521346 22.985579319641644 11.951463240752362 0 0 -1
232 1 4 0.046836 13.893334898165785 21.337707076579832 12.156512598838882 0 0 -1
233 1 4 0.046836 13.226862550050823 22.889138062165536 11.77939221281748 0 0 -1
983 4 6 0.102614 23.52187940506299 22.385140201936153 6.255907655876904 -1 1 0
630 2 5 0.160636 17.86573805830931 19.733708477283194 7.571106961387021 0 0 0
295 1 4 0.046836 18.010403974993288 22.557570800361773 11.516414274320026 0 0 -1
1787 88 9 -0.8476 22.24865714777831 18.157922505444446 8.36325228797305 -1 0 -1
1789 88 10 0.4238 23.097773221162186 18.485938421433595 7.949270652842624 -1 0 -1
978 4 6 0.102614 21.36994385195714 20.915328299384626 7.16737855072458 -1 1 0
299 1 5 0.137136 23.014169903012096 22.79615564588964 10.24115344464477 0 0 -1
285 1 2 -0.09836399999999999 22.26134694978837 23.48269141774537 10.716176461712948 0 0 -1
284 1 2 -0.120364 21.30014167655716 22.97413946511118 11.57108044983036 0 0 -1
298 1 5 0.160636 21.370700944018395 21.865625522131594 11.816494958259232 0 0 -1
283 1 2 -0.011164 20.260937534088143 23.784469673018243 12.018000150966477 0 0 -1
305 1 6 0.102614 25.399227876985517 24.47580536972216 10.377531279469009 0 0 -1
215 1 6 0.102614 4.57982301915109 25.31043145151267 11.053463670778308 0 0 -1
310 1 6 0.102614 0.20090569644621786 0.6659943686184838 8.250539630832572 1 1 -1
564 2 6 0.102614 5.3735711460442985 24.199945878248784 7.809478300127405 0 0 0
1832 103 9 -0.8476 2.382812488775598 24.28577960957849 9.252904362868625 0 0 -1
1834 103 10 0.4238 2.6665119156869928 24.88710311751904 8.505978690052581 0 0 -1
214 1 6 0.102614 5.009741404704474 24.81117056464368 9.295664725959153 0 0 -1
306 1 6 0.102614 0.7572291164057089 0.5492782053611457 11.273059273985876 1 1 -1
212 1 6 0.102614 8.695775186585754 25.27511054151976 10.00709827429677 0 0 -1
551 2 4 0.046836 11.57426995999004 24.05116627517574 10.209424545131926 0 0 0
195 1 3 -0.6068 6.610307642133525 25.24672626508505 10.620620112829375 0 0 -1
540 2 2 -0.120364 11.262030462196867 24.865605267002152 6.534308331104568 0 0 0
213 1 6 0.102614 7.50685406943605 24.98159652893429 8.693978784642058 0 0 -1
556 2 6 0.100836 7.21014531374646 0.17889451744238957 6.756322813825785 0 1 0
553 2 5 0.160636 12.074756445076844 0.26761669505837915 6.370466112848789 0 1 0
552 2 4 0.069836 13.46198692053907 24.405705153104527 7.855631668780195 0 0 0
537 2 1 -0.07226399999999999 12.393892814416917 24.686557765513633 9.739322272095393 0 0 0
550 2 4 0.046836 13.229665319340537 24.55436984189914 10.449487404805497 0 0 0
1713 63 10 0.4238 23.056825036898687 25.15840843506642 6.280446443404457 -1 0 -1
1680 50 8 0.32 21.277799828530654 25.12702258129217 7.096713093089157 0 0 -1
292 1 2 -0.09836399999999999 21.17577242061806 0.2608719101675123 10.71661918243211 0 1 -1
585 2 5 0.137136 18.12576178508086 23.913305444644493 6.938269243465409 0 0 0
287 1 1 0.188236 23.273284808572875 25.426898195806384 9.419573017879777 0 0 -1
301 1 6 0.100836 23.73985898931315 24.710995251836003 8.762233965440442 0 0 -1
286 1 2 -0.188164 22.16953774624688 24.773864820894275 10.305440958905447 0 0 -1
293 1 2 -0.120364 20.1871161567637 25.077818144803125 11.528499599390832 0 0 -1
307 1 6 0.102614 24.531191067122975 25.066298091342603 11.802718717572699 0 0 -1
290 1 1 0.090236 25.151314300428815 25.32927837375817 10.956633750591083 0 0 -1
24 1 6 0.102614 2.627099683766552 5.129257228336718 12.387525458524419 0 0 -1
9 1 1 0.090236 3.3341428902962007 5.588120022990233 13.119002667140371 0 0 -1
25 1 6 0.102614 0.6143643451413865 6.108835850367833 13.113025750560416 0 0 -1
8 1 3 -0.6068 2.4372624581012916 6.069814304938795 14.339774066593643 0 0 -1
29 1 6 0.102614 1.607077651779463 4.029321815252185 14.387781781898273 0 0 -1
1755 77 10 0.4238 3.9106608311020667 1.9754573110449318 13.621094054243557 0 1 -1
11 1 1 0.090236 1.9094993120067452 4.794555269373535 15.094783285784368 0 0 -1
1754 77 9 -0.8476 3.9217984130287005 1.543994800070099 14.523141308030203 0 1 -1
28 1 6 0.102614 2.8098310991856112 4.46154425071557 15.61622045879292 0 0 -1
1795 90 10 0.4238 0.9242723348915539 1.8189131965972212 15.103165948348042 0 1 -1
1794 90 10 0.4238 2.484740232281073 1.5822015893035382 15.522049405734688 0 1 -1
1793 90 9 -0.8476 1.5783706302465494 1.836550731049226 15.85935317154679 0 1 -1
30 1 6 0.102614 1.1157972739224038 4.899840101216765 15.76969807032565 0 0 -1
10 1 1 0.090236 1.2198340523865268 6.7639097929539265 13.747914303153289 0 0 -1
26 1 6 0.102614 0.47615501078075895 7.050734123187764 14.583076010069423 0 0 -1
533 2 6 0.102614 6.0054341000581575 4.1564529979875955 13.961084538911265 0 1 0
1645 33 7 -1.32 5.6851338401315665 5.887903174543425 17.50819734545243 -1 0 0
1646 33 8 0.32 5.506701416710814 5.164763671190788 18.166186171841105 -1 0 0
1779 85 10 0.4238 5.007916369714591 1.607184252036538 16.834721014722092 0 1 -1
1756 77 10 0.4238 4.557442278588856 0.7720665051874616 14.515565595320352 0 1 -1
1780 85 10 0.4238 5.593882819068985 0.22735939355213178 16.187201131847893 0 1 -1
1778 85 9 -0.8476 5.304340700331282 0.6732009944230187 17.034174433412325 0 1 -1
532 2 6 0.102614 6.751249645968881 3.174005919178453 12.648480587817005 0 1 0
534 2 6 0.102614 7.298263586541819 4.8381691273623195 13.142209156439765 0 1 0
511 2 2 -0.188164 9.573831537420528 2.3953070224757913 12.856500121143979 0 1 0
516 2 1 0.090236 6.880739747300716 3.866341518876364 13.473918243467924 0 1 0
525 2 6 0.100836 9.454549882357083 4.261025036721802 14.011664844372175 0 1 0
512 2 1 0.188236 9.197548744884488 3.2398017567708495 14.147455866586657 0 1 0
517 2 2 -0.09836399999999999 10.394460721053957 1.3237898739519152 13.096518365244005 0 1 0
513 2 3 -0.6068 7.794129201020945 3.3010546570341783 14.542451576199552 0 1 0
514 2 1 0.090236 7.2731348668503735 1.9506507383050784 14.957685852198084 0 1 0
527 2 6 0.102614 7.6841564796052095 1.180173401760291 14.200214273740311 0 1 0
524 2 6 0.100836 9.843739760248527 2.895231836421919 14.97173741803339 0 1 0
528 2 6 0.102614 6.226078401460997 1.9588777325746005 14.90827736248167 0 1 0
515 2 1 0.090236 7.719318051128314 4.190764161398542 15.845181459514155 0 1 0
529 2 6 0.102614 7.818413145790661 5.19172190030893 15.584382143925055 0 1 0
210 1 6 0.102614 5.79497837325868 0.821303931159294 12.381693244626135 0 1 -1
535 2 5 0.137136 10.405739477422154 0.9612403392076169 14.153928135118578 0 1 0
209 1 6 0.102614 7.658580675843873 0.5585336026118681 12.39009227437079 0 1 -1
526 2 6 0.102614 7.696802892875053 1.7636269006947216 15.924539293182399 0 1 0
530 2 6 0.102614 6.793305274884007 4.056006679323328 16.42571220592908 0 1 0
245 1 6 0.102614 10.891808561571468 4.206360297025868 12.778840809920663 0 1 -1
238 1 6 0.100836 11.476866211362912 2.68420702951707 15.082736119466752 0 1 -1
1667 44 7 -1.32 10.163339773826713 1.7394984075145425 16.857615947508833 0 1 -1
531 2 6 0.102614 8.585398119082633 4.00518651688242 16.48727429701514 0 1 0
227 1 1 0.090236 11.870533110619427 5.494093467702546 14.69645084231817 0 1 -1
239 1 6 0.102614 10.989964372642707 5.119921420418393 15.034620368037649 0 1 -1
954 3 4 0.045503 10.129738496411358 5.452540790114961 17.042162176251978 0 2 -1
241 1 6 0.102614 11.596527912283955 6.2288664047210585 13.901570407360769 0 1 -1
1668 44 8 0.32 10.263049386101166 2.5413885711431083 17.413776499380596 0 1 -1
240 1 6 0.102614 12.541889809460688 5.906994873493629 15.454940877666152 0 1 -1
236 1 5 0.137136 12.491365207845721 0.7775419787095035 16.4173724304067 0 1 -1
247 1 6 0.102614 12.25238506432816 2.937276966845983 12.401103050313427 0 1 -1
229 1 1 0.090236 12.0169524451571 3.963424473233162 12.735858043622041 0 1 -1
248 1 5 0.137136 14.202371089721003 2.235486018066699 12.62106048604738 0 1 -1
230 1 2 -0.09836399999999999 13.92531487106618 1.4463800692049087 13.403453903626762 0 1 -1
244 1 6 0.102614 14.071207374361855 5.42164831706543 13.154924171866817 0 1 -1
243 1 6 0.102614 14.835889602106986 3.8728341207006096 13.777258439252122 0 1 -1
226 1 3 -0.6068 12.655992281110539 4.280860952231739 14.08258733349258 0 1 -1
228 1 1 0.090236 14.113756014297671 4.672831258549686 13.976110088236144 0 1 -1
224 1 2 -0.188164 13.248168536544442 1.6787268502812802 14.642312364107934 0 1 -1
225 1 1 0.188236 12.541256297007799 2.987504659440999 14.99463013410043 0 1 -1
242 1 6 0.102614 14.213787664765892 5.033530972501189 15.010572357420054 0 1 -1
840 3 5 0.160636 16.26704807822553 2.612688047194997 14.454580887392524 0 2 -1
827 3 2 -0.120364 17.089490817006087 3.139833017993222 14.764557395665449 0 2 -1
841 3 5 0.137136 16.966607984378697 4.449242175853793 13.094612582821696 0 2 -1
237 1 6 0.100836 12.783253360885237 3.335019070153722 16.02938581626791 0 1 -1
839 3 4 0.069836 16.156329236330414 1.637589387471137 16.761434877427334 0 2 -1
826 3 2 -0.011164 17.766289033940133 2.843140533882529 16.02880923909867 0 2 -1
223 1 2 -0.09836399999999999 13.022858786386141 0.6101866309130929 15.439591501053307 0 1 -1
828 3 2 -0.09836399999999999 17.50973812604505 4.21371836390347 13.985728626560702 0 2 -1
900 3 4 0.046836 15.206741027615582 3.626868310198024 17.112838968999952 0 2 -1
825 3 1 -0.036264 17.215200940869074 1.7716473833288304 16.98029630480265 0 2 -1
824 3 1 -0.07226399999999999 17.90378901969241 0.36558895255378143 16.808505674665646 0 2 -1
930 3 4 0.046836 13.060783733151034 5.102753399187971 16.84314317607322 0 2 -1
902 3 5 0.160636 15.445489288778464 6.174886558559279 16.52353773220475 0 2 -1
231 1 2 -0.120364 14.395861241267177 25.448071591482304 13.107025386394476 0 0 -1
1660 40 8 0.32 21.479055208888596 3.9782366071589426 12.084489330431682 -2 2 -2
1659 40 7 -1.32 22.30508140019397 4.385667597290337 12.456236406918066 -2 2 -2
843 3 6 0.100836 19.11764056891485 5.770865326575783 12.53198471847148 0 2 -1
829 3 2 -0.188164 18.617258809095134 4.9781974863992255 14.3746269279955 0 2 -1
1333 5 6 0.102614 21.31948592123564 2.378142660613218 15.976059510012274 -1 1 -1
1759 78 10 0.4238 23.80167072351574 4.351643317991727 12.800002877140303 -1 1 -1
1323 5 6 0.100836 22.243579781605078 4.601036441449969 17.058655689801817 -1 1 -1
835 3 2 -0.09836399999999999 19.345802476686472 4.640160149221192 15.509934057322829 0 2 -1
1837 104 10 0.4238 22.32458893170495 5.927714027688085 12.827261446834047 -1 1 -1
853 3 5 0.137136 20.178854543268514 5.229919851947632 15.764956039616 0 2 -1
836 3 2 -0.120364 18.83192574216151 3.645477996333574 16.42477609298654 0 2 -1
1835 104 9 -0.8476 22.41655324343018 6.833137662519055 13.241658728206573 -1 1 -1
1836 104 10 0.4238 23.292635515830824 6.893335187108849 13.720019737020474 -1 1 -1
837 3 4 0.046836 18.973300688199416 0.5511123615270335 16.927318362468917 0 2 -1
830 3 1 0.188236 19.176321660037495 6.158779342435026 13.573967607048292 0 2 -1
842 3 6 0.100836 20.158709267366383 6.250452900117257 13.899616793299648 0 2 -1
1782 86 10 0.4238 22.417898065875107 3.137562486086639 13.508837648753468 -1 1 -1
1781 86 9 -0.8476 22.568627671011804 2.247075088828288 13.938123198930644 -1 1 -1
1329 5 6 0.102614 23.677826852675608 3.30096154677455 15.933905641369421 -1 1 -1
1783 86 10 0.4238 23.548304646769417 2.047387040860488 13.956334951445063 -1 1 -1
1331 5 6 0.102614 21.459755539087865 0.8406308290918799 16.769753315296533 -1 1 -1
1315 5 1 0.090236 21.37521796680236 1.8770839357487177 16.89614090202607 -1 1 -1
1332 5 6 0.102614 20.522493296541917 2.1456570211214347 17.482562257902075 -1 1 -1
1324 5 6 0.100836 21.26138577866771 3.909428719576328 18.494409862859897 -1 1 -1
1311 5 1 0.188236 22.25390875389163 3.9484255997631266 17.95563547816758 -1 1 -1
1312 5 3 -0.6068 22.60537602003282 2.5088558544485706 17.63425453882509 -1 1 -1
854 3 5 0.160636 19.315026810720568 3.626374404366708 17.380919326412055 0 2 -1
1314 5 1 0.090236 23.83429693309005 2.566868024649216 16.6913696705711 -1 1 -1
1330 5 6 0.102614 24.01681979875955 1.5880639917329717 16.327941257779123 -1 1 -1
1637 29 7 -1.32 25.140409249816187 1.7033543948521614 14.067171699243554 -1 1 -1
1757 78 9 -0.8476 24.787379514175093 4.246453124842819 12.931483874634322 -1 1 -1
1758 78 10 0.4238 24.983174455059455 3.3221899143358837 13.259165490095674 -1 1 -1
1334 5 5 0.137136 24.614591852729326 4.857490144271759 17.195088478581468 -1 1 -1
1328 5 6 0.102614 24.717612007831455 2.8683113772125592 17.177317835504304 -1 1 -1
1316 5 2 -0.09836399999999999 24.439789718889223 5.072002138853384 18.236704715727413 -1 1 -1
22 1 6 0.102614 3.9744846580787603 4.789520943451562 13.439912685178006 0 0 -1
27 1 6 0.102614 1.56900476954648 7.653444745082946 13.250435795516927 0 0 -1
23 1 6 0.102614 3.841339355759173 6.475236844646177 12.710478929347852 0 0 -1
3 1 2 -0.011164 3.592089978930175 11.097058553501943 13.872099542840433 0 0 -1
4 1 2 -0.120364 2.678641680016651 10.746456201940456 14.888058191506678 0 0 -1
18 1 5 0.160636 2.0335424074696578 11.471900691503066 15.37939372261634 0 0 -1
12 1 2 -0.09836399999999999 4.347250014225407 8.671640594154226 13.858482503304447 0 0 -1
13 1 2 -0.120364 4.372343295131308 9.983789180098771 13.345623097585046 0 0 -1
5 1 2 -0.09836399999999999 2.597049022786223 9.397546384705784 15.311576808598142 0 0 -1
6 1 2 -0.188164 3.3358885409888535 8.39029707312771 14.751237385961296 0 0 -1
19 1 5 0.137136 1.7759476114477868 9.077264091591985 16.01939196201836 0 0 -1
7 1 1 0.188236 3.3091183643140694 6.940167726016314 15.262168964654332 0 0 -1
20 1 6 0.100836 3.0288234270093013 6.850593292716089 16.26940551313927 0 0 -1
21 1 6 0.100836 4.351385933305992 6.53918978574998 15.274937423519038 0 0 -1
32 1 5 0.160636 5.086820575019194 10.19944757199255 12.585993890382445 0 0 -1
31 1 5 0.137136 5.050020695119374 7.887945364261454 13.541586267989796 0 0 -1
37 1 2 -0.09836399999999999 5.334813486397578 11.849399376201251 17.23689759363213 0 0 -1
56 1 6 0.102614 5.1980702375250125 9.613098595146019 16.53091427864247 0 0 -1
42 1 1 0.090236 5.891114656216953 8.943638927324509 17.142540685125894 0 0 -1
58 1 6 0.102614 5.819570939561797 7.813812024783933 16.923983757177545 0 0 -1
50 1 5 0.137136 4.789629493208269 11.27158895992187 17.970636051519108 0 0 -1
1726 67 10 0.4238 6.330557877743176 6.40107275780662 15.871343419122411 0 1 -1
1724 67 9 -0.8476 6.527688870153678 6.7265633982916935 14.946590035156134 0 1 -1
1677 49 7 -1.32 9.163912803902297 6.486041026940723 14.467222050363565 0 1 0
372 2 6 0.102614 7.0397213719971115 6.054900834791907 12.287460601270418 0 1 0
1725 67 10 0.4238 7.511917977095152 6.674433079345575 14.777626097435416 0 1 -1
373 2 6 0.102614 8.577889746282198 7.031838630351744 12.426751717975248 0 1 0
330 2 2 -0.09836399999999999 8.975081346608391 11.233116749553819 12.701148517112848 0 1 0
331 2 2 -0.120364 10.08095054937788 10.483298994305656 13.068709325106276 0 1 0
350 2 5 0.160636 9.936872536581015 9.484888625388027 13.408631491372187 0 1 0
1678 49 8 0.32 9.899417522631104 6.9223330465843596 14.95126328437337 0 1 0
54 1 6 0.102614 7.056353307238125 10.108347131173097 15.074995728991096 0 0 -1
55 1 6 0.102614 7.598356317128947 8.409023558786071 15.040702945929235 0 0 -1
53 1 6 0.102614 8.780198654340115 9.762996554799447 15.461781793798087 0 0 -1
321 2 2 -0.011164 11.300533935763882 11.102717728992683 13.188616448072137 0 1 0
41 1 1 0.090236 7.741184585512014 9.414173971466543 15.497159047916483 0 0 -1
333 2 4 0.046836 11.378941913688735 9.261285035766871 15.184673633984378 0 1 0
38 1 2 -0.188164 6.693516928366136 11.716378821913139 16.970746503761184 0 0 -1
1666 43 8 0.32 11.043879572242043 9.088103002803093 18.244670401278995 -1 0 -2
40 1 3 -0.6068 7.413059225292038 9.290425844245124 16.938241750859596 0 0 -1
52 1 6 0.100836 8.553544109030705 10.895510498931156 17.62110691896855 0 0 -1
39 1 1 0.188236 7.5138200924587695 10.653211672867219 17.62743894738791 0 0 -1
60 1 6 0.102614 8.04224351079993 7.305755971440532 17.296818276285727 0 0 -1
1665 43 7 -1.32 10.62470366191497 9.943018713988655 18.14204568334968 -1 0 -2
933 3 4 0.069836 11.653077499575199 6.670404354907474 17.69504323644867 0 2 -1
848 3 6 0.102614 16.419452103567927 8.162003176113817 13.91633616662049 0 2 -1
334 2 4 0.046836 12.052705330932115 8.322342609049084 13.964983706065464 0 1 0
367 2 5 0.160636 12.818446726735981 6.66332019934787 11.943564759244698 0 1 0
847 3 6 0.102614 16.686122367875207 6.511152285576841 14.29062131726 0 2 -1
352 2 1 -0.036264 13.936290596087629 9.087143020397729 11.972594429734183 0 1 0
351 2 1 -0.07226399999999999 13.770220143898808 10.414937220915741 12.763653246590575 0 1 0
366 2 4 0.069836 14.06504479024756 8.263711296493772 12.71001003788146 0 1 0
365 2 4 0.046836 14.713564010505873 10.598040256062783 13.321447853549735 0 1 0
320 2 1 -0.036264 12.603518172793878 10.448439120392944 13.740105487307918 0 1 0
319 2 1 -0.07226399999999999 12.31676114499733 9.209817217073324 14.6270589585894 0 1 0
1786 87 10 0.4238 15.95141380477136 10.981813086240578 14.972004913121598 -1 0 -1
849 3 6 0.102614 16.847531328609264 6.963974084768135 12.502431963319248 0 2 -1
631 2 4 0.045503 13.054935373237965 7.768742215396206 16.05375848853543 0 1 0
335 2 4 0.069836 12.968445634848884 11.171160629939465 14.449466776974592 0 1 0
833 3 1 0.090236 16.939395920441314 7.282229725942965 13.565091425773343 0 2 -1
1784 87 9 -0.8476 16.540230543267647 10.180657420678092 14.86514943567231 -1 0 -1
332 2 1 -0.09496400000000001 13.475724991400185 8.632195581379097 15.526558573900086 0 1 0
633 2 4 0.045503 13.85332266314297 9.359538117226325 16.24730612295636 0 1 0
632 2 4 0.045503 14.34465950413668 8.499923434534589 14.974331402632567 0 1 0
1785 87 10 0.4238 17.472866950542027 10.413298998193756 15.14090390072219 -1 0 -1
903 3 5 0.137136 16.75641270260016 8.168433633950867 16.439942358212143 0 2 -1
1654 37 8 0.32 14.526236694053356 12.589423446523968 14.423360353429887 0 -1 0
1069 4 6 0.102614 12.985157618275055 11.099770156684603 17.20657622490733 -1 1 -1
889 3 2 -0.120364 15.520270082152727 6.8352825020203625 17.401090696702177 0 2 -1
890 3 2 -0.09836399999999999 16.27489014149276 7.975689782955314 17.353939176742287 0 2 -1
1075 4 6 0.102614 14.636505122232577 11.501838841284828 18.46918415953688 -1 1 -1
905 3 6 0.100836 17.09955605490292 10.384764876762578 17.50380525578273 0 2 -1
846 3 6 0.102614 18.2859348204881 8.309140448572437 11.853575473354208 0 2 -1
845 3 6 0.102614 18.693478745503675 9.50542228176181 13.010709853933927 0 2 -1
844 3 6 0.102614 19.964462986214755 8.402431378548478 12.485166112704935 0 2 -1
832 3 1 0.090236 18.877734400694543 8.529282222049272 12.705997259396742 0 2 -1
831 3 3 -0.6068 18.44179105218 7.535046202637853 13.764247386738916 0 2 -1
852 3 6 0.102614 20.009945557798133 8.239032023184185 14.877719005575917 0 2 -1
834 3 1 0.090236 18.972606732932306 7.972804319733124 15.120874454320436 0 2 -1
850 3 6 0.102614 18.5603126389814 8.871763192395278 15.415757005833505 0 2 -1
851 3 6 0.102614 18.92563319879448 7.172409091178158 15.866412756834462 0 2 -1
1669 45 7 -1.32 19.132463156424464 11.456025871143455 15.13059114772766 0 1 -1
909 3 6 0.102614 19.404658180445843 9.803835333723365 16.722705878747043 0 2 -1
1819 98 10 0.4238 21.970003633692436 10.762737955961164 14.57842125120364 -1 0 -1
1818 98 10 0.4238 20.423218988714794 10.552363340060216 15.05774873875196 -1 0 -1
1817 98 9 -0.8476 21.305271381384465 10.100546312000656 14.924263310520717 -1 0 -1
895 3 1 0.090236 19.675635386761464 10.308327560071044 17.71908681578671 0 2 -1
910 3 6 0.102614 19.47632378523363 11.41237725029767 17.719240557036777 0 2 -1
1670 45 8 0.32 19.669771757891276 11.801670290588126 14.357179908811217 0 1 -1
1732 69 10 0.4238 18.18564014334138 12.203616107917497 16.151548014346304 -1 0 -1
49 1 5 0.160636 3.558031857089263 12.793848001367246 16.765187789735315 0 0 -1
2 1 1 -0.036264 3.5490180111620226 12.547709385980403 13.185319477829768 0 0 -1
17 1 4 0.069836 4.572681129815865 12.797506352082792 12.797912710744209 0 0 -1
46 1 4 0.046836 2.614219782303903 14.520471346219754 13.414666468848951 0 0 -1
33 1 1 -0.07226399999999999 3.1118931348350785 13.769265132814231 14.061873684031054 0 0 -1
78 1 4 0.046836 4.122902407141048 16.150815283276742 13.272883384352092 0 0 -1
47 1 4 0.046836 2.302283287844482 13.45028979676535 14.723709655914174 0 0 -1
34 1 1 -0.036264 4.245035416514585 14.577764689586475 14.75363945766849 0 0 -1
66 1 2 -0.011164 4.835885501454708 18.058837963545542 14.547858535208414 0 0 -1
48 1 4 0.069836 3.6835763893986178 15.111552357955578 15.473553701449271 0 0 -1
64 1 1 -0.07226399999999999 4.91007097501544 15.676063213456372 13.8492363220189 0 0 -1
35 1 2 -0.011164 5.1939967382458265 13.640078514029026 15.561170951069203 0 0 -1
36 1 2 -0.120364 4.5984126919376225 12.775704183397698 16.50063548208953 0 0 -1
1709 62 9 -0.8476 1.6925981063877515 17.12286005151814 16.002799976737272 0 0 -1
1710 62 10 0.4238 2.3089299817865854 16.72568254946937 16.682769451892113 0 0 -1
1711 62 10 0.4238 1.990616797248736 16.855650376387842 15.086417320109524 0 0 -1
80 1 5 0.160636 4.498921529505748 18.114237765230733 16.665888536981548 0 0 -1
1822 99 10 0.4238 0.37639707335563166 14.800386172608343 17.093880682885164 0 0 -1
1620 20 8 0.32 3.9032697605955358 15.624362390147573 17.30610284768394 2 2 -2
79 1 4 0.069836 5.626539643791886 16.51538152712365 15.666941604656982 0 0 -1
65 1 1 -0.036264 5.632963941085565 16.75932235465209 14.65517377541442 0 0 -1
77 1 4 0.046836 5.652834255051981 15.041434245513923 13.196652977411441 0 0 -1
94 1 5 0.160636 4.999092406721606 18.2533160750215 12.354989561180643 0 0 -1
1820 99 9 -0.8476 0.9497265780385679 14.506211635833635 17.858556505362472 0 0 -1
1821 99 10 0.4238 1.8348500648985098 14.968870318910305 17.80878259947672 0 0 -1
1619 20 7 -1.32 3.067510145856963 15.740419432094004 17.828584674800958 2 2 -2
1070 4 6 0.102614 11.59985759450754 11.90844227081797 16.86644564511964 -1 1 -1
322 2 2 -0.120364 11.376173414133836 12.50211317698439 12.877163211520763 0 1 0
62 1 5 0.137136 8.37090970943583 12.392422771530713 15.849304791681142 0 0 -1
108 1 4 0.046836 7.488342053176518 17.712546185358917 13.67091396500002 0 0 -1
171 1 4 0.046836 9.763521761362346 17.261219871143823 13.168093183906008 0 0 -1
323 2 2 -0.09836399999999999 10.28329114217815 13.245564950673922 12.412153684902679 0 1 0
337 2 5 0.137136 10.384341889285922 14.277551398966866 12.112848329961617 0 1 0
109 1 4 0.046836 7.538374336310445 15.982220609021214 14.006805231028888 0 0 -1
95 1 1 -0.07226399999999999 7.232956988785949 16.944526752993433 14.4236805999415 0 0 -1
157 1 1 -0.07226399999999999 10.625804575993884 17.90151305815015 13.613047885229184 0 0 -1
63 1 5 0.160636 6.987238138897901 14.090611644487607 14.527269360265212 0 0 -1
45 1 2 -0.120364 6.578179453933313 13.470392795038338 15.311821512734697 0 0 -1
139 1 4 0.046836 9.67923927351032 15.72476639014103 14.979544569078461 0 0 -1
127 1 1 -0.036264 10.70558304971194 17.671269693359505 15.176723897370291 0 0 -1
96 1 1 -0.036264 8.125998073658497 17.213516278419014 15.713363471032396 0 0 -1
126 1 1 -0.07226399999999999 9.639899136750042 16.640367562774436 15.54543751861849 0 0 -1
44 1 2 -0.09836399999999999 7.334804356594208 12.497257042997349 16.01208350797865 0 0 -1
170 1 4 0.046836 11.480267792109593 17.61656870622108 13.144458910759043 0 0 -1
110 1 4 0.069836 7.664954609087058 16.621896820054452 16.477709217611803 0 0 -1
140 1 4 0.046836 9.97175235027857 16.231575043216758 16.56169806195352 0 0 -1
1514 5 6 0.102614 8.240572546366055 15.383391180602501 18.122549879219328 0 0 -1
336 2 5 0.160636 12.283670417218326 13.063724993187089 13.086096723364893 0 1 0
269 1 6 0.100836 13.482133403653508 16.641961146430916 11.936085621795497 0 0 -1
1057 4 1 0.090236 12.613396783885841 12.059831462127685 17.018887930047505 -1 1 -1
1691 56 9 -0.8476 17.397901259530776 12.98231589593081 13.719827256187841 -1 0 -1
1071 4 6 0.102614 13.09607006168026 12.649166634725274 16.16761088376107 -1 1 -1
1653 37 7 -1.32 15.289757319699923 12.451163123319798 15.044255504871897 0 -1 0
272 1 6 0.102614 15.828054895811356 15.325974970756674 13.28251967247079 0 0 -1
270 1 6 0.102614 15.368627289670853 13.679421831575237 12.897493186364633 0 0 -1
258 1 1 0.090236 15.048691599250622 14.733689004444834 12.823198947489779 0 0 -1
271 1 6 0.102614 14.059016067636792 14.825114799969528 13.321405980979915 0 0 -1
279 1 5 0.137136 14.195545381070763 17.81947543093527 13.811985962141135 0 0 -1
142 1 5 0.160636 12.01747307467466 15.038788734649732 14.915360487691656 0 0 -1
143 1 5 0.137136 14.237707754830875 14.446764259291484 15.586277143397401 0 0 -1
129 1 2 -0.120364 12.584399956700318 15.83419058329349 15.376399470446756 0 0 -1
128 1 2 -0.011164 12.09698388934138 17.15823001453476 15.547157367734808 0 0 -1
130 1 2 -0.09836399999999999 13.904125960610914 15.47745725451087 15.66601363946362 0 0 -1
131 1 2 -0.188164 14.805731739159024 16.43922898158717 16.159057110338544 0 0 -1
1731 69 10 0.4238 16.60492025960737 12.610814526390449 16.10606262547975 -1 0 -1
1692 56 10 0.4238 16.532989394623463 12.907605681542835 14.216133306020323 -1 0 -1
144 1 6 0.100836 16.127785201674783 14.812983375421817 16.524310846984243 0 0 -1
132 1 1 0.188236 16.149234433057686 15.933369870364478 16.72942087926942 0 0 -1
151 1 6 0.102614 16.668442090444834 16.821859036139088 14.116952475161964 0 0 -1
135 1 1 0.090236 17.529180581195753 16.280965871070833 14.524052210086747 0 0 -1
133 1 3 -0.6068 17.443072282089688 16.605122795925716 16.07035705393255 0 0 -1
137 1 2 -0.09836399999999999 14.29891770826359 17.705195993069324 16.52312252342921 0 0 -1
150 1 6 0.102614 17.518470610523643 15.167309944643366 14.331651178742465 0 0 -1
1730 69 9 -0.8476 17.454749883896298 12.6936719890368 16.62654096105876 -1 0 -1
134 1 1 0.090236 17.510767490285467 18.15515062568283 16.326134278546547 0 0 -1
138 1 2 -0.120364 12.985615632156012 18.081932698751828 16.194439452028014 0 0 -1
145 1 6 0.100836 16.18811229866872 16.132836019600973 17.77047737124093 0 0 -1
1077 4 6 0.102614 14.83989552898872 12.901478119812106 17.433770606247535 -1 1 -1
1059 4 1 0.090236 14.489606616684215 12.561754827363162 18.379238774418866 -1 1 -1
1056 4 3 -0.6068 12.942727096758329 12.696939399017015 18.305641846818936 -1 1 -1
1073 4 6 0.102614 13.25737835023733 14.713111441500946 17.809411910331384 -1 1 -1
1693 56 10 0.4238 18.095726486972545 12.435120316822939 14.181985836466385 -1 0 -1
149 1 6 0.102614 18.503033464590594 16.768471464872214 14.15931951273653 0 0 -1
154 1 6 0.102614 19.619405378046586 16.317285315668613 16.300583739324892 0 0 -1
136 1 1 0.090236 18.69327452618988 15.915055056028354 16.71656238009355 0 0 -1
152 1 6 0.102614 18.59759928587806 14.82567457383349 16.554840242555258 0 0 -1
147 1 6 0.102614 16.663369830235837 18.49861619957929 16.907118936482554 0 0 -1
153 1 6 0.102614 18.70978965331753 16.162420583852914 17.773028521087 0 0 -1
146 1 6 0.102614 17.518651228103238 18.777357220809293 15.42646533935224 0 0 -1
1745 74 9 -0.8476 20.525374679469884 18.136125793316353 13.526628044540276 -1 0 -1
1723 66 10 0.4238 22.078535533078956 17.41796011732484 16.118900476760963 -1 0 -1
1721 66 9 -0.8476 21.386465608181688 17.72704828148175 16.771186582300608 -1 0 -1
1740 72 10 0.4238 1.0017789291704235 18.66162624533012 15.74709192007256 0 0 -1
67 1 2 -0.120364 4.331010918145446 18.59674827010147 15.732208687998435 0 0 -1
76 1 2 -0.120364 4.6661791506425025 18.68428673132118 13.291205608746413 0 0 -1
68 1 2 -0.09836399999999999 3.644749622474963 19.848808835627942 15.699298300332627 0 0 -1
89 1 6 0.102614 4.324583021095156 23.879394749476425 12.31620626037928 0 0 -1
73 1 1 0.090236 4.159630439139588 22.887309066441745 12.823638196994654 0 0 -1
82 1 6 0.100836 1.5959344238728963 21.644924434264794 14.556575303596917 0 0 -1
70 1 1 0.188236 2.6538249534464913 21.794754730081763 14.42534594664931 0 0 -1
75 1 2 -0.09836399999999999 3.765048097531475 19.779676959787807 13.216321064543779 0 0 -1
93 1 5 0.137136 3.523753471764525 20.21797412682084 12.253801005604258 0 0 -1
71 1 3 -0.6068 2.716776301200743 22.882152921034027 13.250256888652698 0 0 -1
69 1 2 -0.188164 3.36170488549047 20.40719282018889 14.36724528953136 0 0 -1
87 1 6 0.102614 4.840355094356634 22.884525565379995 13.645549648754072 0 0 -1
83 1 6 0.100836 2.7841279395177536 22.300838285527902 15.350722905513848 0 0 -1
88 1 6 0.102614 4.441296845402695 22.143254313924253 12.118648144567143 0 0 -1
72 1 1 0.090236 2.407857744402817 24.301016087448062 13.787623421665591 0 0 -1
81 1 5 0.137136 3.2613803085884387 20.293770812380735 16.553327561596006 0 0 -1
85 1 6 0.102614 1.3223607272693971 24.464518262849168 13.994326616968584 0 0 -1
1424 5 6 0.102614 1.4103916583533989 22.667283348683476 16.53795726983119 0 0 -1
1811 96 9 -0.8476 4.435522614927711 23.483346031403983 16.235292796152955 0 0 -1
84 1 6 0.102614 2.8971687287820025 24.405727946563637 14.72906800582979 0 0 -1
1481 5 6 0.102614 2.0456819633885344 19.500288684772983 17.635791743977258 0 0 -1
1408 5 1 0.090236 0.5086343705642076 22.516397749995384 17.130429338425323 0 0 -1
1425 5 6 0.102614 25.3094418347019 21.64757752785851 16.704308020669842 -1 0 -1
141 1 4 0.069836 10.532864624432378 18.558535815060992 15.772938875017045 0 0 -1
159 1 2 -0.011164 9.402758874131381 19.613366925306934 12.109494155304747 0 0 -1
169 1 2 -0.120364 8.120500694228152 20.190448838725878 12.39013950460537 0 0 -1
192 1 2 -0.09836399999999999 8.57822773778725 23.661229771361114 13.046349413837495 0 0 -1
187 1 5 0.160636 7.907621408565044 20.64021158298324 13.373876909692207 0 0 -1
191 1 2 -0.120364 9.8208051759476 23.18328036283976 13.530679129307128 0 0 -1
172 1 4 0.069836 10.101086787394904 19.985139069821514 14.121192212606621 0 0 -1
204 1 5 0.160636 10.100414914538607 23.247771421828794 14.583500546375374 0 0 -1
158 1 1 -0.036264 10.431992377569323 19.394451662048986 13.196981714581273 0 0 -1
111 1 5 0.160636 6.811493834446997 19.62152345844472 14.73704772679739 0 0 -1
190 1 2 -0.011164 10.702035307821957 22.497201221074548 12.693878639269569 0 0 -1
119 1 6 0.102614 8.67560515262434 23.626138736201334 15.805930673410755 0 0 -1
98 1 2 -0.120364 7.410953801819125 19.823627383584153 15.601767205666876 0 0 -1
112 1 5 0.137136 6.832139194736745 21.87459686285836 15.60185917876897 0 0 -1
97 1 2 -0.011164 8.07328749276807 18.693522074079333 16.212079076477693 0 0 -1
99 1 2 -0.09836399999999999 7.383419132793066 21.171582944495356 16.123338779152398 0 0 -1
116 1 6 0.102614 10.459289522714391 23.068747189409763 17.45136090340526 0 0 -1
107 1 2 -0.120364 8.647737959835531 18.994272944011634 17.489534984871966 0 0 -1
188 1 1 -0.07226399999999999 11.803966448420269 20.129508602357184 12.965607751915638 0 0 -1
207 1 6 0.100836 5.97082758892196 23.774479275413157 11.913746125396079 0 0 -1
100 1 2 -0.188164 8.073870168425032 21.39276656428671 17.360663156703914 0 0 -1
102 1 3 -0.6068 8.621199554656304 24.021817057388333 17.805076898339756 0 0 -1
125 1 5 0.160636 9.166982741912433 18.21685593965357 18.093635842519774 0 0 -1
106 1 2 -0.09836399999999999 8.581205468119826 20.2738134114501 18.067664667249204 0 0 -1
103 1 1 0.090236 10.10695264629809 23.93295884855477 17.93282509495576 0 0 -1
189 1 1 -0.036264 11.972779050550862 21.771383429261682 13.148382579279028 0 0 -1
203 1 4 0.069836 12.105350341632258 21.8483083373227 14.230067875341591 0 0 -1
261 1 2 -0.09836399999999999 14.98403647792528 18.239021374780975 13.250041721528431 0 0 -1
148 1 6 0.102614 18.432141900382987 18.408802243043326 16.82468807948152 0 0 -1
202 1 4 0.046836 12.273323527761498 19.69567392282209 12.079612119669212 0 0 -1
219 1 1 -0.07226399999999999 13.369256236479082 22.22975122702222 12.60598076735297 0 0 -1
250 1 1 -0.07226399999999999 15.89787060674145 22.81485649958438 12.952470034879886 0 0 -1
262 1 2 -0.120364 15.489904072608146 19.51181753340486 13.624909969417228 0 0 -1
201 1 4 0.046836 12.440849256529493 19.682774380778262 13.739125770581735 0 0 -1
220 1 1 -0.036264 14.46039333638643 22.80979380636444 13.528613254513619 0 0 -1
252 1 2 -0.011164 16.334441922204135 20.24557463401451 12.701969840661798 0 0 -1
263 1 4 0.046836 16.368044362172974 23.821448174433094 13.324952625054099 0 0 -1
280 1 5 0.160636 15.219666667804663 19.998011840888836 14.544683439846164 0 0 -1
234 1 4 0.069836 14.582108033187803 22.28401022226617 14.415465217937816 0 0 -1
251 1 1 -0.036264 16.97692732251989 21.617968437167114 13.121591678385816 0 0 -1
265 1 4 0.069836 17.30221012868293 21.49687364996837 14.111211362034751 0 0 -1
235 1 5 0.160636 13.31167851632104 23.83211169027087 15.87526875986641 0 0 -1
156 1 5 0.160636 12.613885342333855 19.09431883700507 16.384857265871965 0 0 -1
810 3 5 0.137136 14.3809094351903 20.971599919926845 16.848846865682212 0 1 -1
809 3 5 0.160636 16.42179804789214 22.1895638289917 16.212511284899783 0 1 -1
155 1 5 0.137136 14.918710252808307 18.300624337509205 17.13382146577154 0 0 -1
796 3 2 -0.120364 15.718339144746455 22.70686682869642 16.82465171785921 0 1 -1
797 3 2 -0.09836399999999999 14.537826139070106 21.998775691892277 17.144527364785283 0 1 -1
795 3 2 -0.011164 16.0466462981351 23.912177497552626 17.52006408383221 0 1 -1
1722 66 10 0.4238 20.81943729270389 18.43263158748711 16.346209928398693 -1 0 -1
1607 14 7 -1.32 20.079591313593212 19.677849103863913 15.523451560582085 1 0 -1
1747 74 10 0.4238 20.714186529115906 18.7744824729064 12.78042134212067 -1 0 -1
1746 74 10 0.4238 20.41891724580831 18.644423409108953 14.381188868755983 -1 0 -1
294 1 4 0.046836 18.913410232620336 21.086481055270163 12.169651842050605 0 0 -1
281 1 1 -0.07226399999999999 18.341013806155665 22.033277833513687 12.446216518236652 0 0 -1
282 1 1 -0.036264 19.22523433644203 23.1585879927784 13.00252446876357 0 0 -1
297 1 4 0.069836 18.504981161821803 23.95409064591233 13.232014247762846 0 0 -1
296 1 1 -0.088964 19.974861458101515 22.76487952633959 14.34971508917348 0 0 -1
317 1 4 0.045503 20.624898229748574 21.89831552131112 14.296526201894466 0 0 -1
318 1 4 0.045503 20.588071852896668 23.590464483077284 14.693070698321025 0 0 -1
316 1 4 0.045503 19.279292646308235 22.476364843809478 15.140796001845938 0 0 -1
1608 14 8 0.32 20.0597822757654 20.636557160335144 15.811802608234068 1 0 -1
1702 59 10 0.4238 21.48201033267535 20.06675053115667 15.787647716392081 -1 0 -1
1700 59 9 -0.8476 22.376310777564264 20.510868996505373 15.842046899026345 -1 0 -1
807 3 4 0.046836 18.435884137644663 22.720229231315876 16.88642671166908 0 1 -1
1701 59 10 0.4238 22.770251452854318 20.357100073736426 16.748214504498037 -1 0 -1
1419 5 6 0.102614 23.603817229385477 23.043501313800647 15.441694117350679 -1 0 -1
1792 89 10 0.4238 23.283470328189615 21.423587708951565 14.114691403964306 -1 0 -1
793 3 1 -0.07226399999999999 18.526006267575397 23.32765704107924 17.71658463710213 0 1 -1
806 3 4 0.046836 19.558259080631068 23.677934618459965 17.541148316239756 0 1 -1
1791 89 10 0.4238 24.73644607116963 20.77677059548384 14.484885823959482 -1 0 -1
1790 89 9 -0.8476 24.262871722115364 21.447668500508072 13.91427455058365 -1 0 -1
1828 101 10 0.4238 23.399397939829072 19.317055152008827 18.6795997272883 -1 0 -1
1739 72 9 -0.8476 0.49800988394875984 19.492050099781565 15.984971423228533 0 0 -1
1406 5 1 0.090236 24.142947864136367 23.96737927717283 15.773344106737785 -1 0 -1
1741 72 10 0.4238 25.05287713160721 19.258864923607852 16.59294586883545 -1 0 -1
1405 5 3 -0.6068 24.82897175585824 23.734760316203044 17.08204532640285 -1 0 -1
1418 5 6 0.102614 25.00377570322778 24.196709253556087 15.123061175768248 -1 0 -1
1826 101 9 -0.8476 23.95931967051689 20.02538121440943 18.249791552745243 -1 0 -1
1416 5 6 0.100836 0.6772820197461474 25.406014195197024 16.575309716114113 0 0 -1
1415 5 5 0.137136 2.8644469234149295 0.18236368196806296 17.304546932909425 0 1 -1
1812 96 10 0.4238 4.89929003234253 24.00088976122168 15.516236512489701 0 0 -1
1813 96 10 0.4238 4.477966493589799 23.99420739943502 17.093892053887124 0 0 -1
86 1 6 0.102614 2.812798726878745 25.010282272690944 13.072246109170495 0 0 -1
1675 48 7 -1.32 5.479359214540596 24.918002228443235 14.494696234239413 0 0 -1
1676 48 8 0.32 6.2668978481900774 24.370168669751585 14.254154422994745 0 0 -1
104 1 1 0.090236 8.34841953926645 24.45083716047712 16.407503534818588 0 0 -1
120 1 6 0.102614 7.229993917814567 24.441226966361334 16.44298703302293 0 0 -1
205 1 5 0.137136 7.892437758152629 24.072655876730025 13.704741417527897 0 0 -1
118 1 6 0.102614 8.607659641923618 0.1890164791174427 16.20622014699454 0 1 -1
536 2 5 0.160636 11.869294135774695 25.306681429834384 12.381651290491659 0 0 0
117 1 6 0.102614 10.649908909528754 24.844893450647945 17.485010607749118 0 0 -1
221 1 2 -0.011164 14.160150891621774 24.295955824592333 13.94752673421614 0 0 -1
222 1 2 -0.120364 13.505833921652679 24.604392648032032 15.166355906814085 0 0 -1
249 1 5 0.160636 14.909841467391622 25.182520022483892 12.228480330629866 0 0 -1
838 3 4 0.046836 17.854833152277166 25.40277857942756 15.721702851044618 0 1 -1
794 3 1 -0.036264 17.510303106677085 24.453267353432913 17.716154746925426 0 1 -1
312 1 5 0.160636 19.328218819161307 0.376220425065814 11.732016300928784 0 1 -1
1420 5 6 0.102614 23.528535222753952 24.932209499558184 15.667933849335707 -1 0 -1
1638 29 8 0.32 25.336422380667358 1.1575136076861443 13.273768471137187 -1 1 -1
1349 5 4 0.046836 2.7981798872965893 6.072934452574145 20.584160494645403 0 1 -1
1412 5 4 0.046836 4.631388713963925 1.7962066508652303 21.03132745848834 0 1 -1
1351 5 4 0.069836 1.4096127340737832 4.079456624899508 21.289852916026938 0 1 -1
1336 5 1 -0.07226399999999999 2.185452028837934 6.207532305630216 21.4935351772019 0 1 -1
1381 5 4 0.046836 4.044336631492973 4.033956582010701 21.42468514620702 0 1 -1
1337 5 1 -0.036264 1.9577227931700103 4.679103105847957 22.063851291055784 0 1 -1
1382 5 4 0.069836 2.2176932601400217 2.0256211497630128 21.765813992169257 0 1 -1
1398 5 1 -0.07226399999999999 4.258635963424825 1.5136104257522782 21.988649514432808 0 1 -1
1367 5 1 -0.07226399999999999 3.26628540196449 3.8672209295056046 22.256086994578425 0 1 -1
1380 5 4 0.046836 3.7210129339327986 4.14948106037446 23.15596459131332 0 1 -1
1411 5 4 0.046836 5.057387647310613 1.8945544160440335 22.684354380538274 0 1 -1
1368 5 1 -0.036264 3.0133915024384206 2.3010031401073365 22.432915692294834 0 1 -1
1369 5 2 -0.011164 2.55423938379399 1.8787208582052919 23.814554860858593 0 1 -1
1338 5 2 -0.011164 1.0912429404726662 4.635947478790456 23.335673539800048 0 1 -1
1397 5 5 0.160636 0.5419966160417113 1.150089407643419 23.242599497222955 0 1 -1
1137 4 6 0.102614 6.630201300057515 4.756929589082924 19.83152751437489 -1 1 -1
122 1 6 0.102614 8.994878707637643 0.8052984561447747 18.59635898987841 0 1 -1
932 3 1 -0.088964 10.449970453810277 5.243007444110697 18.07842170686331 0 2 -1
1121 4 1 0.090236 7.50502941110495 5.445236682054384 19.911601759835236 -1 1 -1
1138 4 6 0.102614 8.404896499825345 4.802878408930715 20.13068240283448 -1 1 -1
934 3 5 0.160636 11.36737390114801 4.70258699322336 21.00827703798729 0 2 -1
1546 5 6 0.102614 9.529424025850952 1.9283342570708288 20.646989694862413 0 1 -1
1662 41 8 0.32 6.541128774154577 2.947437868801557 21.68779887995882 -1 -1 -2
1529 5 3 -0.6068 11.145396547754151 0.9022094170607035 21.650103896146774 0 1 -1
918 3 1 -0.036264 11.801075860757898 5.859657454826078 18.372682614036314 0 2 -1
920 3 2 -0.120364 11.55150592110568 5.768178190283225 20.96248995810614 0 2 -1
1531 5 1 0.090236 9.84962897680194 1.7307863039235034 21.653833671590384 0 1 -1
1135 4 6 0.102614 7.31426904291957 5.813754360030377 22.940163016295074 -1 1 -1
1661 41 7 -1.32 7.132823774719697 3.277647577481904 22.37260005511594 -1 -1 -2
1545 5 6 0.102614 9.963506029240719 2.625533880915232 22.240505713124513 0 1 -1
1139 4 6 0.102614 7.726627477319735 5.899567296961539 18.8783700718001 -1 1 -1
1547 5 6 0.102614 9.065875345864495 1.1630631381034149 22.205589693377476 0 1 -1
1528 5 1 0.188236 11.604552847099754 0.641090341256167 23.034979887895766 0 1 -1
1549 5 6 0.102614 11.788601624510667 2.1485097373775353 19.917264281399113 0 1 -1
935 3 5 0.137136 11.322152673204114 6.01056386841513 23.126286116455887 0 2 -1
952 3 4 0.045503 10.173762876536125 4.285975416528284 18.36666088004607 0 2 -1
1580 5 6 0.102614 8.826102667134831 3.0452408951777845 23.636577729927318 0 1 -1
1541 5 6 0.100836 11.410888937102586 1.546510036085404 23.559940098557625 0 1 -1
1548 5 6 0.102614 12.538455893393168 2.6305287588839232 21.553962431797032 0 1 -1
1532 5 1 0.090236 12.213070365835227 1.77775774705211 20.9232300965147 0 1 -1
917 3 1 -0.07226399999999999 12.93743358051547 4.981998059507583 17.927317149269946 0 2 -1
899 3 4 0.046836 14.60153703566648 2.759741211443985 18.472933897908376 0 2 -1
886 3 1 -0.07226399999999999 15.102586841632943 3.7205333927900077 18.16581601234971 0 2 -1
931 3 4 0.046836 12.538388640426282 3.951156798355781 18.176402176398916 0 2 -1
887 3 1 -0.036264 14.305538927284037 4.966865196834702 18.596422696699456 0 2 -1
856 3 1 -0.036264 16.502826472433455 3.668163269796287 18.87972511892569 0 2 -1
901 3 4 0.069836 14.159809393578751 4.883678385649266 19.642741618251662 0 2 -1
857 3 2 -0.011164 16.286461997879123 3.776703394241934 20.41593707377804 0 2 -1
885 3 5 0.160636 14.968129269407482 2.163954783360544 20.521089482160832 0 2 -1
855 3 1 -0.07226399999999999 17.328274869763554 2.335139412747376 18.467581015255462 0 2 -1
870 3 4 0.069836 17.182885215218384 4.398538024434571 18.497854331429714 0 2 -1
868 3 4 0.046836 16.923910448194952 1.5515596404518213 19.20570967523807 0 2 -1
867 3 2 -0.120364 15.418687340485633 2.9313504970738355 21.073291175517937 0 2 -1
858 3 2 -0.120364 16.95366101542885 4.793739272752292 21.155385262721957 0 2 -1
1550 5 6 0.102614 13.14018839584427 1.123540793986844 20.77627970371988 0 1 -1
871 3 5 0.160636 17.627061429699687 5.5031849895789104 20.639777303915196 0 2 -1
866 3 2 -0.09836399999999999 15.120126667330267 3.034003244782656 22.408836458548414 0 2 -1
859 3 2 -0.09836399999999999 16.789949041209 4.833541151806109 22.566643411935182 0 2 -1
884 3 5 0.137136 14.395360145187349 2.3805315637133337 22.816395195059386 0 2 -1
872 3 5 0.137136 17.25349344313554 5.6314607954488425 23.184166061647794 0 2 -1
1540 5 6 0.100836 12.715843765137313 0.5325113845157378 22.998958601143592 0 1 -1
860 3 2 -0.188164 15.866824874194803 3.9640787606261556 23.17883806062254 0 2 -1
888 3 2 -0.011164 15.023977994745277 6.318661104307775 18.61075638244491 0 2 -1
1640 30 8 0.32 12.52156767404427 3.407452935647353 23.130986802599026 -1 2 -2
1313 5 1 0.090236 22.97851362306347 1.8017450062672107 18.924354660035497 -1 1 -1
1326 5 6 0.102614 23.271471112385164 0.8115488031234024 18.714759338250296 -1 1 -1
786 3 6 0.102614 18.535330452857266 2.827552200908814 21.263275809339383 0 2 -1
788 3 6 0.102614 21.719797859660957 2.1590090670941806 24.130204406370417 0 2 -1
869 3 4 0.046836 18.380641682818045 2.535368109792014 18.777811620295388 0 2 -1
1325 5 6 0.102614 23.88628547400306 2.230828766252175 19.290759331091834 -1 1 -1
1322 5 5 0.137136 22.051404435328152 4.599492583296694 20.634278492856268 -1 1 -1
1643 32 7 -1.32 19.885580378126534 5.230412983739547 19.433799545792624 1 3 0
1644 32 8 0.32 20.501388710168058 5.726396757946207 18.837686697181475 1 3 0
1327 5 6 0.102614 22.105440547968158 1.696116176440593 19.561306720184568 -1 1 -1
1309 5 2 -0.09836399999999999 23.01643655182056 4.811327962492394 20.262148156952904 -1 1 -1
785 3 6 0.102614 20.04061654171231 2.057857779336638 20.809455935334285 0 2 -1
1310 5 2 -0.188164 23.25408449683458 4.666935915185073 18.86834743408796 -1 1 -1
789 3 6 0.102614 21.666023868100098 3.433355062520701 22.83355007089478 0 2 -1
787 3 6 0.102614 20.074847644223524 3.834279150225474 21.20031762523419 0 2 -1
771 3 1 0.090236 19.638025688232005 2.8375622835373484 21.47332605670873 0 2 -1
1321 5 5 0.160636 23.853824090848924 5.503648027186688 22.13464632392605 -1 1 -1
772 3 1 0.090236 21.415508142731326 2.3936769602815073 23.090257786097574 0 2 -1
769 3 3 -0.6068 19.91825219823631 2.4238608982364416 22.944455021186947 0 2 -1
1308 5 2 -0.120364 24.010223885848596 5.390887893979063 21.06066038613013 -1 1 -1
1657 39 7 -1.32 23.762193488633066 0.8844689297522337 21.908119867908447 -2 1 -2
781 3 6 0.100836 18.397989914978446 1.1836089677732298 23.773917048677383 0 2 -1
790 3 6 0.102614 21.769472333151683 1.6291387807732263 22.452406721331613 0 2 -1
768 3 1 0.188236 19.359691575355058 1.0166037272046595 23.328223373279748 0 2 -1
780 3 6 0.100836 19.939815940253133 0.6573280853457607 24.18964070883554 0 2 -1
693 3 6 0.102614 22.13915089411565 25.20063904372649 23.7075233638341 0 1 -1
770 3 1 0.090236 19.37558035552202 3.567994067837585 23.803288936955823 0 2 -1
783 3 6 0.102614 19.55058693575662 4.500338449144964 23.188108773563613 0 2 -1
1339 5 2 -0.120364 25.226115775392486 3.8329010134612544 23.41840158946551 -1 1 -1
1317 5 2 -0.120364 25.449146963005617 5.6677191836437615 19.05980498961435 -1 1 -1
1307 5 2 -0.011164 25.14436198997712 5.943762330791495 20.427588014783566 -1 1 -1
1352 5 5 0.160636 25.040861010440082 3.2426682361365273 22.570240326577213 -1 1 -1
1658 39 8 0.32 24.68930601909286 0.8166058060428811 21.538733026306105 -2 1 -2
1417 5 6 0.100836 24.779674637797335 0.4626036067257841 17.680157370067505 -1 1 -1
1136 4 6 0.102614 6.054342702165196 5.283467286508813 21.826230923078775 -1 1 -1
1120 4 1 0.090236 6.613210874959311 6.140965081614893 22.17753550178451 -1 1 -1
57 1 6 0.102614 5.61693376308372 9.133204180646928 18.158755130959072 0 0 -1
1335 5 5 0.160636 1.1138239087199344 6.007567973773875 18.574464218058303 0 1 -1
1306 5 1 -0.036264 0.7974353890576081 6.833479526936063 21.185746381894994 0 1 -1
1350 5 4 0.046836 2.6617313871887602 6.90228989135212 22.163364776217733 0 1 -1
1288 5 4 0.046836 0.29004221496390314 10.47149539234911 18.98021483881459 0 1 -1
1318 5 4 0.046836 1.5478192321204838 8.148058074236879 19.702643154610804 0 1 -1
1222 4 6 0.100836 2.0004224433368356 11.140835375573069 20.453121739862624 -1 1 -1
1223 4 6 0.100836 3.654204612905974 10.924071878742495 20.657143170714484 -1 1 -1
1210 4 1 0.188236 2.757701813073296 11.371160797206828 21.191813213655294 -1 1 -1
1305 5 1 -0.07226399999999999 0.8239535491037846 8.243063997473516 20.51190123080677 0 1 -1
1319 5 4 0.046836 1.2527833074715573 8.893460469257294 21.245958718788792 0 1 -1
1221 4 5 0.137136 4.532802152353312 9.569551706063075 22.282989204899252 -1 1 -1
1209 4 2 -0.188164 2.593402783463752 10.637510801589949 22.479677222104534 -1 1 -1
1208 4 2 -0.09836399999999999 3.593125517288211 9.739569494042692 22.879913717378095 -1 1 -1
1233 4 5 0.137136 0.7675576794699109 11.582183651172862 23.095943787651066 -1 1 -1
1215 4 2 -0.09836399999999999 1.5300608345177247 10.859680250817986 23.358611865054527 -1 1 -1
1131 4 6 0.102614 5.411929850408129 7.118337678783063 20.01576850736877 -1 1 -1
1287 5 4 0.046836 25.005809939598258 10.822264940912472 20.57309312180152 -1 1 -1
1156 4 4 0.046836 5.881484442258718 11.054975351949004 24.173502872218513 -1 1 -1
43 1 1 0.090236 8.340163323734362 8.275497524188141 17.598558278619144 0 0 -1
61 1 6 0.102614 9.358786647759176 8.346059544806861 17.224005832668453 0 0 -1
1133 4 6 0.102614 6.837145729808001 8.101178885731589 19.463702364710308 -1 1 -1
953 3 4 0.045503 9.776224526006468 5.9233169085148285 18.60747244385516 0 2 -1
921 3 2 -0.09836399999999999 11.563707975563016 6.529259138425894 22.185181343871108 0 2 -1
1129 4 6 0.100836 9.418034936020858 6.387134638015902 21.421619942701625 -1 1 -1
1118 4 3 -0.6068 7.299612828972135 6.613100815668879 20.86119158765743 -1 1 -1
1117 4 1 0.188236 8.690379671600505 7.1882421660763525 21.151816147347347 -1 1 -1
1130 4 6 0.100836 9.01695163755252 7.584582529310448 20.193647589219644 -1 1 -1
1132 4 6 0.102614 6.025006825682025 8.42715600930246 20.94953851446951 -1 1 -1
59 1 6 0.102614 8.346576741283751 8.35060266647699 18.737035563429657 0 0 -1
51 1 6 0.100836 7.160240868245374 10.48591869735072 18.677720374759495 0 0 -1
1119 4 1 0.090236 6.315924080356097 7.611730006125523 20.261488572013647 -1 1 -1
1599 10 7 -1.32 5.750269497623817 10.796849016376376 20.20930916684933 0 -1 -2
1600 10 8 0.32 6.663096607844454 10.568055713408993 20.474399502246676 0 -1 -2
1128 4 5 0.137136 8.518273402215721 9.955836360939333 20.73375781456314 -1 1 -1
1115 4 2 -0.09836399999999999 8.600874555719141 9.704440689452882 21.79270032622167 -1 1 -1
1116 4 2 -0.188164 8.748312709163434 8.376517644852298 22.19453478143882 -1 1 -1
1127 4 5 0.160636 8.077715012683381 11.788582191287706 22.444660748768285 -1 1 -1
1114 4 2 -0.120364 8.34195087013887 10.802302923018669 22.701857715285044 -1 1 -1
1134 4 6 0.102614 5.984253326613058 7.013034403554656 22.543855097816106 -1 1 -1
1067 4 6 0.100836 11.18373832145664 11.776649558223193 19.16435577302294 -1 1 -1
919 3 2 -0.011164 11.913252127862524 6.409692000559985 19.785976721625616 0 2 -1
948 3 5 0.160636 12.536395054452312 8.250856569531464 18.91533995862472 0 2 -1
929 3 2 -0.120364 12.307776930125168 7.759667732968942 19.81576523172935 0 2 -1
928 3 2 -0.09836399999999999 12.276122913867464 8.505299437390734 20.991824641537285 0 2 -1
1122 4 2 -0.09836399999999999 8.824763044850478 8.08276019026647 23.523816995691263 -1 1 -1
946 3 6 0.102614 14.224613582526327 6.640617013958539 22.834803000775118 0 2 -1
916 3 5 0.160636 14.764697148968464 6.666198869872644 20.725386543354595 0 2 -1
898 3 2 -0.120364 15.158854973427061 7.1247732238290675 19.76325725517664 0 2 -1
1055 4 1 0.188236 12.231284390484968 11.863986857470334 19.34598680478905 -1 1 -1
1068 4 6 0.100836 12.584875020989063 10.847638123562652 19.31756866937794 -1 1 -1
897 3 2 -0.09836399999999999 15.819345249153605 8.326527922036126 19.70083019853663 0 2 -1
891 3 2 -0.188164 16.398043972573447 8.783282809448377 18.481866733749044 0 2 -1
915 3 5 0.137136 16.063430433705385 8.907607518115618 20.5841383323423 0 2 -1
1078 4 5 0.137136 14.083919329324917 11.19635793478444 21.3674558445472 -1 1 -1
947 3 5 0.137136 12.59539848581935 9.522356641706113 21.009448316741953 0 2 -1
892 3 1 0.188236 17.269334529023972 9.950043495506943 18.44584143195462 0 2 -1
904 3 6 0.100836 16.862771898065816 10.773967694354962 19.10549840278972 0 2 -1
922 3 2 -0.188164 12.052017297609977 7.863413274738255 22.179134475774084 0 2 -1
938 3 6 0.102614 14.60129632293433 9.063430920797966 22.095429821464904 0 2 -1
1771 82 10 0.4238 16.48625939286213 11.31669692869314 22.326057776481797 -1 0 -2
1769 82 9 -0.8476 16.586755961067063 11.415248639551177 21.336026764007244 -1 0 -2
1770 82 10 0.4238 17.310561159758507 12.076401558893357 21.138652824038395 -1 0 -2
923 3 1 0.188236 12.346756333650102 8.560479864328544 23.53035949549644 0 2 -1
937 3 6 0.100836 12.253155568677604 9.637200073882811 23.34199835874609 0 2 -1
939 3 6 0.102614 15.767916489819077 8.839924355333126 23.347176776516783 0 2 -1
940 3 6 0.102614 14.724677936486861 10.191363664700011 23.38905834514724 0 2 -1
925 3 1 0.090236 14.757498151983546 9.16503818549544 23.134461319152358 0 2 -1
1060 4 2 -0.09836399999999999 13.33720575117331 11.874754060926934 21.681935718369083 -1 1 -1
1299 5 6 0.102614 17.88286485950018 9.334449469163776 23.86802550252675 -1 1 -1
908 3 6 0.102614 18.509332788732266 7.660672120745527 18.10439609901421 0 2 -1
1587 5 4 0.045503 23.24032868332209 10.370468417151622 18.10235822316786 -1 1 -1
906 3 6 0.102614 18.94231608310448 7.71140736935474 19.828958911287557 0 2 -1
907 3 6 0.102614 20.187789745841215 8.006649386857404 18.625497416915408 0 2 -1
914 3 6 0.102614 18.664667729434477 11.38100722969065 20.165474379389757 0 2 -1
1304 5 5 0.160636 22.218827380477506 7.491503524994295 19.40478564733214 -1 1 -1
894 3 1 0.090236 19.121024379309816 8.097283101870701 18.85442132441716 0 2 -1
893 3 3 -0.6068 18.728429335326624 9.648514372889336 18.765186811281133 0 2 -1
911 3 6 0.102614 20.69440870567219 9.995765069848327 17.89834260350984 0 2 -1
1585 5 4 0.045503 22.658295592943162 10.71764281886974 19.76976855152585 -1 1 -1
896 3 1 0.090236 19.038270885688412 10.29031597392175 20.16435263417327 0 2 -1
913 3 6 0.102614 18.482871388104 9.652064754630224 20.86070642838665 0 2 -1
912 3 6 0.102614 20.11990048193637 10.307138603290078 20.319247391392288 0 2 -1
1285 5 2 -0.120364 22.40620050172742 7.87475483306718 20.368752639801215 -1 1 -1
1303 5 5 0.137136 20.51996937896984 7.04948295016315 21.00727549416777 -1 1 -1
1284 5 2 -0.09836399999999999 21.453521017441304 7.590344515344638 21.297968640522924 -1 1 -1
1275 5 2 -0.011164 23.64203267857328 8.513822735949073 20.780396717345013 -1 1 -1
1276 5 2 -0.120364 23.758232439077894 8.934208301845263 22.07565811367723 -1 1 -1
1278 5 2 -0.188164 21.640556890646188 7.868460858663122 22.65438368416789 -1 1 -1
1298 5 6 0.102614 17.996114505225293 7.804755584935632 22.973275499146624 -1 1 -1
1748 75 9 -0.8476 19.16290301037653 11.703383776424387 22.982118293072894 -1 0 -1
1750 75 10 0.4238 18.24290198502849 11.495801649790609 23.31450622308965 -1 0 -1
1297 5 6 0.102614 19.078084254957183 9.250385070014023 22.56161739295682 -1 1 -1
1293 5 6 0.100836 20.402665753908202 6.2380318672021104 23.635413887840045 -1 1 -1
1282 5 1 0.090236 18.572147300864522 8.637110383482486 23.341775686703578 -1 1 -1
1277 5 2 -0.09836399999999999 22.782189735030002 8.599877032966148 23.07909302238474 -1 1 -1
1320 5 4 0.069836 0.36042908474500435 6.926148985672598 22.14895699088931 0 1 -1
1286 5 1 -0.09496400000000001 23.508197119532923 10.848627645397867 19.08833499289453 -1 1 -1
1586 5 4 0.045503 23.618775530383104 11.927295396378717 18.851507859887995 -1 1 -1
1273 5 1 -0.07226399999999999 24.761935177052393 10.275023357844132 19.630448905246524 -1 1 -1
1274 5 1 -0.036264 24.76224964672962 8.803787376858253 19.844147746591673 -1 1 -1
1289 5 4 0.069836 24.648254861561554 8.176246993709977 18.896328131962257 -1 1 -1
1290 5 5 0.160636 24.695910250553766 9.382524960024933 22.42579012351569 -1 1 -1
1227 4 6 0.102614 4.309793244092684 12.7883282419556 19.516924464168902 -1 1 -1
1225 4 6 0.102614 5.140243488026161 12.770270960548416 21.836230334064368 -1 1 -1
1228 4 6 0.102614 2.519429493355973 13.079229535750315 19.02741440563525 -1 1 -1
1213 4 1 0.090236 3.3537317048236934 13.247368928802222 19.756356975999772 -1 1 -1
1484 5 6 0.102614 1.4349009373804094 17.260090304574128 18.069284250640088 0 0 -1
1469 5 1 0.090236 0.9983940635782586 17.51522289370191 19.035823075071903 0 0 -1
1485 5 6 0.102614 1.032880828825808 16.637509160120985 19.620922945953154 0 0 -1
1466 5 1 0.188236 3.260216019374394 17.998196998762047 19.465780197774713 0 0 -1
1479 5 6 0.100836 3.2241648565165746 16.970649331625367 19.85339423726736 0 0 -1
1478 5 6 0.100836 3.6234314986464433 17.86419688937432 18.47243546855627 0 0 -1
1229 4 6 0.102614 3.4647417905641897 14.326035651843481 19.74625712592536 -1 1 -1
1486 5 6 0.102614 1.8182047406206332 18.218933454363686 21.508104714837266 0 0 -1
1211 4 3 -0.6068 2.9559376958252517 12.852652763103888 21.177186685867397 -1 1 -1
1230 4 6 0.102614 0.965419562149426 13.613563570585175 20.8289000720575 -1 1 -1
1214 4 1 0.090236 1.7316614828184154 13.599278912609751 21.579951477010596 -1 1 -1
1231 4 6 0.102614 2.2358025455439496 14.545162857607766 21.747037615930218 -1 1 -1
1477 5 5 0.137136 3.5126181613771967 17.990128756156153 22.183456227225477 0 0 -1
1232 4 6 0.102614 1.442862376088883 13.172061544836577 22.543727495610717 -1 1 -1
1212 4 1 0.090236 4.167733032384128 13.265953333703193 22.09614036189531 -1 1 -1
1224 4 6 0.102614 4.242894019832734 14.334859299124451 21.940623815382317 -1 1 -1
1226 4 6 0.102614 3.9073033137286086 13.037258553625565 23.141559559307424 -1 1 -1
1511 5 6 0.102614 5.749939127465549 15.60153059846334 18.90448062446248 0 0 -1
1512 5 6 0.102614 5.221366561242674 15.259929887817545 20.57319663702978 0 0 -1
1629 25 7 -1.32 2.943495775044994 15.999039793928059 23.397240585164056 0 1 -2
1467 5 3 -0.6068 1.8986697101800474 18.639902465157974 19.513481362544994 0 0 -1
1483 5 6 0.102614 25.303443063885112 17.92340878904298 18.86883459084386 -1 0 -1
653 3 4 0.069836 0.17862539544986333 15.24456553408515 22.57185746131473 1 1 -1
1630 25 8 0.32 2.3895242751397032 15.441494720272738 23.96381482112912 0 1 -2
1066 4 5 0.137136 10.546881292305285 13.56820134169866 20.472767394746974 -1 1 -1
1519 5 6 0.102614 7.746149581860485 12.665037147025156 19.626848540708906 0 0 -1
1516 5 6 0.102614 9.44024781854818 14.909657971105473 19.285974236598804 0 0 -1
1515 5 6 0.102614 8.782159995152213 16.382735393583204 19.561131784269193 0 0 -1
1500 5 1 0.090236 8.501030799705955 15.38410526975582 19.18983904307548 0 0 -1
1513 5 6 0.102614 6.298290465627595 16.64125674964739 20.238027340144562 0 0 -1
1499 5 1 0.090236 6.066389682691571 15.638077682130005 19.94302512230403 0 0 -1
1518 5 6 0.102614 6.60247514312235 13.722895650509239 18.4771391514903 0 0 -1
1501 5 1 0.090236 6.897444165082737 13.466858970887312 19.551801609618686 0 0 -1
1517 5 6 0.102614 6.038052799684339 13.038781686901684 20.108538703979725 0 0 -1
1498 5 3 -0.6068 7.3688690231035405 14.806754726396232 20.0770495368415 0 0 -1
1497 5 1 0.188236 7.720721702034856 14.695873966768145 21.550193764813564 0 0 -1
1510 5 6 0.100836 8.467730853526042 13.914516287645638 21.69792262387378 0 0 -1
1509 5 6 0.100836 6.805832156389637 14.277998769162535 22.04574926039095 0 0 -1
1508 5 5 0.137136 9.904035551434315 16.40832178825716 21.21225523200647 0 0 -1
1496 5 2 -0.188164 8.116761901347447 16.0330401237506 22.22609570335107 0 0 -1
1495 5 2 -0.09836399999999999 9.23698307377513 16.821189145437927 21.94834600775154 0 0 -1
1494 5 2 -0.120364 9.54769439506951 18.01909761494702 22.613931145701827 0 0 -1
1065 4 5 0.160636 10.467672815189347 14.29774901025008 22.876748783274785 -1 1 -1
1520 5 5 0.137136 6.340361244773721 15.987386186857288 23.42852547798313 0 0 -1
1502 5 2 -0.09836399999999999 7.244938391236583 16.600902037125422 23.132929164185107 0 0 -1
1053 4 2 -0.09836399999999999 11.291814473379663 13.173802420487771 21.196729910734668 -1 1 -1
1614 17 8 0.32 10.732016195381291 16.588598162139398 18.061258210997323 -1 0 -1
1613 17 7 -1.32 10.989831406123276 16.50682011899392 19.000117542639636 -1 0 -1
1074 4 6 0.102614 11.570090824324518 14.364226427120924 17.6630829367776 -1 1 -1
1052 4 2 -0.120364 11.295702066401176 13.667600866771043 22.489137106249665 -1 1 -1
1503 5 2 -0.120364 7.560946451896137 17.782285900964737 23.915174933310723 0 0 -1
1155 4 4 0.046836 6.378550259435187 12.775308935712504 24.074079186017755 -1 1 -1
1125 4 4 0.046836 8.743068119018366 13.22997013953348 24.07129090601181 -1 1 -1
1054 4 2 -0.188164 12.347114411453187 12.36046131544726 20.739216884562843 -1 1 -1
1076 4 6 0.102614 14.896522944367847 13.092041483397082 19.191341639305982 -1 1 -1
1058 4 1 0.090236 12.451034047913408 14.142185059425405 18.279653941701973 -1 1 -1
754 3 6 0.102614 14.973139941810134 16.106662087872046 18.878250438957238 0 1 -1
1072 4 6 0.102614 12.186090849627485 14.53004134212808 19.22680185302292 -1 1 -1
755 3 6 0.102614 13.255678934494389 16.198595964703763 18.809726124517667 0 1 -1
740 3 1 0.090236 14.148354308995872 16.523848377673353 19.368210781366805 0 1 -1
756 3 6 0.102614 14.262158255916976 17.584187714499038 19.325813459376306 0 1 -1
752 3 6 0.102614 12.400418964097677 17.00284208897419 21.43358667677473 0 1 -1
758 3 6 0.102614 14.780476378954384 14.21922406487642 20.649997134413162 0 1 -1
738 3 3 -0.6068 14.234714631948897 16.242254931859726 20.865912010749064 0 1 -1
759 3 6 0.102614 14.878857558666839 14.807039136806152 22.31097511793164 0 1 -1
739 3 1 0.090236 12.865710697017489 16.0393626921815 21.352570092487348 0 1 -1
736 3 2 -0.188164 16.069281788302803 18.110548262630807 21.239635299340577 0 1 -1
741 3 1 0.090236 15.104663180152874 15.048318340116532 21.221962995968532 0 1 -1
748 3 5 0.137136 16.847560424294542 16.671719809844213 19.63870426937831 0 1 -1
735 3 2 -0.09836399999999999 16.919720464258077 17.631957190125647 20.167574756983157 0 1 -1
737 3 1 0.188236 14.746365360302105 17.437863017093612 21.63569014722517 0 1 -1
749 3 6 0.100836 13.858713756899599 18.1044884744472 21.541128873862007 0 1 -1
757 3 6 0.102614 16.13640094213791 15.25054999784873 21.076372954846136 0 1 -1
751 3 6 0.102614 12.686083150963421 15.59727060953793 22.27000826642181 0 1 -1
753 3 6 0.102614 12.338013552380232 15.424078486569686 20.57641997508385 0 1 -1
1824 100 10 0.4238 17.422589695090032 13.567968056356069 22.32415381015859 -1 0 -2
1719 65 10 0.4238 17.218019059892534 13.739632586773391 17.952806859629277 -1 0 -1
750 3 6 0.100836 14.801159876428931 17.059460904780586 22.678302479420346 0 1 -1
1718 65 9 -0.8476 17.03254370573513 14.225770044587831 18.806764441385376 -1 0 -1
1720 65 10 0.4238 17.465622023692198 13.741379807819994 19.566884872972473 -1 0 -1
1061 4 2 -0.120364 13.250590125592135 12.318290811518754 23.009694239224004 -1 1 -1
1079 4 5 0.160636 13.973234783825152 11.984347256399756 23.704773160950538 -1 1 -1
1051 4 2 -0.011164 12.290572964510517 13.3020902130319 23.406087673809147 -1 1 -1
1823 100 9 -0.8476 16.87411895110467 13.72992844256967 23.144472110736857 -1 0 -2
1825 100 10 0.4238 16.580144404109994 12.854081352034735 23.52715282721136 -1 0 -2
1749 75 10 0.4238 19.100247630144665 12.256058954887463 22.151096224361417 -1 0 -1
1743 73 10 0.4238 20.280203150039533 13.136666114536048 18.59276848107642 -1 0 -1
1742 73 9 -0.8476 20.439602184082148 13.034226761271027 19.574639805848598 -1 0 -1
1744 73 10 0.4238 19.56300089508389 13.02834666737716 20.05579393812078 -1 0 -1
1615 18 7 -1.32 18.297924893842897 13.28781148370598 20.947694087324166 0 -1 -1
714 3 4 0.046836 22.30485897952309 17.447978738393672 21.079230614111516 0 1 -1
730 3 5 0.160636 19.84831424542402 16.92111233235258 21.379221289543295 0 1 -1
1616 18 8 0.32 18.878128556099533 14.142803190809397 20.958874705321776 0 -1 -1
652 3 4 0.046836 22.37856518797333 15.00941929370177 21.784392312447878 0 1 -1
712 3 2 -0.120364 19.740797134097797 17.393114178121884 22.326183094904025 0 1 -1
950 3 4 0.045503 23.5040548711736 14.318310643201055 19.586390847864898 0 1 -1
651 3 4 0.046836 23.58688847265367 13.861833807417826 21.83631736263957 0 1 -1
637 3 1 -0.07226399999999999 23.484294665887546 14.914850698197894 21.619430480645114 0 1 -1
729 3 5 0.137136 18.400992578223857 15.841105774824161 22.90553928760511 0 1 -1
670 3 1 -0.036264 23.31390522853942 17.95525782790225 22.971493989674578 0 1 -1
711 3 2 -0.09836399999999999 18.99174985675328 16.708214542182063 23.21250726713445 0 1 -1
951 3 4 0.045503 23.469154457444745 16.028917720510538 19.864857550984354 0 1 -1
650 3 1 -0.09496400000000001 23.907651379694784 15.104309194419066 20.159871578774236 0 1 -1
684 3 4 0.069836 22.488522354879336 17.398884021037993 23.474599989159927 0 1 -1
747 3 5 0.160636 18.6473193525121 18.112517443298337 19.012832243812767 0 1 -1
683 3 4 0.046836 25.07200005116585 17.410917492002596 21.933745698540157 0 1 -1
949 3 4 0.045503 25.018288635254656 15.130930245228235 20.10142229926094 0 1 -1
669 3 1 -0.07226399999999999 24.543486874620477 17.05901647917033 22.798752355706547 0 1 -1
638 3 1 -0.036264 24.430160136430075 15.49642687621332 22.78308397344189 0 1 -1
682 3 4 0.046836 25.213365597278763 17.318953312224707 23.59670803413352 0 1 -1
1465 5 2 -0.188164 4.411184171775877 18.532005837915598 20.295983409387468 0 0 -1
1470 5 1 0.090236 1.396573379574182 18.963112819761804 20.856231737455843 0 0 -1
1464 5 2 -0.09836399999999999 4.281319837667236 18.53734790797062 21.708417099946317 0 0 -1
1488 5 6 0.102614 0.29774339669105276 18.943827354820762 20.861519780942004 0 0 -1
1487 5 6 0.102614 1.7694349357769064 19.949632083498052 21.115153305934093 0 0 -1
1468 5 1 0.090236 1.8826199194970208 19.932716788114874 18.589412877867936 0 0 -1
1426 5 6 0.102614 0.8042325082180607 22.330906288315063 18.153816623879464 0 0 -1
1480 5 6 0.102614 0.8746813469504848 20.30506621491294 18.617085689748777 0 0 -1
1482 5 6 0.102614 2.693996439392104 20.603839032924974 18.79287036670761 0 0 -1
1459 5 5 0.160636 2.8701435458792766 22.223787574048302 21.410712412781507 0 0 -1
1444 5 4 0.069836 5.057282840017348 22.66671388827796 20.911449191098022 0 0 -1
1441 5 2 -0.120364 3.1198466490337786 22.092032683165634 22.436286743474568 0 0 -1
1489 5 5 0.137136 5.543519889409988 19.21566582996855 18.58461193035084 0 0 -1
1458 5 5 0.137136 1.2623036666934575 21.279139488020874 22.829627827119758 0 0 -1
1431 5 2 -0.011164 4.43516890600126 22.429389937593434 22.901406134152964 0 0 -1
1463 5 2 -0.120364 5.164321137831052 19.316428355249293 22.467886130355915 0 0 -1
1471 5 2 -0.09836399999999999 5.425616487838954 19.26763392388075 19.648387600684096 0 0 -1
1430 5 1 -0.036264 5.395396663006118 22.954587161488895 21.89472856424274 0 0 -1
1440 5 2 -0.09836399999999999 2.1978822473243267 21.534908061920675 23.25938535307457 0 0 -1
1476 5 5 0.160636 4.9834937256312966 19.474561209460084 23.53416357982507 0 0 -1
1451 5 6 0.102614 2.650699177763679 18.40794691064408 24.191717390101722 0 0 -1
1507 5 5 0.160636 10.39961964096131 18.579567685309662 22.33519675437224 0 0 -1
101 1 1 0.188236 7.81799269019781 22.693504306791233 18.162430460724487 0 0 -1
114 1 6 0.100836 6.7407569796481335 23.029156854433346 18.249920534781403 0 0 -1
124 1 5 0.137136 9.055780041744045 20.45160153872073 19.066960571948577 0 0 -1
1490 5 5 0.160636 6.931443400762919 20.74139455538191 19.894627230104106 0 0 -1
113 1 6 0.100836 8.079383841019766 22.50510704362246 19.223816224411145 0 0 -1
1472 5 2 -0.120364 6.288677216301456 20.042480542115747 20.458064446674378 0 0 -1
1605 13 7 -1.32 9.880080589662768 22.377896487851167 20.454321930989835 1 0 0
814 3 6 0.102614 10.733635437346432 20.28196974178023 20.209205625992084 0 1 -1
1462 5 2 -0.011164 6.175543240152586 20.117303352436416 21.844320583890223 0 0 -1
1473 5 4 0.046836 7.44975572973274 22.721972048189436 21.316235648805332 0 0 -1
115 1 6 0.102614 10.354371952177372 23.915495673655087 18.95316639918635 0 0 -1
1606 13 8 0.32 9.353835432099107 22.10672604676926 21.228563596276885 1 0 0
1475 5 4 0.069836 8.19176616691126 20.910478426297075 21.94065586794114 0 0 -1
1460 5 1 -0.07226399999999999 6.855963402593447 22.52680855862912 22.175236712953833 0 0 -1
1461 5 1 -0.036264 7.199195036246064 21.025620466503028 22.511950746439076 0 0 -1
818 3 6 0.102614 11.910116431297043 22.17806416571993 21.404118007760403 0 1 -1
812 3 6 0.100836 11.714184430658037 22.45421984981629 19.025604411144222 0 1 -1
1493 5 2 -0.011164 8.651356122664724 18.53920389855186 23.60945851642588 0 0 -1
1506 5 4 0.069836 9.669393772597166 20.42458433999824 23.586771112647433 0 0 -1
815 3 6 0.102614 11.533530848554333 19.395821045630882 18.83850941564757 0 1 -1
1474 5 4 0.046836 7.251626596737457 22.98915025142778 23.033743439661315 0 0 -1
801 3 1 0.090236 11.62186428164894 19.74756128850582 19.88672231461527 0 1 -1
802 3 1 0.090236 12.883841396552553 21.672825020288805 21.123093777358733 0 1 -1
813 3 6 0.102614 11.861766440859078 18.894892308568465 20.58206566041344 0 1 -1
821 3 6 0.102614 14.162134447662803 19.508782774090612 19.02354062284308 0 1 -1
819 3 6 0.102614 14.363516650330016 19.692193048394003 20.76739643633436 0 1 -1
811 3 6 0.100836 12.067621392086231 21.184200907436583 17.862168614871017 0 1 -1
804 3 2 -0.09836399999999999 13.969842160044994 23.83551273828555 18.77019497241023 0 1 -1
799 3 1 0.188236 12.52628363127634 21.776208920318716 18.66300094894831 0 1 -1
798 3 2 -0.188164 13.734622625698186 22.56659533063084 18.14829258518872 0 1 -1
822 3 5 0.137136 13.306647977505083 24.274377341263857 19.470583548786315 0 1 -1
800 3 3 -0.6068 12.780828946253095 20.856632956980505 19.869777906040028 0 1 -1
803 3 1 0.090236 14.181088355416877 20.23425814663907 19.85992436027415 0 1 -1
820 3 6 0.102614 14.959668198475937 20.95337280880532 19.75625998081933 0 1 -1
792 3 5 0.160636 16.723863766421516 23.385094691937695 20.704188752195087 0 1 -1
816 3 6 0.102614 13.520853367117832 22.551871791314362 20.951669707068305 0 1 -1
742 3 2 -0.09836399999999999 16.452186139250898 19.293021590044496 21.93397309765944 0 1 -1
817 3 6 0.102614 13.315680904605147 21.157633157157115 21.97264259045133 0 1 -1
777 3 4 0.069836 17.608019010053155 22.075548977376705 19.09860832975606 0 1 -1
760 3 5 0.137136 15.795592656863507 19.627038169173154 22.75559717624661 0 1 -1
743 3 2 -0.120364 17.59592519803634 19.98298391969717 21.59554461204379 0 1 -1
1551 5 5 0.137136 13.014419914741733 23.70852676565361 23.465590017713104 0 0 -1
1625 23 7 -1.32 12.837179972967455 19.086728593002725 23.17597544809601 0 0 -1
774 3 2 -0.120364 17.691781575173316 23.844518919003917 20.931903202276047 0 1 -1
761 3 5 0.160636 17.876481205053125 20.82233992041828 22.213221129530638 0 1 -1
700 3 1 -0.07226399999999999 22.73098699449976 18.285971063646365 21.588658529935714 0 1 -1
691 3 6 0.102614 21.302093713101975 22.296761804624623 24.123666368824267 0 1 -1
744 3 4 0.046836 20.59685458108452 18.561358860787514 19.757044829102206 0 1 -1
734 3 2 -0.120364 17.99358652364669 18.445456207366 19.794443917992147 0 1 -1
713 3 4 0.046836 23.495981082466457 18.665504767832296 20.919899799913566 0 1 -1
702 3 2 -0.011164 20.347021301100256 18.630599110487026 22.640710418096702 0 1 -1
775 3 4 0.046836 19.424385561782387 20.718393655309193 18.00754134948493 0 1 -1
776 3 4 0.046836 20.690023884391188 21.726735926463206 18.63222448816726 0 1 -1
762 3 1 -0.07226399999999999 19.6414574988189 21.32815532574012 18.875419037501537 0 1 -1
763 3 1 -0.036264 18.58627346823655 22.547328326786705 19.025895824645993 0 1 -1
778 3 5 0.160636 20.894227544003286 23.52528990061971 19.87196964981515 0 1 -1
745 3 4 0.046836 21.645361110882817 19.93585379234201 19.72358299852707 0 1 -1
731 3 1 -0.07226399999999999 20.830169346726954 19.4944102674706 20.255652437180018 0 1 -1
732 3 1 -0.036264 19.652648912013014 20.4261012511326 20.17208725347895 0 1 -1
733 3 2 -0.011164 18.315805262726165 19.640932548724457 20.443792938497495 0 1 -1
764 3 2 -0.011164 18.780777175606843 23.47674664508621 20.199125650815027 0 1 -1
765 3 2 -0.120364 20.06459381682121 23.911848954321187 20.554949105385568 0 1 -1
746 3 4 0.069836 19.79107508038861 21.170886935455613 20.989663673476706 0 1 -1
701 3 1 -0.036264 21.399646426331834 19.211082594778972 21.67963849410488 0 1 -1
715 3 4 0.069836 21.70241940291384 20.20023550515608 22.114760519441084 0 1 -1
1422 5 6 0.102614 23.15444780873034 22.52508211335561 17.781457331632325 -1 0 -1
1407 5 1 0.090236 23.676813447267605 23.408424148322624 18.121163932044936 -1 0 -1
694 3 6 0.102614 23.30372016712799 23.996266671428863 23.383732404221618 0 1 -1
1421 5 6 0.102614 23.041931687946352 24.310889884855 18.110530290959794 -1 0 -1
703 3 2 -0.120364 20.1330342656085 19.210704068603462 23.96084959828606 0 1 -1
671 3 2 -0.011164 23.549981526508837 19.140048994340674 23.806970703863854 0 1 -1
1423 5 6 0.102614 24.006635876074924 23.10629302718791 19.080114222406095 -1 0 -1
680 3 2 -0.09836399999999999 24.056159124857004 21.46741354488708 24.03745600101236 0 1 -1
1641 31 7 -1.32 24.949945576093945 21.42333505149567 20.132357267939838 0 0 -1
1642 31 8 0.32 25.101838190634588 21.98673419518733 20.955128207467908 0 0 -1
1827 101 10 0.4238 24.300948518574593 20.651287880549248 18.950865590077598 -1 0 -1
699 3 5 0.160636 24.31206992571471 20.523192456550376 22.170812873328323 0 1 -1
681 3 2 -0.120364 24.04844613519873 20.335676550280382 23.253993618732864 0 1 -1
698 3 5 0.137136 24.38945235668399 22.44218668109223 23.689601648576726 0 1 -1
1428 5 5 0.160636 1.348984270246973 24.80164807840135 21.977162755526436 0 0 -1
1409 5 2 -0.09836399999999999 0.8687125431499901 24.813064919413193 19.919426246292545 0 0 -1
1414 5 5 0.160636 4.560705866565802 25.294247830101433 19.29238366817507 0 0 -1
1410 5 2 -0.120364 1.714160923768868 24.780025727238794 21.006439626329467 0 0 -1
1403 5 2 -0.188164 1.2546167156403079 24.923485173855333 18.61716205736934 0 0 -1
1429 5 1 -0.07226399999999999 5.428271998674281 24.54624732212401 21.93539067680713 0 0 -1
1400 5 2 -0.011164 3.0476122222301183 24.970171023225603 20.77616552225559 0 0 -1
1402 5 2 -0.09836399999999999 2.5981139054999813 25.125720357337485 18.334545658665952 0 0 -1
1401 5 2 -0.120364 3.5073583968275885 25.15454888555505 19.421456467335332 0 0 -1
1399 5 1 -0.036264 4.058701838786225 25.232093222031992 21.948539054419086 0 0 -1
1442 5 4 0.046836 6.058451343301815 24.864797845106672 21.02607236902952 0 0 -1
1413 5 4 0.069836 3.5788989946424232 24.906419856234535 22.91424814735924 0 0 -1
1443 5 4 0.046836 6.011819192378589 24.845502551134153 22.829940914274673 0 0 -1
1544 5 6 0.102614 10.21486109257495 24.359586315476434 21.18518434060899 0 0 -1
1542 5 6 0.102614 12.00389858143319 24.319904029518995 21.058384649986273 0 0 -1
123 1 6 0.102614 8.405107492230059 24.83239677383424 19.855874536448532 0 0 -1
121 1 6 0.102614 7.185732487607434 25.425335756514563 18.622934842967027 0 0 -1
105 1 1 0.090236 8.279271286726827 25.21858589577603 18.791068290444585 0 0 -1
1543 5 6 0.102614 10.977567743817275 25.03102473359376 19.803461980848894 0 0 -1
1530 5 1 0.090236 11.100744275142063 24.888189570251207 20.856603455931626 0 0 -1
1604 12 8 0.32 15.440668174628208 25.056042138523615 21.97758577892131 1 0 -2
805 3 2 -0.120364 15.132079145219649 24.453595200382054 18.424290614325614 0 1 -1
823 3 5 0.160636 15.374585984488355 25.25096642790743 19.168069040510133 0 1 -1
1603 12 7 -1.32 14.584797382736294 25.029480686717633 21.54550986097781 1 0 -2
791 3 5 0.137136 17.086397461827353 25.17697311308143 22.578824670164693 0 1 -1
808 3 4 0.069836 17.455375386229292 24.94466855545597 18.635546213284634 0 1 -1
773 3 2 -0.09836399999999999 17.88138395157086 24.747908642924713 22.00683750901102 0 1 -1
767 3 2 -0.188164 19.18503071208793 25.25368957879939 22.279571339658503 0 1 -1
766 3 2 -0.09836399999999999 20.31794940364879 24.790084875260064 21.55145983070115 0 1 -1
779 3 5 0.137136 21.34333318574148 25.11630033899312 21.77936439541115 0 1 -1
678 3 1 0.090236 22.914055714149313 24.563378492464388 24.169666156624515 0 1 -1
1427 5 5 0.137136 25.067157368684647 24.86857073223164 20.026918016769784 -1 0 -1
1404 5 1 0.188236 0.2660638959377499 25.04734545483383 17.472011624819054 0 0 -1
1348 5 2 -0.120364 1.3934020861874004 5.464642434823542 24.42732087438184 0 1 -1
1379 5 2 -0.120364 1.3302657644491034 1.186332946034513 24.040578245010636 0 1 -1
1366 5 5 0.160636 2.2625366871066475 6.039769716549308 24.343081636153926 0 1 -1
1370 5 2 -0.120364 3.2734146678186367 2.1796451823900727 25.03266514957828 0 1 -1
1383 5 5 0.160636 4.188315550730016 2.7960209518428565 24.819699348050058 0 1 -1
1575 5 6 0.102614 6.544969410200806 2.212682939023339 24.232275073018492 0 1 -1
1578 5 6 0.102614 7.063028557643075 4.4515607743202255 24.335071076539144 0 1 -1
1581 5 6 0.102614 9.73450156910907 2.0141349390122327 24.57178306230812 0 1 -1
1561 5 1 0.090236 7.13094414027686 1.998189473985214 25.119337321855426 0 1 -1
1563 5 1 0.090236 9.32636439212859 3.0341138508183487 24.560958699057387 0 1 -1
1582 5 6 0.102614 10.02085644288533 3.8453404800064623 24.805957831731185 0 1 -1
1639 30 7 -1.32 11.890544971125584 3.898985351266967 23.678299966536983 -1 2 -2
874 3 6 0.100836 16.532410780556695 4.557206625663704 25.052507640896188 0 2 -1
882 3 6 0.102614 13.976161944042547 1.6343496086505651 24.566295328574327 0 2 -1
861 3 1 0.188236 15.610216930522643 4.089015069152073 24.586460381029603 0 2 -1
873 3 6 0.100836 14.65648656083996 4.6480114685444205 24.78075243714072 0 2 -1
863 3 1 0.090236 16.556966666779772 1.7767057802622177 25.023313122823872 0 2 -1
875 3 6 0.102614 17.54014339579684 2.2002020987157023 25.0339753429135 0 2 -1
877 3 6 0.102614 16.237863214354498 1.3897103857131081 24.02453750748129 0 2 -1
782 3 6 0.102614 19.89725822011858 3.537529257269784 24.818920824387284 0 2 -1
1674 47 8 0.32 21.88698989450078 4.941235357314093 24.70104626987397 -1 3 -2
1353 5 5 0.137136 23.72111672684563 2.973199975792247 24.635531004761816 -1 1 -1
784 3 6 0.102614 18.223858563790294 3.5432719288007624 23.919318837364855 0 2 -1
1340 5 2 -0.09836399999999999 24.527928743471072 3.6892956388684 24.592666295428693 -1 1 -1
1234 4 5 0.160636 0.5929322091097123 10.298417605488133 25.17497001277018 -1 1 -1
1206 4 2 -0.011164 2.448091417375724 9.198347302546347 24.957238464784723 -1 1 -1
1216 4 2 -0.120364 1.441951804767024 10.078723947850719 24.54268457461798 -1 1 -1
1220 4 5 0.160636 4.414870993356093 8.44478639588574 24.202673574011953 -1 1 -1
1207 4 2 -0.120364 3.4978580407900703 9.076166522125739 24.054156203944082 -1 1 -1
1112 4 1 -0.036264 7.791405490131811 11.587525404997502 25.102952867693517 -1 1 -1
1123 4 2 -0.120364 8.589388288326408 9.124180651855639 24.468196363477844 -1 1 -1
1140 4 5 0.137136 9.045013614007518 7.07969974494895 23.873339854008776 -1 1 -1
1113 4 2 -0.011164 8.280002461583178 10.486680324607995 24.08483849832762 -1 1 -1
936 3 6 0.100836 11.622342512390032 8.281949766172467 24.289677574146793 0 2 -1
943 3 6 0.102614 13.529262774502612 9.815182428617687 0.18231074216636023 0 2 0
1294 5 6 0.102614 18.181233847686308 7.385635670772858 0.25522907342002066 -1 1 0
1598 9 8 0.32 16.558485885484657 11.536979203035349 24.915966105277064 1 2 -2
944 3 6 0.102614 13.321294314752235 6.310937646457952 24.335235947615203 0 2 -1
927 3 1 0.090236 14.10969199689717 6.82000950781233 23.89370206741527 0 2 -1
945 3 6 0.102614 14.985072169448392 6.5538531121882615 24.463574334809124 0 2 -1
924 3 3 -0.6068 13.809373277092632 8.295838784449252 23.9804667905927 0 2 -1
1597 9 7 -1.32 16.686608902437634 11.292508691820384 23.938628449260136 1 2 -2
1296 5 6 0.102614 19.679531588553267 6.4790658027633485 0.34243538816599073 -1 1 0
1301 5 6 0.102614 19.66898166157202 10.081759381613383 0.25234336669841895 -1 1 0
1283 5 1 0.090236 20.32996921716662 9.545359319437791 24.887803441142232 -1 1 -1
1281 5 1 0.090236 19.250162609599386 7.474399575980028 0.24675187221696737 -1 1 0
1292 5 6 0.100836 21.50682578147856 7.030659564304176 24.644321172098792 -1 1 -1
1280 5 3 -0.6068 19.701343881778143 8.212036042179461 24.330936868693804 -1 1 -1
1279 5 1 0.188236 20.801590021796834 7.278616101162548 23.76824267409244 -1 1 -1
1291 5 5 0.137136 22.909816690318166 8.790685248159752 24.169910308656462 -1 1 -1
1302 5 6 0.102614 20.61641712994595 10.079920713164674 23.96017414037931 -1 1 -1
1157 4 4 0.069836 4.362991587369461 12.352324101105463 25.1188323311624 -1 1 -1
654 3 5 0.160636 0.6922995818197111 15.906966206243341 24.953072379690823 1 1 -1
1158 4 5 0.160636 5.006834156283567 14.745940594052504 24.878899064021198 -1 1 -1
1450 5 6 0.102614 3.1957539077413766 17.447210944812674 0.37104582317403706 0 0 0
1111 4 1 -0.07226399999999999 8.650865726876495 12.845159696940742 25.085006740105 -1 1 -1
1124 4 4 0.046836 8.271642382877655 13.644540924215663 0.3529446285455599 -1 1 0
1080 4 1 -0.07226399999999999 10.837294158240365 14.116226495360186 25.386448876530174 -1 1 -1
1142 4 1 -0.07226399999999999 6.291544257059658 11.938364177299343 24.70218094696446 -1 1 -1
1095 4 4 0.069836 10.585811494945355 11.99150612739576 25.003189344128614 -1 1 -1
1093 4 4 0.046836 10.35277301536391 14.989954751518805 24.873356922859593 -1 1 -1
1521 5 5 0.160636 6.751051897376149 18.179707906188916 24.535138943874315 0 0 -1
1064 4 4 0.069836 12.620365106169642 13.142542253918956 0.24266730970757605 -1 1 0
1031 4 4 0.046836 13.705517690674323 17.741987789418822 25.17250364024126 -1 1 -1
1032 4 4 0.046836 15.230399904512815 16.770713535312353 24.90399976953411 -1 1 -1
1048 4 5 0.160636 15.859716374636875 14.544565339017877 25.176444705072697 -1 1 -1
719 3 6 0.100836 17.60691095539044 15.672669561098237 25.23927062363441 0 1 -1
1050 4 1 -0.036264 12.26368073077198 13.863297737808232 24.81588496906906 -1 1 -1
1049 4 1 -0.07226399999999999 13.095461263827481 15.141505606444937 24.75134528177246 -1 1 -1
1062 4 4 0.046836 13.957361563031155 14.91849431099343 24.08108259704305 -1 1 -1
1063 4 4 0.046836 12.461240872603762 15.902220478969816 24.3009535174345 -1 1 -1
724 3 6 0.102614 18.875419024871817 13.478136211460715 25.335565723193596 0 1 -1
709 3 1 0.090236 19.60094983256321 14.172374408456 24.975905706742594 0 1 -1
726 3 6 0.102614 21.09467873075871 16.54349552275397 24.82680577477887 0 1 -1
649 3 2 -0.120364 23.302840673384857 13.946119322750793 24.542659582301297 0 1 -1
725 3 6 0.102614 19.299961190086215 14.543683522948543 23.99032218781815 0 1 -1
705 3 2 -0.188164 18.900872061152647 17.18054932785833 24.49502210968828 0 1 -1
668 3 5 0.160636 22.644144847394756 13.524317892934178 23.753842399922306 0 1 -1
640 3 2 -0.120364 25.197140023033477 15.221503236121473 25.23767744423619 0 1 -1
639 3 2 -0.011164 24.287206995360734 14.865143045208097 24.217147836812735 0 1 -1
1447 5 6 0.100836 0.7564055627157024 20.10042812374786 24.66437248879236 0 0 -1
1433 5 2 -0.09836399999999999 3.8203626189096513 21.6463183290613 25.058981468277594 0 0 -1
1445 5 5 0.160636 5.600768519150649 22.715758117474103 24.64508075439329 0 0 -1
1437 5 1 0.090236 3.0063720281546984 18.449454039251975 25.23425590274698 0 0 -1
1449 5 6 0.102614 3.9111045979084644 19.031989511562912 25.250893582700073 0 0 -1
1434 5 2 -0.188164 2.5566937937859233 21.227736501329673 24.59022450120468 0 0 -1
1432 5 2 -0.120364 4.742076453600852 22.291578489199324 24.252536227141384 0 0 -1
1525 5 2 -0.120364 9.443781293565063 23.40028244140543 24.995469562903907 0 0 -1
1534 5 2 -0.120364 11.677479099221225 22.424200810230836 24.592943335094134 0 0 -1
1505 5 4 0.046836 6.713791481454502 20.291471242825644 24.468590038698515 0 0 -1
1504 5 4 0.046836 7.643268242649955 21.655957110170995 24.541002130831636 0 0 -1
1492 5 1 -0.036264 8.871665267963607 19.951818404364722 24.180312687725177 0 0 -1
1491 5 1 -0.07226399999999999 7.578672544552476 20.725968223011954 23.97432032946262 0 0 -1
968 4 1 -0.09496400000000001 15.58378232877854 22.113736131243584 25.19242132932282 -1 1 -1
1268 4 4 0.045503 15.39730736261006 23.180061367940233 24.900223765089997 -1 1 -1
1626 23 8 0.32 11.938595369680897 19.224310424264885 23.427474073727893 0 0 -1
1269 4 4 0.045503 16.610868794400204 21.898977815911024 24.9294113371783 -1 1 -1
1552 5 5 0.160636 12.373768919314148 21.517876872808984 24.630933018853845 0 0 -1
1267 4 4 0.045503 14.867819861834851 21.548582139408097 24.57297270184288 -1 1 -1
1533 5 2 -0.09836399999999999 12.004731494830656 23.59689053995153 23.901541734466925 0 0 -1
672 3 2 -0.120364 23.15244187228201 19.099093870132897 25.141892208224576 0 1 -1
704 3 2 -0.09836399999999999 19.40541552312726 18.4658058270998 24.87879758643549 0 1 -1
677 3 1 0.090236 21.074257984058022 23.082158845856824 24.822049521569866 0 1 -1
674 3 2 -0.188164 23.54040715391062 21.492618164815283 25.31369762787822 0 1 -1
716 3 5 0.160636 20.599754909694283 20.195361651370625 24.24154017019758 0 1 -1
1527 5 2 -0.188164 11.089287968213501 24.678383269947943 23.743333259847745 0 0 -1
1526 5 2 -0.09836399999999999 9.8005482365453 24.50253765412642 24.23012388875471 0 0 -1
1539 5 5 0.137136 9.123132630208318 25.32303603707509 24.133624264931917 0 0 -1
692 3 6 0.102614 23.645232127688274 25.25208319465922 24.488448960863757 0 1 -1
689 3 6 0.102614 20.307502886987535 23.715492456611408 24.425163390963768 0 1 -1
676 3 3 -0.6068 22.337488737791155 23.822088360965175 25.337111116589817 0 1 -1

Velocities

1384 -0.02096602206351712 0.021572186009073457 -0.00584429031137719
1272 -0.02309282886281683 0.01764279442277792 0.01535945035715597
1357 -0.019437962965358366 0.000889399324637558 -0.01691975871974501
1371 -0.0019515145502183222 0.007523144581009853 -0.001836606005338282
1250 0.005844653970695067 0.007612605151778257 0.0021401773106978603
1344 0.0043582356288704785 -0.0023895129918062503 -0.0007250523647085663
1271 -0.002510508807949513 0.0014756811108433104 -0.032466032209327984
1356 0.025424406059693646 0.01705947530977887 -0.010620230053697713
1358 -0.0004491793597885832 0.0037946023743567208 0.013247458823623482
1386 0.018909770343924288 0.0266485014282796 -0.001670399498597709
1270 -0.015668759080966852 -0.01602982142239991 -0.024818122510123615
1372 0.004843954544365934 -0.010320503005728647 -0.005579895527082276
1636 0.000691644227064197 0.02546434713236422 0.01264099890764027
1635 0.0015901447231160808 -0.005047045265593607 -0.00037897546101849544
1776 0.0034850010140912283 -0.019329460731877756 0.014895035544580862
1775 0.00511401036566786 -0.006621966915128996 -0.0016344870910947977
1576 0.023693869389560793 -0.000694080203712722 0.012147942991390428
501 -0.02480611152716474 0.00697714931222591 0.009634229740540573
1373 -0.003458225253411002 0.005126458371855419 -0.004529547215581516
1728 -0.011395174241681807 0.007015268822836062 -0.03484879978809987
1763 -0.004427734818477127 0.002719281743035536 0.007810454707419666
1764 -0.011421273254386152 0.0061178439810034724 -0.011594848321381425
1777 0.019372639283923 0.014465283643033422 -0.01450979833838052
485 -0.00034720330277575095 -0.00544266812345635 -0.0006505576484942599
1347 -0.007900624202294157 -0.00595800725958037 0.0012240398587616194
1378 -0.009837192971310896 -0.0018585847278500694 0.0031088793132949977
1560 0.0063530060195893705 0.004830867349138342 -0.003860159299675806
1577 -0.027449980610523842 0.004361089825306802 -0.03678775611154369
1579 -0.0032719165885688687 -0.005158709830698385 0.0215592150999103
1559 0.003178407199881361 -0.007878225750131777 -0.0018695010373086043
440 0.003751016337257063 -0.007563788644014922 -0.02123582699800175
1572 0.011270803039327388 0.002151453707218837 -0.043928532483041176
1573 -0.0010423155298111047 0.0022794496564934167 0.02310260990818302
1558 -0.0037529629924501475 0.002932066386232789 -0.007496132588640977
1564 -0.003141636867106159 0.0027771998917962538 -0.005700989323747536
1583 0.027397600539424524 -0.03106330083751468 -0.020243540294686814
423 -0.0006960087830844222 -0.0034570686652057206 0.0036847169289352154
441 -0.010780505281100345 0.0032456852418242957 -0.022163664952884236
1571 -0.012889385159857152 0.007975447920723015 -0.013790825405580872
495 -0.009647405333780458 -0.03183717066583968 -0.017249380490329896
483 -0.0018592263605675318 0.00158838204399174 0.0019145010227364849
437 -0.004135365592286365 0.0028918720558161978 0.041968876688813266
504 -0.025230464117764296 0.025953079821134584 0.009864741617849521
439 0.024526022520049262 0.03188593743510191 -0.0218563415342773
497 -0.024408815850802963 0.023767128240814204 -0.004028975553364446
1557 0.002673027522382787 -0.003649125893433824 0.008599986069644114
482 0.0019771183287934993 -0.009842232494683377 -0.0011610545510579732
494 -0.03134057067831863 0.008608837964668915 0.0076830236268557025
486 0.0025670009593346662 0.003333118964340342 0.0004702648582259349
420 -2.174033986114477e-05 0.00401198433279782 -0.0010254512364299012
505 -0.020341899631827195 0.015462712100664923 0.0058649452893119935
487 -0.0015702637757162852 -0.0005092197579831366 -0.008647434372731438
1562 -0.005307941685576817 0.0027147231923889876 0.004007408323818693
1574 -0.009158514055366766 -0.01420613549490243 0.027449440399834258
862 0.0008595825856859202 -0.002037366622204476 -0.0044910071313438065
434 -0.005863838252987246 0.01976688934907631 -0.006434246245538948
865 0.0008023804941709907 -0.004005767484413218 0.004712215812909277
864 -0.007934924506573408 0.00023619281398641848 0.0028066306072947805
433 0.007927322870495995 0.00829347737503973 0.014569558676294999
421 -0.007775275643456071 0.003110641206870641 0.0008919651159890258
878 0.005569122097861662 -0.009409368626895866 0.0017750358061670774
879 -0.015158974603827034 -0.011842563443012854 -0.0017354082090127606
883 -0.02349917787113632 0.000746305515703406 0.005208894930982304
438 -0.01935570929884132 0.02093296843753259 0.02493855989420515
422 0.0021819730789594443 0.005398617708434202 0.004031066794411764
473 -0.02835118752631873 0.006347450460809301 -0.016176975935849002
880 0.012369498115890394 -0.005581022325549442 0.04018449464009108
1627 -0.004248526813032786 -0.002497927820846697 -0.0003095835233452873
1628 -0.0032669384681365547 0.013431156244274892 0.004844315012094535
591 0.002910567763425743 -0.007335157975971204 -0.015170414521324964
455 0.006317722239022297 0.004951875627305668 -0.003615310347483181
436 -0.0014309119547009114 0.006582546910319233 -0.006628764097134263
474 -0.011581416631200745 0.021938855024822276 0.015747067130197228
456 0.0024264777479512533 0.0037929421970734857 -0.003300014507583988
577 -0.0014729562552774924 0.009103496096668278 0.0074361598095512
876 0.014727338758105347 -0.020670668595527356 -0.0027926541051917597
592 -0.0015081519882238867 0.024220343619242385 -0.0237795189075673
593 0.00018604956043237738 0.012238503086218749 -0.008698951996395107
881 -0.025436136840191238 -0.0013522095765155146 -0.019412447206437342
590 -0.0008241170383995873 -0.01355730372794139 0.012976690838629549
575 -0.012639251254477575 -0.00842522545768982 -0.001390224654999182
1673 -0.00397529926277613 8.908287676859417e-06 -0.003573051387361613
468 -0.01805368195824436 -0.003315592546187184 0.02180623727294606
469 0.005981357977476606 -0.021124974235984872 0.010710703355702553
453 0.00438202505172103 0.0030020863107719556 0.009807971431917186
467 0.00508515043796791 -0.005925757095983388 -0.043582015723259517
1355 -0.004215628732525427 -0.0006818663685309214 0.016896999304953548
1363 0.018881107736631885 0.021278711858578374 -0.0037283253655532637
589 -0.026112367273559145 -0.017914387053557013 0.011418578993352177
576 -0.005147864577804776 -0.005317943639290747 0.00206263621391231
451 -0.00035955050086674287 -0.001168335542687501 0.00553155055666999
471 0.010366924076260973 0.006044645790535506 0.0012133643641763171
1733 0.0005551339883459997 -0.001923403230443889 0.0038334132740641203
1361 -0.00049071239404652 -0.007560842416832932 -0.003386709633873082
449 0.011050418015147431 -0.004219991275155093 0.0044263307445453134
1734 0.009508846701420857 0.011310743507418808 0.003446302768591385
466 -0.014261339986611343 0.011308736974209426 0.014282018563848056
588 -0.007784550923823913 -0.03315289604072148 -0.002632260052739802
697 -0.01896578975282373 0.020449891381924285 -0.023305811244911653
696 -0.009611070428755393 0.015761735625164343 -0.0236393602207122
454 -0.005663754875705106 -0.009809721731615631 0.0034527585618889644
470 -0.012620032069628943 0.00018763019725130136 0.03107497938338774
472 -0.002508341816204876 0.013101219916176373 0.03440958074696013
578 -0.0029575471694686445 -0.008357949637335091 0.0014572685866173507
1346 -0.0013894531945650146 0.003938821070475889 0.009723798024622768
1595 -0.0028864348268342367 0.001676983917842289 0.003159841934350372
1385 -0.003724243973201109 -0.024585042029185572 0.002928828965256505
1765 -0.010557714476908826 0.004407973677539214 -0.01319355327578444
1345 -0.005842737362564142 0.0025243853499864973 -0.0006566684308983433
1341 -0.0044025342828960595 -0.0009087448545465881 -0.006468598097715989
1362 -0.0008653581803245698 -0.00737666808121132 -0.017499788187064595
1364 -0.007723333795407624 0.0044385895192471155 0.0012437676052234983
1343 0.0008519423570030125 0.0025192496243586953 0.007986116933243435
1354 0.011704878993042867 0.012615248593974228 -0.018308568874282186
1342 -0.0037354526417438384 0.0014980616055272405 -0.006494767706353533
1360 0.002551029372327924 -0.04721814162765561 0.008270859674928995
1359 -0.021218801784375574 -0.008684182405034888 -0.0028549731775315383
1396 0.004371177970043515 0.004422750117139238 -0.024705958075191922
502 0.000507244066511536 -0.019764121183953334 -2.4794482107268636e-06
1365 -0.0073092022047091445 -0.00659310108954815 0.01437634864223888
1251 0.011287576232436189 0.018940124832363923 0.02536850972724502
1236 -0.008191547537326491 -0.0019109767616657235 -0.0032651163970404276
1248 -0.002536589708862335 0.020789890878852607 -0.003649960223672869
1235 -0.00432452391055023 0.0008401811847101859 -0.0019624788214192457
1219 0.005565358390250664 0.014910357726263056 -0.008608830788013543
1205 0.004999556241411025 -0.00253031323174884 0.007678886109452952
1188 0.00295415071627293 -0.023595897582142596 0.022952083743058002
1174 -0.0020122836817560276 0.000490340374953676 0.005257624435356654
1217 -0.008428506469284999 0.014291790007673314 0.007603833050290832
1204 -0.005902518082780291 -0.0018823131659246315 -0.0031116486637741744
1249 -0.013475876689466726 0.026312729035025836 -0.009528483498305226
1173 0.0032323765730741185 -0.007143555814791362 -0.004282226739671246
1186 -0.00406143487719364 0.0017212536353999526 0.0007847065209721466
1218 0.027448671351451796 0.0019112795510532342 0.026666533583965195
1237 -0.0020541224738526292 0.004864409912890501 0.0061347150032184435
1203 -0.0244966693618896 0.0016357368623480342 -0.0037638903651593895
1187 0.0038827972251365113 0.015044936247560372 0.008340330062011547
1266 -0.018575482758593057 -0.0023828333225032194 -0.013915946242886222
1247 -0.0037981731506004216 -0.00011932865045105533 0.0028076682473958305
1238 0.003037982411098056 0.004739192749183718 -0.008201035726480734
1185 0.0002526197778497105 -0.0022966046760960917 0.00010234267485055749
1246 0.00437376921072775 -0.003643111350947304 0.007775983851875268
1240 0.010419631449141289 0.0030348656266361573 0.0014020660459382244
496 -0.023703872227114838 0.013849418862838145 0.014589984009116697
432 0.03216847999908483 0.016881099000083003 -0.007159992371957697
419 -0.001749913067454261 0.0013951641133119813 0.0044092579215364094
1611 -0.0053703966605009035 -0.002896915053315719 -0.0025339542912873243
1612 0.03630300215527476 -0.02370719114904212 0.01005353008411831
1141 0.02803740067802742 0.029332782564787892 -0.011801557227477229
1126 0.0045782050592638466 -0.013893929223967722 0.03362082453388076
1252 -0.0030224806186585434 -0.008560235909653657 -0.031688511765046036
1092 -0.00623699076491721 -7.150327926699517e-05 -0.004796134247657113
1085 -0.003925384154146451 0.003946453480018932 -0.0023389719307995113
1091 -0.0028189871082917096 0.008991484592728138 -5.292179541060161e-05
1253 -0.0018141608968053713 0.01416401420351389 0.01088847518668077
1239 -0.00239043196052268 -0.0008739182482512053 0.0031368762609785186
1264 -0.009678451837392658 -0.021903986355108193 0.008631534491800898
430 0.016033550554269374 0.0018002313245942298 0.005116636982286924
431 -0.0310953773024298 -0.010826954026839091 0.0006232127602735309
1086 -0.012310028985482068 0.002194835166449896 -0.002068933889556219
1098 0.016800800020083186 -0.001126965491188352 -0.00473268577817924
417 0.0018731620214124294 -0.0020080291901461355 0.0012319348183736497
1110 0.020400655971901216 -0.007166097441203894 -0.0005729073279589395
1109 -0.005405564260938284 0.015797915541525914 0.007823695542872332
1262 -0.014060708966150491 -0.00584834670126286 0.0024485837308768172
1245 0.0001799648179614808 -0.0037745577622481296 0.0014799210850968323
1099 -0.004544068106719825 -0.0052926899455710994 -0.010421157926498267
1688 0.011831670992233798 -0.013861285926041253 0.04617743020938778
435 -0.007169199006834566 0.002895037408746427 -0.034548769512487455
1664 0.016387291650126274 -0.009511438953643385 -0.009003390550586497
1663 0.003068417169633773 0.0013062320441698018 0.001054255177267664
942 0.002853999864744492 0.005162050312318743 -0.00640235769157026
926 0.008687619856201794 0.002683337041973132 -0.007803636853920456
941 -0.016907996770470623 0.008937937312169226 -0.0038634739279267793
442 0.0019961169735772375 -0.00577747911498124 -0.0046308320071489885
1043 -0.007692410578825736 0.011419062916965882 0.006350682687026904
1041 -0.0021007505219860926 0.017275595077736287 -0.013673162077520576
1027 0.009224496183648935 0.007203408137844014 -0.0027204350379906265
1025 -0.0012247030422661625 -0.003971728372895875 -0.0016522161543782784
1024 -0.004484289889764992 -0.004118066339727005 0.0006625961793207579
424 -0.00971640657807913 -0.004831266247849661 -0.0008547594929501047
418 -0.002256284639665302 0.003973955976039851 -0.005262330928555116
1042 0.02341733270452248 -0.022257422389745193 0.009969419277166108
1037 0.02326842781907777 0.011974029150739926 0.041838744677872096
1040 0.017963191448378678 -0.021642996362255654 -0.035942549779836436
425 0.010628110880879456 -0.0014444996834540426 -0.00030048726590308996
443 -0.014653199480185492 -0.034842692207314105 0.005444622527338554
1089 0.0019254878982275163 -0.014823403691161492 -0.005203464385664857
1045 -0.01265604224287042 -0.014738526672462704 -0.004135319772533869
1028 -0.004252825611389619 0.006007773351498591 0.000773272597853793
1046 -0.01417993402347873 0.04259563283633051 0.012387594861952145
1026 -0.007984932960352497 -0.0036969666243012616 -0.0026472185006397417
1103 -0.010308885390683944 0.004989252256342021 0.006784695688687727
1039 -0.011139582703000018 -0.04040227908957769 -0.0034903773375121877
1047 0.013390108251879602 -0.021902036160297397 0.011025618718908834
1105 -0.05981906561721519 0.016611634844629426 -0.008770171595468996
452 0.000811357544322157 -0.0027275958310102725 -0.0043450753760818995
450 0.00420175810867113 -1.7908762963369703e-06 0.0019308260676181978
465 0.010711356800725798 0.017409482779182108 0.00824667278620877
463 0.022109434852752 -0.030186643199599444 -0.004222041149529599
464 0.02214504381772832 -0.02671385606492358 -0.021698508861687307
1044 -0.003074885983509839 -0.009843554125783908 -0.03417590949806803
1300 0.012405922297867843 -0.009644199397171862 -0.0017048905552228117
1295 0.00032342796811385427 -0.02739534269127631 -0.022095976844493426
1651 -0.0005860348893678683 -0.004264841100165151 0.007319114174785526
1803 -0.003487069465473569 0.0035891781344054513 -0.0003316443628446406
1036 -0.008859898163327254 0.00981305862577606 0.005580662489048
1802 -0.0019307385503620474 0.002871807287041766 -0.005303808423612222
1038 0.01198297826798234 -0.050069136311394515 0.013507346316139182
1804 -0.020359100363239492 -0.006480285488015107 -0.0036599220733702534
1816 0.003800353811520073 -0.0002210464353474848 -0.0017237535369270891
1814 0.005113234355320265 0.006376428969553593 -0.0006227642128710802
1815 -0.0005445188960805809 0.00588576578945907 0.005648217407949379
1655 0.0019032487937268572 0.007071887898810641 -0.0005028072403515442
462 0.01545579971592633 0.024913237041377705 -0.006109507997515138
1652 0.022028871021508613 -0.012649179700963215 -0.001302991290879775
1175 -5.8568638970361863e-05 0.0023883926035694406 -0.0030141160082744747
1143 -0.006219376864342622 0.003679932730754284 0.0011597043164284545
655 -0.005293363341209376 -0.009005421815144667 -0.012550993677799533
1452 -0.002242519485033101 -0.02242119644226772 -0.004587417968212646
1189 -0.013060144171621596 0.016177082089782007 -0.018145778731723704
1176 0.0015356912334903822 0.006600057350363189 -0.0022250240918799662
1177 -0.002280440206092569 9.184021597675496e-05 0.002020319680724182
1715 -0.003035441875294804 -0.0011845999922183155 -0.000645339757955887
1190 -0.02017827721347393 -0.011477537311901483 -0.01870236574680978
1159 0.013398516224669598 0.006756191764407766 0.018737999557819192
1165 0.017976511653549253 -0.013723469698700216 -0.02164940076588715
1144 0.002056879547122978 -0.0073657777531694665 0.0023637494049982243
1145 -0.0008875240755272156 0.004805422381881767 -0.006200487563489974
1146 -0.002283908308215145 0.004401472550784504 0.004391709612899942
1178 -0.00028596340490511386 -0.002261186225013118 -6.157517171794808e-05
1184 -0.005109524237912905 -0.00256438639083324 0.0061402036811381
1192 0.018205795742274912 0.004460002838110143 0.01257350930830051
1194 0.012471447760098545 0.011704630581384342 -0.009972038245828659
1195 0.01256238999868938 -0.004935772425743165 -0.01473250851959957
1179 -0.009686284837602092 -0.007181191479062279 0.012850772412929283
1082 0.005634541910225453 0.0007956921964685328 0.004923965549728225
1263 0.013731057400971077 0.010747273726596597 0.006739229288540561
1084 0.0014480842213146258 0.0031868208766741885 -0.0015312662944569019
1081 0.002415693100413394 -0.0014665511542026684 -0.0024831275171783413
1172 0.01843688434023467 -0.006101063856722753 -0.02690993697888614
1083 -0.003410146888498777 -0.011213609662667667 0.012416444146979495
1154 -2.172913142147753e-05 -0.00024115495156831984 0.00315950241778515
1096 -0.009622428691819613 0.017876455371698546 -0.0151300000333429
1147 0.0018377817429989288 0.00010699959722115695 -0.007515188917605384
1153 -0.00700195984659123 -0.005149174606380783 0.006141274328472816
1148 0.003120704179835826 0.00013936563561577084 0.00173362979679906
1094 -0.017740089412910318 0.004034404858402057 -0.0008687231850934749
1160 0.01611349583443499 0.03483191366023952 0.01441054183974525
1171 0.002016203544320614 0.004991401705925605 -0.008904256651938629
1149 0.00022335134198652658 0.0071546679868690986 -0.0014780079315256669
1097 -0.020085560761317296 -0.005468350614331922 0.011463048593879376
1170 0.007879834714381386 -0.00196940955575416 0.008252072642033943
1152 0.0010894064763942789 -0.003647102329692966 -0.010129545699157352
1169 -0.02431458618281496 0.028578882828229398 0.02097690474883855
1008 0.00161326083168066 -0.003057208349139422 -0.025544083498099373
1007 0.013700813792157042 -0.020121373937164226 -0.019231545874907843
993 0.007115773132938571 0.008218191090901866 0.0009085750724453453
1168 0.004534381896361138 0.033558737759456905 -0.0017908258889135075
1609 -0.006320274515630479 -0.0030503637784074825 -0.003523554124394709
995 -0.0012746400336211849 -0.005113309480354957 -0.006420211088801723
1101 -0.005572953419658829 0.010202830767064597 0.017292307333574015
992 0.00036630410968087763 -0.0011364875094829919 -0.0017903336839626112
1104 0.017124409325943498 0.005892153784384085 0.02052948445639436
1023 -0.0031253653132447268 0.007173859021456493 -0.0012348971421236026
1029 -0.0014349476365233223 0.007944415982150448 -0.007169621437057582
1018 -0.0005869400576252458 -0.00034486617813166094 -0.0002777844884478081
1019 0.006124115955497649 0.0020496060505594362 -0.0004481781988761545
1030 0.0032865794842596137 0.0029398965027789816 -0.0024993150903686026
1033 0.01674409047849889 0.006420801466246855 -0.01535878205848574
1020 0.0037643503344166693 0.002171388350931283 -0.007425712026622849
988 -0.006115678663675844 0.006184876136393933 -0.004088518701453695
1002 -0.013303280473640343 -0.019877186436295158 -0.0032979553374987715
989 -0.0009512571900616831 0.00010209731138791848 0.0058489426299718735
1021 0.007096888122063083 -5.042354413795631e-05 0.0028808255786406944
1022 -0.0014403728861487734 0.005604173055151942 -0.0064210952381942455
1034 0.018782547473196253 -0.0022701419538681904 -0.016122703843987445
990 -0.0005447166464131573 0.003908763548283548 -0.003544810401321549
1003 -0.011264132524407893 0.005914051275383164 0.00620278185240755
1035 0.009380205593813175 -0.007291273130883845 0.0301114559602733
991 0.0007922197274944993 -0.008855063802299695 0.000659318647839165
718 0.0003925268382880796 0.0022731055817349164 -0.0022322646011341592
722 -0.022761103175991792 -0.020422983198150745 0.013680889388129018
1004 -0.003939876442798451 -0.026725588110004566 -0.009481424888616464
720 -0.002940150861758623 -0.0025542430037361133 -0.01962718291358159
657 0.025414008881848426 0.025899797910368928 0.00686719154275664
661 -0.006731517510672139 0.012566935078425634 0.005533534960223263
626 -0.005940014292092529 0.0032108515711945177 -0.017905051213655383
667 0.026684940836773342 -0.005318472292188787 -0.015982437333778285
666 0.0059682059846547855 0.016145257346737822 0.0007861965551072967
723 -0.01600602868218082 0.0224387622160805 -0.01315039199699878
706 -0.008086227400912586 0.006505140916343756 -0.0049580686595769455
707 -0.008198941416579819 2.4275445896788582e-05 0.001738911664535263
710 0.007326078311338029 0.0032345792791480233 0.0023748837341451778
727 -0.01771895234064138 0.022091038750784033 -0.009039148118966478
728 0.003272745924859924 -0.00304365957677066 0.003809646984381026
708 0.0016457597017773943 -0.000339164765468832 0.002122681880990144
721 -0.013228273015846925 -0.01828944519219364 -0.006646131483490933
1829 -0.0007134537311027405 -0.0027406720840022327 -0.006340704336432126
664 0.0038459128433386814 0.012269484431673576 0.0009070487580471973
1830 -0.0023636095646917916 -0.001033033973083271 -0.01117752173450206
647 -0.0016867633405626692 -0.0018593895653757158 -0.0016416586334900526
1831 0.008852691809187603 -0.017006444083381356 -0.003447630639504141
665 0.02307502720384305 -0.010954324269460575 -0.0016931066223980287
648 -0.004897385535791581 0.002510415110629283 -0.005071527986987046
644 0.0027235518233419487 0.0034616140341313145 0.00243923298592677
658 0.01179964730517871 -0.0531882524137691 -0.001681579723881991
628 0.017670975999250067 -0.012031151982313519 -0.014468524315781588
646 0.0027960641469825095 -0.0036623754936193037 0.004544619313821611
1632 0.009077667026797158 -0.004121978154576828 0.01622721201981452
1631 0.002806598580075774 0.0010191046410995758 -0.00211771610798136
660 0.011862622915970832 0.003618492447531609 0.0006781578745409485
1705 0.0032113533621250675 -0.005835845925032235 -0.015394105627379187
1717 -0.02060424609953417 -0.014262243439918129 0.02234383151321579
643 -0.004276899340647864 -0.005491253281047458 -0.004174033098120398
642 0.001557746110912445 -0.003048675844312241 -0.00257694235838144
656 -0.009256296064958895 0.0032061839705446074 -0.011420609041761785
659 -0.008701853988370197 0.029806310929126188 0.0013113354904960826
641 0.0008336792957906889 0.0029375216984561052 0.011270991462565267
645 0.006388484669081207 -0.0031804452323841827 -0.0021954924330657146
662 0.011505791870499002 0.009419714753359086 -0.02595237059800528
1151 0.004877304872949391 0.006458738009809604 0.003296775546758218
1716 -0.004259853900973295 0.007345766745014568 -0.009947313361382288
1438 -0.0025403406843434824 0.0021687281053354153 -0.005565560878251873
1455 -0.015848592130187352 0.01560981091839965 0.0004959839712596085
1166 -0.0018947085689003885 -0.011155326332479258 -0.007329097401333553
1167 -0.013693939796348004 0.024572740824374217 0.00354026454976206
1454 0.0016277132827412233 -0.010462274931002373 -0.017127272441438364
1436 -0.008878050290572165 -0.004538880167762557 -0.0004160406584255065
1435 0.010998094092908077 0.004708038983071505 0.011938697080136803
1448 -0.023618757017688452 -0.022171791796367003 0.0027143439065659106
1446 -0.030412365238552307 -0.0148860488407117 -0.014333731616006663
1394 0.014621267484271642 0.027637433786702432 -0.0022885465820750867
1457 0.015387019867206532 0.01065690913921692 -0.0051150422352135285
1439 -0.0023382032421167347 0.0016573598713684244 0.006789389493711893
1456 -0.032416262200069684 0.010566568185607457 0.010696001272712224
1377 0.0017358405378577958 0.008387285838410627 0.00414405160477078
1393 0.03391164061519696 0.026674958649298735 -0.008481906848727431
1388 -0.005379103087785538 0.013571598062312543 -0.023761869478791844
1395 0.003527051425147781 0.009774486273494693 -0.009375513077548189
1766 0.007138829793372006 0.007307537031066905 0.0002165541084724459
1774 0.009702300946870093 -0.010082603418811713 0.002885043740201511
1767 0.01014106934490541 -0.0031524675162093512 -0.010772231934537456
1683 0.001493251872681692 -0.0023088700128424465 0.0011538543606158243
1773 0.010872143380796178 -0.010540608169390153 0.003674007669583384
1772 0.003940705407195339 -0.008554460925095 -0.0013971185195461374
1601 -0.00020924502169118408 0.003288990602233921 0.0005591590335405875
557 -0.006049515040015669 0.009208828707613213 -0.014652836444267594
1392 0.01454755242686406 -0.02945788467580425 -0.0016906149412198946
1391 -0.0031924138231303975 -0.005629415128148828 0.01696488547277359
1684 0.012211645954902478 -0.01407996815424332 2.0221545818961692e-05
1602 -0.01907284324939418 0.024129062796904226 0.0012491281459564337
560 0.026562486358736707 0.01974404843173587 0.020941135616695517
1376 -0.005314840345294029 0.009713318699258924 -0.002920910074794833
545 -0.0010234144470185288 -0.00570986200223705 -0.003657622620470633
558 -0.018846875096428423 -0.03504659137509047 0.043472512718546304
1161 0.031546014832062735 -0.0216909247931501 0.013808707888233658
1005 -0.008560879544538423 0.01386314583246778 0.016567386348612642
998 0.0034753680928987316 -0.005350637543773919 0.0030666208788769907
1535 -0.00018706199912257707 -0.018100809893849674 0.02241746553962587
1016 0.006872292557012486 0.014220829675213816 -0.0032257534656538016
1538 0.006034214710126273 0.005791378648380257 -0.0022297561435787733
1522 0.003214917132946553 0.00019993068361029865 -0.004967356069544633
1536 -0.020303242127809987 -0.009194136755556616 0.02917217159261517
1523 0.004007508616202348 -0.003642854727027806 -0.0017085374096202498
1524 0.007625284001815534 0.0035522865819198786 0.0024862537600468413
1553 -0.0005605951126870923 0.0009800087638482417 -0.0007592610983954444
1566 -0.0011895408264549984 0.016718314983933724 -0.004890114910556362
1570 0.010113902914070006 -0.0035406832484796715 0.02384179602228549
1567 -0.007165157802252495 0.012985871056862362 0.004575082276787616
1555 0.0015408628643675685 -0.002155852503256423 -0.0027662704328181814
1537 -0.014310029785829032 -0.021026919057906594 -0.011080025422389951
1163 0.0063892369324661065 -0.013959348486649752 -0.014642364817120968
1554 -0.0007137145585942408 -0.0017223204928609073 0.006290889994959969
1150 -0.0015900486753383113 -0.004846035071683108 0.0013754491734488186
1164 0.008557153501476069 -0.009238151749001746 -0.01005071409034987
1569 0.005516271066468322 -0.0026838179315105846 0.029751281488890433
1568 -0.001851276122130066 0.003691706944359508 0.0030299642864334893
561 -0.0047483217102263445 -0.008428848159836303 -0.020502768521720328
1162 -0.00484336951779961 -0.006178827559830065 0.008342694103025794
1588 0.020781112497178643 0.011314103419020614 -0.014313429476985962
1590 0.013977345348797384 0.0008271716323461618 -0.024885848250443085
546 0.0036683917679092436 -0.0010163314336120337 -0.0005712522446885353
1006 -0.006191776802639459 -0.004943293383268565 -0.005828661481869101
562 0.011785839824692659 -0.007488573951807509 -0.02826906653784785
544 0.0019306960735282976 -0.00011202868510761923 0.0007540632791985591
1589 -0.0016245141575400236 0.002007202033048658 0.022240743645040837
999 -0.003224871507598315 -0.0019211833848016542 0.0004394893730491518
972 0.0030050620792508426 -0.024105353915994214 0.022212800976794053
1017 0.0017564669809191286 0.01810166695448535 0.0161387390874786
1001 0.004792814136112757 -0.0013806640953508726 0.033404538474763025
987 -0.006386116719565872 0.015550775873110307 -0.002160363902751115
1000 -0.008306138200205346 0.005307992228397265 0.009773508044384566
969 0.00026696742838775106 0.008174028517440082 0.010374019161942537
955 0.0010050851165177492 -0.006250138369083346 0.008007423523661886
970 -0.02473175889308376 0.044810798400224845 -0.0027766568482554353
956 0.007314629487325803 -0.00884745806203517 -0.004055998432995647
971 0.0037561238215859253 -0.005994072847586465 0.006125406989159013
957 -0.0021287950577775975 0.0015573441156913606 -0.0005873683428332373
636 -0.020767631831782554 -0.003850613382340042 -0.017984589952920536
598 -0.004532783479458229 -0.00292684853285265 -0.006134729751876491
634 -0.011917121887787704 -0.004647877732773625 -0.007205046842503406
614 0.006439790254172338 0.000429588143955398 -0.0034169317659387263
579 -0.00461895323658791 -0.001229866850316543 0.0047196598118004135
580 -0.001189586530711005 0.002749453301939208 0.0015896115190132528
986 0.0027189935420134604 -0.00931646335748161 -0.01318710172375472
958 0.0008586618419112651 8.766648514525457e-05 -0.005034491637438456
685 -0.009226582725268048 0.005270120059860939 -0.0002105729526283111
1704 0.020517752846951183 -0.0036338920123883613 0.004114451504281211
717 -0.021905523139670025 0.003987630673189518 0.014597730018660642
1618 0.04009135353311817 0.015946980473929524 0.018109872694003208
967 0.0034407569970956605 -0.0009357717966649091 -0.0043835973386749365
973 -0.01624690692431637 -0.018677617187552193 0.011057053308101809
966 -0.0009939605689801919 0.003937698000697278 -0.0006931841574645052
974 -0.014670048520731914 -0.012526124808998434 0.0027088479210754216
985 -0.012775576527926389 0.015717984063009532 -0.0036717875431885694
959 -0.0008946391141864038 -0.0003864208725996821 -0.0031803268542847877
975 -0.019950291677782023 0.006496661600623373 0.0009959058665490119
960 0.002619320724923709 0.0012846807235728248 0.005317612854485804
961 -0.0014492516247261867 0.001764315185511546 -0.001959123262849963
673 -0.002100959785700477 -0.002472425883437472 0.0018338538636383497
686 -0.029348598411100824 -0.012232908706107149 -0.009739370605211408
688 0.008258497881933776 0.002658532490710422 0.014188283754408344
675 -0.0008423494024854074 0.0039979937599661074 0.008431588347134065
979 -0.017558290026818815 0.01444816193306423 0.026558361696353616
980 -0.005795783198222471 -0.015361623352938692 -0.005854383430298925
964 -0.00182241397731083 0.0007564314968049643 0.00478876577694756
962 -0.0013393761113429086 0.008952482011535926 0.010505895581651853
965 -0.0008602320154785208 -0.0013753938715915573 -0.004060864602993065
1617 0.005589973964124188 -0.0007064689213653633 -0.000674777838160789
982 -0.004813236931535682 -0.005109160168581411 -0.010186849437447854
981 0.030500245657967783 0.015630788030829866 -0.02038442842957815
1624 0.016084670777114903 -0.002669984545964759 0.012410463078720154
1703 0.005036455560916046 -0.00621060691914605 -0.0007785369829555462
976 -0.0014681449653358995 -0.025279793860712326 -0.011226382509795994
977 -0.006603866105863336 -0.012024745864550046 -0.01408410770784948
963 -0.003601114284733907 0.0035560195675379013 -0.005841684553749032
690 0.002775787336620185 -0.010854280549616173 0.00727237111423351
1453 0.005485147890500482 0.024363900509651624 -0.011397638197846897
984 0.026358053569717 -0.010358977039953738 -0.0034872220905922237
687 -0.000332557621573527 0.007193914070948961 0.006027384137468937
1768 -0.0034941047782690855 0.014207741873582697 0.004712790562652093
1375 -0.009867855294082802 -0.008513782270704772 -0.004293108160484286
1374 0.008534389004292684 -0.0030487034641002433 -0.0009292372004966541
1389 -0.0007492046191644528 0.021997343170256922 0.012755180860475869
1390 0.007895424447030697 -0.002172615187601948 0.0034094642114917795
1387 -0.014355372363997154 0.035661459506222834 -0.01543958558921747
559 0.019485687712558666 0.039786004255862005 0.014460182886633905
554 -0.01334267711502518 -0.016623544886016674 -0.009995868408255608
555 0.00023333374688364113 -0.002611782601905684 0.033616113590154435
543 -0.005581447896751028 -0.0006654670356692803 0.003903715829197257
1556 0.0009270152491175553 0.0007444903852243631 -0.001422280475078704
1565 -0.0001560056007978849 -0.00039515743935146546 -0.0010252845659862828
1584 -0.012375721465672342 -0.03216273402084363 -0.008250031041832492
541 -0.005890882286916903 -0.0008862374514775996 0.00035970771543570267
597 0.009226099402869859 -0.0006986491139766695 -0.0014093947745645694
573 -0.00815060266713308 -0.0018352526695505887 0.0046692135732104255
1735 0.01572708890284995 0.014246836566979825 0.005821018894177561
587 -0.02382952607211861 -0.006793863077379675 -0.016445207389669238
586 -0.02464868834437815 0.00174416277993697 0.007754938568484869
574 -0.004540183816699111 0.004277384736529168 -0.0008089206507370869
695 -0.002892031973710793 0.010168236934361906 -0.002702317386002987
679 -0.005608557595006331 0.0053635674866166026 0.001897860382138186
1623 -0.010292224681004044 0.0029348662762313155 0.0014615192408888057
1596 0.026073175012252627 -0.021059613463336405 -0.021531907481196013
1712 0.0036845307359349776 -0.0006382427019207243 0.0015836786499836583
1714 0.020692802295555736 0.01032436082483044 -0.000940070570131229
1707 0.003045032672498237 -0.00579343330209623 0.012306057379632378
1727 0.0048887637851852605 -0.00038107092403052685 -0.003996534969666205
1729 0.013198413856815671 -0.03427891847039474 -0.004211152857416174
1696 0.02640476574602703 -0.027310504596406035 -0.021556665385461887
1698 -0.01840953913967081 -0.025343481375782018 0.010507098430048992
1761 0.001485821459589231 -0.0003659267974026682 -0.0018902081382488657
1695 -0.01679125155276559 0.02370253121596495 0.0068280159011453465
1697 0.0030429422351195127 -0.006095790667304064 0.004868981553805617
1760 -0.0009701213576120221 0.0025592746344588056 -0.0028193431602431458
1762 -0.01300144545956344 -0.006711699584304284 0.0008165015500908432
308 7.223533787786592e-05 -0.00247805263338427 0.02030015979684327
1694 0.0006945262000027442 0.0049411304081748795 -0.0010711682423065157
503 0.016478513950103243 -0.004557829998102019 0.005593154251964575
1699 -0.0073854052981198485 -0.015332608231489686 0.00746090711216365
1689 0.0028461376217398687 0.002289980893589611 -0.00891647128442087
291 -0.0008484314364782534 -0.00015291423292495193 0.004489939111411673
216 -0.011871709936916573 0.027777587838303388 0.0159705116495952
1685 0.0031778211835780065 0.003323257606802253 0.001811508181839126
1737 0.0064509844799585615 -0.00998419206724121 -0.01203715174985044
198 0.004842263616289627 -0.001246907291395277 -0.0063027922569899785
1736 0.005560408793171764 -0.003672575887667215 -0.006745665369620947
1738 0.005929859815447363 -0.008270284362130962 -0.01128038488946703
1686 0.004930549245568022 0.0216463596611776 -0.0015745631159290582
1810 0.006399345071286538 -0.006508042091245764 0.006915335726510406
1808 0.0015654499854191627 0.00178494533083835 -0.0038622845553434996
1809 0.0010809754065652035 -0.0131092155438856 0.008798918790783075
481 -0.0009192943917952724 0.003877031057103907 0.0066894359490523615
480 -0.00030524976540008766 -0.00167146536419762 0.0016428779959931311
493 -0.01012845298213087 -0.005713063178349389 0.009468387776985178
479 -0.0009513824465409004 -0.0017756227461003706 -0.003490916454749367
492 0.010155774368222627 0.00523847669762054 -0.022369908645451925
211 -0.00973794030991355 0.016599870944858763 0.010165475374870652
522 -0.009173203076534422 -0.018093221605743313 -0.03473459983613093
509 -0.001513178558150724 -0.002184259349078703 -0.0029269097987498992
478 -0.0032470884346999787 -0.0017684256814787774 0.004485278187614324
521 -0.029962742251479085 0.007173964151366796 0.0023057018390063434
491 0.0012039241951268913 0.0049688540313677625 -0.012821884223684191
197 -0.0018927875893905552 0.0029790101777678775 0.0017760579876141267
376 0.012286604169155193 -0.005023762219041152 0.01781186842823571
523 -0.012296864666619058 0.008997099119540532 -0.005549623332533453
208 -0.010726497582828147 0.020267016327511867 0.008499504644503778
368 0.007886652576269264 -0.00744248645010145 0.0191212821902936
508 -0.0027619052454633127 -0.0006898454472319278 -0.00236243818456077
507 -0.0035395061052576663 -0.001915500340702416 0.0008810639693080014
196 0.0014756745843696884 0.003838660232150882 -0.005636049054840797
477 -0.00021084054771864565 0.0026834631554939706 -0.007285657411263541
1690 -0.029883360924019158 0.035244248936527105 0.0013180752514268925
510 0.0016300941447628325 0.004791405921642071 -0.0022148792366777255
518 0.002221662845618764 0.0019290871598474286 0.002394488101014385
459 -0.003942258423499058 0.009258321990794441 -0.001123695922654042
445 0.006986170971987912 -0.0028096367196910332 -0.0036786269962361946
488 0.001492560210135519 -0.005736153642454206 0.003986530326769386
446 0.002662760894430711 0.006669250936052254 -0.0036591247921725517
490 -0.022566095339174547 0.01196084667561348 0.010951028761712014
476 0.0022817466036554007 -0.0026354072545866974 -0.010513708540331254
475 0.002273716954086857 -0.00477895391157341 -0.0025236154239144707
457 -0.008480467827712451 -0.007772959544005576 0.014581444013272361
444 0.0001143063045847083 0.0038952203286618282 -0.0016966150574716028
489 -0.009651887285499676 -0.0048204721460688 0.016669493409179018
458 -0.004498866775067707 -0.005409086817304621 0.0013842889257200716
506 0.0020339689127077303 0.0017055616448831972 -0.0005866925372293133
520 0.013277185875551344 0.021120002876550904 0.02537743190917369
519 -0.003946345294069087 -0.008093597709130308 0.005611683212740941
447 0.011840014344947742 0.0011713942632955682 -0.002647914861617587
460 -0.010696271763389569 -0.020413686356017306 0.005302544201695665
1682 -0.009417580891520193 -0.00569260411638625 -0.033148714753603224
398 0.028551913316022887 -0.010533869697953847 0.04259464544155265
1681 -0.0022981424673148942 -0.0015537778894173942 0.001723152266953949
246 -0.03094719360829751 -0.004706332742669115 0.009811509709164693
596 -0.0057296092856054005 0.023279735585493695 0.0031993791085374477
448 0.00813738959905043 -0.006241278905537937 -0.0019945718743313765
595 0.014885037134774013 -0.010916890111183087 -0.006403844040989801
461 -0.02426771724053879 -0.018932648823348625 0.022948535998407047
1679 -0.0001642318487057794 -0.007063517556239988 0.001199443984138068
410 0.019436465285553033 0.024149595464851764 -0.011344188873055262
1800 0.004700864157158626 -0.01005051322516096 0.00019674325090800033
408 0.007940310585676038 -0.0028925187093064688 -0.0044146469901373015
392 0.0043587023169650175 -0.0022125810444441197 -0.0032094904131716273
409 0.0045143751087695855 0.014097336659942176 0.010306651313264355
399 -0.004404488594695785 -0.016310639323357412 -0.0033036440711787744
300 0.004368800334855898 -0.013857396434314018 0.014164982400924998
302 -0.0107443471817968 -0.018368387946275815 -0.006592914456798652
1799 0.0008392116599572148 -0.006646854163459148 0.0010727007684150963
402 -0.016893711127814917 -0.003223526326527439 -0.02828621718317121
311 0.008625061441250217 0.0013875036593259417 -0.008410428813431068
304 -0.010252322812898491 0.013956036977269532 0.00013367873284548268
1801 0.0027316956564498733 -0.003194963545777262 0.012656287752549074
407 -0.01856982071145509 0.01841528760817751 -0.0025214075832821997
389 0.008520945865916564 0.007943369840293469 -0.0013266874941786238
391 5.7633944689603516e-05 -0.0014232808262782742 -0.007761115735196655
594 0.006794423122229554 -0.006473077869048253 -0.0041972740649008555
1706 -0.00642114219197757 0.005315793830357841 0.0012419823773951676
1708 -0.0002311904952577427 -0.01242976686404262 0.03235418462826896
289 0.004988404305041798 -0.005202732976974693 0.0013685389015424747
309 0.02602714845558406 0.018334447286431785 0.021975766269882208
288 0.003961743489180628 -0.0062959184440700275 0.0006031252145098887
303 -0.02349376686482719 0.012572887983133225 0.006980455383131648
1265 0.028118909703869637 -0.030898968200081964 -0.017466859452444493
1796 0.005864024771921788 -0.005288292627422182 0.0016518866237719006
1257 0.0009412146630200963 -0.001010204339683758 -0.02562443911784253
1798 0.006073993423069641 -0.00976645771965436 0.0030857167445025317
1797 -0.003744067344400836 0.01302062049197205 0.005538799680778229
375 0.009928361451637231 -0.0012117352320779016 -0.023894758981552335
16 -0.02148177368228367 -0.006407181121866851 -0.00786816721292531
1593 -0.004073238437245503 -0.0007535271560127969 -0.0008515522081451627
1255 -0.00342643037284371 -2.883430760253038e-06 0.0024943883771827366
498 -0.011453443278007137 0.008272804606017191 0.010112863963446454
484 -0.0009709108663173464 -0.0068393425133766875 -0.0018778997408020256
500 0.005810867467115716 -0.018639834354667654 0.02055886155904919
369 -0.00613252714604954 0.007130857092473005 -0.011554036598269844
499 0.03464637160060254 -0.009419490047268006 -0.0011552067366271844
374 0.05704739114851719 0.0002558816796340964 0.005809555433439585
1242 0.0033136390667908343 0.0072979382744727496 0.0019341298576077935
1254 0.000831160617438189 0.02833701930601341 -0.018693169449972256
1241 -0.0014586223490824714 0.0004499639472392709 -0.00016852225315906473
1687 -0.004650332454126795 -0.007175414734131854 -0.0035314796732132327
1260 -0.03223393223669297 0.01480918186195532 0.014814975029533653
1244 -0.008129114723482087 -0.010066697906660786 0.0037997818083951415
1259 -0.0019565005662196995 -0.021682304088440952 -0.022612615579322475
370 0.006389524849361423 0.02121911834872499 0.0014261786058651683
360 0.0035721335385957764 0.005520903326947233 -0.010046477904469466
357 -0.001515300960875877 -0.005341923524489483 0.0017497302086157756
380 -0.0018027106295862537 -0.0029252473090560817 0.016514572627691838
356 0.008177281996404724 0.002455528480895353 -0.00453154378592783
362 0.0005438278775839234 -0.007040393001826946 -0.001295735458013709
379 0.020493955595303807 -0.011655358210933362 0.021609064844506247
358 0.006955683582711104 -0.005080932225607394 0.0039045970258541392
361 -0.003242153011015253 -0.003220751193446765 -0.005444466297357863
378 -0.009868867018856513 0.0017138271597392997 0.007455427161057136
363 -0.0030433310230844088 -0.0036200408785550544 0.003624050459382012
355 -0.0007733238086677978 -0.00014905899515755934 0.00454544487494322
1087 -0.0024519515438224584 0.0053527649817720025 -0.0050626161233264496
1107 -0.0038432096687691483 -0.03857064340493486 -0.004754669278959312
1102 0.010958108091179159 0.019516158058484334 0.0019776346030579675
377 -0.025006393779658406 -0.022169989137007965 -0.004185008598793414
429 0.028759233660308456 0.015616864570434732 -0.01529006453572784
371 -0.004177372883094657 -0.008413135704740725 -0.019990659305009522
359 -0.00012031457455266719 0.0010138251928527792 -0.005438368757764485
349 0.011569335876486321 -0.015365912752527555 -0.0009158531113289347
1106 0.02047187735855365 0.015278676567148439 -0.017230555608999464
416 0.008190966011425611 0.0035690920403115035 0.0013018526053210887
414 0.0008550579925217885 -0.013996413610640064 -0.005279953804851177
415 0.0014222838113250528 -0.0027285782241039673 0.00029755758508248306
428 -0.018122581651204683 0.027463901982112075 0.0037285056537508156
1649 -0.0008612720625814286 -0.003912053019881628 -0.005993066636241292
1108 -0.012761684756887166 -0.0021195110177990076 -0.037870668260654494
1840 0.006902684403157577 -0.005571997248358851 0.007957358222317383
1650 0.005759679465659341 0.02532907204566838 -0.002702225443167082
1090 -0.0035254329092852528 -0.0030619229285740552 0.006615653759924917
426 0.004373958164958687 0.015959473456353117 0.0038930392730231935
427 -0.007497803063030013 0.02969406745034003 0.046656679325513144
413 0.0028752098072590306 -0.0016374632888298546 0.000551173212608485
412 0.030544913461442145 0.021051405725505897 0.003311678676315769
383 -0.006331154555701297 0.0068288900336504615 -0.008088545381699685
384 -0.008319043944087456 0.003871802752241312 -0.0010949549034031721
394 0.0019830567902599646 -0.0016661829169043203 0.0028622327991517766
381 -0.016004326920499367 -0.043313056492313776 -0.01332973456220411
395 0.012142973389411215 -0.007934053646387006 0.018311231531609753
385 0.0017596475073490961 -0.0026829925755912183 0.0015283341254585527
397 -0.007998827205279085 -0.015195476990539879 0.002890909739404428
382 -0.0011094457260945687 0.008241239238151917 -0.0008182518098428484
354 0.004895771006472198 0.0016908033264701756 -0.002041886706075802
353 0.003989837634619803 -0.001763111924110608 0.0026617486693918564
396 0.021739844820410054 -0.008321389384074885 -0.02369133213039145
625 -0.04732145640925428 -0.014929607345095422 -0.003976070373799335
364 0.008375597822781179 0.004850482142927335 0.02847707675939791
1656 0.004570008651557993 -8.984213736778183e-05 -0.026458176771158245
406 0.0001995520696603698 -0.004278052921217981 -0.0023420541006476895
386 -0.0001399244473401366 0.0019092944615416946 0.004226682359985485
390 0.004656289710544792 0.0034173286234163375 -0.0019264643735684497
404 0.009868257597218277 -0.0010233678510196812 0.005410882721956108
403 -0.012797109897326395 0.0019462316334980575 0.01866076153760277
411 0.028512035744289885 0.02443075979415829 -0.01734560760553755
393 -0.0013063424733425644 -0.0019088418443889456 0.0030754027600288416
388 -0.005196985588999247 -0.003913597973189182 -0.0006998235538908134
387 0.0016579129420030635 0.002395408668912589 -0.0038148181238649276
400 0.03019751804111266 -0.003546068826871492 -0.006852724970987288
401 0.025561642291584915 -0.0379362168678485 0.005066773876963021
405 -0.001571620825422844 -0.03705904455789753 0.03489664430823512
621 0.0047970125582018075 0.02406713744133108 0.011908097198086427
1256 -0.009291439726829586 0.007656711559664271 -0.0012060706266031852
1243 -0.004591607144927098 0.00850078901954607 0.003909548899025171
1594 0.0149632883257939 0.023018677652650983 -0.009182694083633548
1202 0.01173308218945232 -0.006804778846582045 -0.0010711474112165885
1201 0.01103831526726827 -0.000472791637333317 0.0210457127638337
1191 0.024271218371549774 -0.0003804895100089004 0.0012886018699478626
1180 0.0010947069401960263 -0.007124749890339676 0.005156907462218193
1181 -0.007881662216891768 -0.0073273687612262235 0.002680724723270581
1183 0.0035671471127022227 0.003544216010025112 -0.0016315181722280246
1196 0.003652606545470738 -0.014273898347515001 -0.0008588255226378401
1182 -0.0006865673401887802 -0.0032894747664930697 0.00034710492944281865
1199 -0.01962779656654231 0.007869106282495167 0.008745405246611463
1197 -0.00539238717451198 -0.011450143875615038 0.0015114181504538179
1198 -0.004956352757962436 0.014549425701006868 -0.0011193227228534861
1200 0.00807228014122602 -0.011338012584603197 0.022734966686046836
1671 0.0037310614676836816 0.0008639964013250734 0.0023731789279869886
1258 0.001095953414236238 0.03891118096877946 0.012815160864897212
15 0.013311022214637872 -0.003152441518954666 -0.009919438472403739
1805 0.0017479354399059554 -0.0025671914499003933 0.008353731133729662
1807 0.0032639909879058045 -0.010321758787524431 0.024163204289422806
1193 -0.011654653061613836 0.027736025960262686 -0.01689930900392759
182 0.01886057704785745 -0.004390095222403296 -0.020252697371212273
1672 0.023013079539828916 0.0016528737818080421 0.017939474253030763
345 -0.00978974082216217 0.014102718347963688 -0.009581129417704103
14 0.0002130911923615124 -0.008379229342148806 0.005870125501689799
1 -0.0007381066891080022 -0.004983217832153253 -0.0073857613057861085
314 0.0034205437977967565 -0.005218460331400338 0.004782282875195643
1806 0.0042943620417256545 -0.005418776369509415 0.018944558866093284
315 0.007081550212877337 0.004592512858225268 0.019071891904929607
313 -0.014198013930230992 -0.012980418296166092 -0.003880957744731947
1610 -0.03058527417669884 -0.012487261827050478 -0.004541608935480655
1261 0.02166578059915323 0.018323242301220868 -0.022710852255476754
1088 -0.0031052441568465913 -0.00385475803616587 0.0031024678726411428
339 0.029329888123964625 -0.0223867266340986 0.00637175681744836
348 0.019810364486183143 0.009859248673720537 0.012110059734976687
343 0.027103805289545993 -0.006453532134365706 0.003971561447841351
1010 -0.015226319228388387 -0.0114073839272832 0.008536009508818963
996 0.0025961818718606 -0.001081114774903724 0.00811701776561141
1011 0.02930527429788774 -0.014678288984883778 -0.00807973665474523
1012 0.01767417581329155 -0.012271921050002901 0.011777757259457733
344 -0.014181690480307724 0.0064609709564534806 0.006359983146049698
994 -0.0009827572979088548 -0.010020555532746849 0.004591820108952646
328 -0.006723732160932548 -0.0007160667190741741 0.007683314818286058
346 -0.01780248221525679 -0.009146595141284993 0.005553284795935796
180 -0.006718708515195853 0.004260075349925549 -0.011578130888282795
1009 0.009703649103029486 0.0263741918126846 0.019376997949981822
347 0.009042894254514633 -0.006273963294478013 -0.0016014518250337842
329 0.004206983847271171 -0.008523296439246937 -0.005949715455705862
340 0.01249507318103985 0.011562681925122158 0.014068734404048443
326 -0.004073632680302259 0.0018910716083147846 0.0021929968526148277
1591 -0.004797784883206336 0.0007019326706004859 -0.004750638105662936
997 -0.0025221654345165888 0.00869821663461214 -0.002584949159070509
327 0.0024711465916935735 0.006589683592495028 0.004718596176171456
1592 -0.0013572723117302728 0.014992833007049592 0.014744004057684718
1013 0.009883887058499487 0.0007673254174883679 -0.019073024870841566
325 -0.004215344420100873 -0.006189559957872078 0.0002696739863006788
341 -0.022647392385909612 -0.0017488800225660735 0.013139258248981727
1014 0.011163242109948821 0.03919021816402571 0.024628992653322888
342 0.007379062471468617 0.007079866691879768 0.007849704362286948
324 0.002444314107127598 -0.008997859020294726 -0.004225264008838808
338 0.009722883455280652 -0.021914058579147435 -0.04366728880258467
1838 -0.00523863926210244 -0.0026456970651146487 -0.001550269713969026
1100 -0.01175944826661621 -0.007777361110385622 -0.012807742162591921
623 0.012000658009426367 -0.006669324320434891 -0.011296609816652585
1015 -0.026045497367557093 -0.023689927870949996 -0.013086176138234791
1634 -0.017510224450299993 -0.0019492399400007697 -0.026786944713999793
1839 0.004330751074311025 -0.005887475752848999 -0.016403683137909936
1633 0.0016522752576297321 -0.004054126130158838 0.0033813471228079733
602 -0.0007302432204889928 0.005341216206410062 -0.004709448290126709
616 0.0019453865948908424 0.016947693188129446 0.021741012238497823
603 -0.0013730309324164482 0.009936441675161119 0.00045958681288739753
617 -0.014907633899016533 -0.022711560643644813 -0.008528574309898855
275 -0.008287128433485473 0.017104374845421665 -0.007965317726147308
268 -0.014287736095108142 0.011001227863361229 0.004162212269337519
624 -0.0020496299099401947 -0.006852588356332157 -0.01257683117703959
273 -0.016038970677225386 -0.016400115388096312 0.002467590097387992
259 -0.004458180909603697 -0.005016659907442527 0.005658308194200243
274 -0.040832549709961495 0.0009556031486019333 0.0028901571966655723
604 0.002961820205841292 0.0007114916038737943 -0.008004458076609922
256 0.00517268182075031 -0.002946333551323112 -0.001532904554327897
260 -0.008633902896134348 -0.0011804836233259902 0.001211391529083647
277 2.5078771667753093e-05 0.00855843504762573 -0.009909447443890043
608 0.013027487424019425 0.013734023559422518 0.001959992206721466
278 -0.009766205175174063 0.016672603577113147 0.015357608839155082
257 0.006551698415605844 0.005172138051187001 0.0009679886702051473
255 -0.001142895007679377 0.009043543651668396 0.0022642437273097398
276 -0.028317918079628066 0.008837497101688256 -0.030417705543286523
622 -0.0010898783810928854 -0.011676590405767417 0.022482543154332003
610 0.00962830757924226 0.002776795889028538 -0.004940906661735422
618 -0.005160745870268023 -0.00482959931347339 0.015856152996578568
609 -0.002752006607212344 0.011114230488154448 -0.0016197179202026518
627 -0.0026717628954758127 -0.0018992098082264346 -0.024669155317149836
663 0.007742760204652433 -0.005488387878143799 0.0011569529972843698
607 -0.0004631053115543507 0.006069899778335512 -0.002672391437280242
620 -0.00679237116114157 0.015218284196272355 -0.02037148781158366
606 0.00023452406175257683 0.005119951982663999 0.0024239176837427667
1752 -0.0004461423893430921 -0.001811115563604799 0.0005027968214499441
629 0.007057363508208325 -0.010550254738257828 0.02262758762737155
605 -0.010703834775563768 -0.0007041555750416944 -0.0006087013089294888
619 -0.0049248682424105645 -0.00562994547591524 -0.025136086020881247
1751 0.007350103138421415 0.0011230678485833591 -0.0026227178279688793
1753 0.010897181269984643 0.005342286818342261 -0.008657804335864602
1788 0.018659457856618808 -0.013199074788637775 0.00022776988687893252
179 0.03920664721034372 0.012246285554758495 -0.027355023466798283
185 0.01749809157916411 -0.00830406496399945 -0.010641736209148591
1833 -0.0021717483260603825 0.016689866136354894 0.007654145476057867
184 0.00089253481193545 0.02143798518793951 0.00017890969617862253
1622 0.031213785853902266 -0.007821059899808748 0.00010317940460505146
178 -0.027354713308956145 0.016106850046183695 -0.016075299402260195
167 -3.0164424984172905e-05 0.0027827362933966313 -0.004328476552669175
165 -0.004057197321767351 0.0043742305770590965 0.003381492041167686
1621 -0.0016586844420768603 -0.0004498719580070964 -0.010738158412560631
565 -0.014814924883488439 -0.018399165324859086 -0.00293099877713931
177 0.03157907697269809 2.958934604435308e-05 -0.01259949112836036
164 -0.0033149080459919764 0.007010727224722115 -0.006757814206284696
183 0.020763834585003624 0.006793567392953544 0.003740364442636789
92 0.0033099755451359817 -0.011589764137085661 -0.01586285532464734
74 0.003999029077170802 -0.010387899884343259 -0.006538752616149143
90 -0.0031438289310927845 0.0014880033203288825 -0.0007264832408873911
91 -0.011358313131172882 -0.008331567507539996 -0.009570903758744748
166 -0.0007919506974766404 0.0016710932952804375 0.0024771215414188873
181 0.020247933949766768 -0.005359153348208 -0.012631703923412035
547 0.005108130541796102 -0.0025443662282922603 -0.0020603525998530744
1647 -0.0001273064192619167 0.0008928798644609841 -0.002116430736670591
1648 -0.001605668428142069 0.001573643182194356 -0.015463223535434691
542 -0.00352996093728768 0.004638175322347796 0.0005883434012769278
566 -0.01687274979992036 -0.004454191881945827 -0.002302716255342969
548 -0.0018152441393227347 0.0007659939250728021 -0.001606095271155788
563 0.020679982964369025 0.006946260541302111 -0.01692577737864274
175 -0.006233939757124583 0.0033788912678736085 -0.00948936768968515
163 -0.001834196127469476 0.0014541707711143602 -0.004396224512508863
176 -0.013944376561950357 0.021990809708126783 0.012101627466375664
174 -0.008945726519347953 -0.0050566881105056334 0.007547867123617092
161 -0.0015730740559450006 0.000710153847711172 -0.006983752692149548
217 -0.030430135955226662 -0.0214354894176252 -0.0056392577154159755
549 -0.0007427885320117968 0.006295643482746627 -0.003317820455360146
567 0.006052786741696839 -0.0028591477724140757 -0.010341233425487983
162 0.00047311617412048305 -0.007181477765859046 0.006392286505564518
539 -0.005475246333351026 0.005080365178868584 0.0017945151653759306
206 0.011829568382747657 0.0022988285829321584 -0.00822961419787144
199 0.0003764224847648108 -0.00144049515814198 0.004040053801426803
218 0.009270328413102184 -0.037065309881137085 -0.02041429958335305
173 -0.0030839203756176537 0.01285325877022865 -0.03282904651241693
160 0.0004242259321921522 0.0031063423349561112 0.004321338125048461
168 0.00951153174058396 0.0044348289180096085 -0.007655035313247394
186 -0.0017020194655252465 -0.005791582140651156 0.015382752261958597
200 -0.003312819854711562 -0.0032576231732669944 0.003714470418108748
194 -0.0030833817123661063 0.0009771608507978943 0.0008133090164212128
193 0.003115098399186811 0.0069896302484286224 0.008819717912737602
267 0.02708186448981318 0.005592445209625229 0.0014428971022994357
601 -0.0030730371033530803 0.0036591502489733956 -0.0011727382744146431
635 0.008076147741258506 0.016837516727353573 -0.006110244458133207
254 0.006673302989906851 -0.0007046256575769569 0.0060460872719127305
611 0.002278214153419871 0.003094954894506957 -0.0005639901187462887
615 -0.021603254843465893 0.018086715529216348 0.017025052006357327
600 -0.0045856602627988175 -0.009054778070596877 -0.0036008392712015094
583 -0.0008746667366160245 -0.0008872924615148383 -0.028758268295730402
570 -0.004461041502205201 -0.0025447027139719153 0.005933300086502722
569 0.00903969075797812 -0.0017322808717901564 0.005942721977493815
599 -0.0019069102308034653 -0.002735208517631134 0.00033575029208357104
613 0.004159748991387118 -0.009292970459634125 0.024855527581747118
538 0.0024497118602692155 -0.007039667100837636 -0.0029816172223898346
568 -0.0006086192949716845 0.000592891333923714 0.0019145024378143794
612 -0.008185178903915716 0.0178040909059515 -0.015459639204221007
571 0.0014534901509707064 -0.0007794935215105822 0.00031725284059965983
581 0.00018469808183604902 0.00780787389023378 0.0049862227717865455
584 0.016504742250188956 -0.02374332250847938 0.015880482709328292
582 -0.024299254798884163 0.0013741857641263728 0.0020295805318821573
572 0.004978172474230659 0.0014313186051000107 -0.0030182622648561985
266 -0.0015539752927666611 -0.021508993817526658 -0.001295533566703406
253 -0.007513355476585262 -0.0024143194489639214 -0.0014166146966336295
264 -0.008750989173946311 -0.013219640377749484 -0.006025909978438371
232 0.007514006791627143 -0.018956191746249608 -0.02955221594200292
233 -0.0200912341720933 0.0001442723573814343 0.01606470071507613
983 -0.01680119969875899 0.005505322207811606 -0.007808650756307795
630 0.044704933734453785 -0.006020628000416108 0.020398725361530173
295 -0.003342410685764396 -0.023283359686669284 0.013355406641965023
1787 0.0025403115205753783 0.0014575473513901975 0.0005505362690321879
1789 -0.0023879181070676834 0.018485692054771297 0.003917214410785044
978 -0.013945035134179589 0.0019971968593541123 -0.0009151994278492263
299 0.0033001060611921405 -0.03276362878253441 -0.011605262234717658
285 0.0018279734000248736 -0.0027704931139271595 0.007861170786014811
284 -0.0028412197462670693 0.0025436441514929764 -0.0006360964294279736
298 0.00894340817335125 -0.009736715600002985 -0.010257267995862521
283 0.0026221216830565977 0.0013319800048079901 0.007956931645400992
305 0.012644442222997399 0.006388136675946859 0.007572142832597347
215 -0.00850800669506637 -0.028267359240418673 0.005285169948761304
310 -0.007645994761731252 0.024409810626512814 0.005979678843378076
564 -0.008307623536991701 0.013212993478414118 -1.7140879647771495e-05
1832 -0.011102628194357205 0.005001303519556576 0.005481690714832873
1834 -0.022759587484051897 0.000664634824690283 -0.0024536320472514886
214 0.007597543571127435 0.009971441632211402 0.015623195616002008
306 0.020024888766445634 0.013541123418509595 -0.032780434941969215
212 0.021811657984999257 -0.001328067886564183 -0.013120782521052454
551 0.009316894814905373 -0.0006396231176663566 -0.0012874500261875305
195 -0.00370029865611624 -0.003980665760670725 -0.0034457228979877124
540 -0.00534819966802261 -0.007097407037609428 0.002836485349999358
213 -0.022872080424786268 -0.004950311062295288 -0.004999171177897931
556 0.00018332001369141562 -0.016074330720546474 -0.007840058734271932
553 0.03031666398786399 -0.021501150698677876 -0.020468486149470645
552 -0.024533691141621808 0.02323025799221404 0.018722598292787166
537 0.008296079130920907 0.005497094350157534 -0.00361495134843157
550 0.02819459090374462 -0.009636176327799137 0.012847056602030409
1713 0.0015035424565712902 0.002900024019714142 -0.010061269312060257
1680 0.019769092846518555 -0.0036734275221780195 -0.014194042052180287
292 -0.0017562358967436519 0.001131267343944553 -0.0019617030019553347
585 0.0006508305550695829 -0.01908838716845112 0.02405724050908931
287 -0.008278387240763026 0.004893395210969118 -0.0003729004885820948
301 0.013588242981365042 -0.014239805798310025 -0.005396695318346476
286 0.008133674927083391 -0.0015106751125082856 0.0034559194478394027
293 0.005571391650227531 0.0058286820153324 -0.00012720341453809498
307 0.028291726683800745 0.0016957095429996024 0.01492967942616181
290 0.005251347046561828 0.009258777810662902 0.00845350711768489
24 0.028270279398827935 -0.020245367137749607 0.017530856825282923
9 -0.0008249459671051081 0.005157267516713792 0.0018096902592251417
25 0.016651038821099497 0.03571361681430697 -0.0007128999336322606
8 -0.005766715403208759 0.00567130733180078 0.004728976656380279
29 -0.005996104740474387 -0.0010070448487581036 -0.0008248179506903461
1755 0.007906290536805248 -0.0008711017982965932 0.0077358386884030786
11 -0.0017238400382844196 0.002767637793788064 0.0036189035077183627
1754 0.0044985241056796025 0.003519473180962583 0.009888450362126244
28 0.00904480731878016 -0.018166875489595977 0.00657477816338559
1795 0.00817740992573494 0.041403174509486836 -0.008484267137931075
1794 0.0017552293023770152 0.015787277757690756 0.0012067857462784324
1793 -0.0010388874404732447 0.006986619935037031 0.0003494708982955952
30 -0.014020363427894362 0.017170337511822436 0.017154432970795337
10 -0.0014152450638133221 0.005590288300689199 -0.006092697742025714
26 0.0295121698004199 -0.013620110854033066 0.019004213725768236
533 0.014431837438695347 -0.0034753524655670343 0.011229236287184113
1645 0.0034891528874691443 0.003970878058048103 0.0036288557414073486
1646 0.0010109604838031254 -0.011792447873581679 0.018991959111428938
1779 -0.02560796010133569 -0.0004095427266589112 -0.004932747419295438
1756 0.00238547627438395 0.0017163709107142306 0.01523610952262345
1780 -0.0015629011630879553 0.012374590016268174 -0.010503347575844542
1778 0.006637596508711235 0.009581976544638937 -0.006242623530479109
532 -0.0014862603413078913 -0.021173332910629578 0.0194331110215623
534 -0.02787716665586669 -0.013110999067479166 -0.010999350558955396
511 -0.0005824251081911682 0.0020061759009572114 -0.005293582071975532
516 -0.0011724985010152461 0.0013796513034796136 0.00023368117910566922
525 -0.033387111833067674 0.0011280261865979167 0.023077585235906223
512 -0.0016068272618142726 -0.0012209375560488 0.0006990990819742816
517 -0.0032472206040433443 0.004305781998623787 -0.007869087209571314
513 -0.008718406261638743 0.003568278472550904 0.002077944973127531
514 -0.00413863665928477 0.0025002604326962367 -0.004185348856577048
527 -0.014302936861694933 -0.004003915575245181 0.018522012708141744
524 -0.019527220500480703 0.020637523677307167 -0.0029800397045964162
528 -0.011912419504981763 -0.0035425404004083526 -0.013234814485658409
515 0.002630040201464577 0.0011438134788218789 -0.0024977054862262414
529 0.010848418755319824 -0.027851249949041215 0.00492838432222013
210 -0.000742586470979311 -0.001724937574637315 -0.00229415879462925
535 -0.014099892024422996 0.007370092701682144 -0.01650823066952516
209 0.011372715042281482 -0.0033677388487883936 0.004135533245075346
526 -0.004784618168965724 -0.008414286105231364 0.020416466182895672
530 0.021158222803736713 -0.012795386598303968 0.015420943601889768
245 0.02914649106825913 0.007125114401913234 -0.013993006988346731
238 0.007422717698298495 -0.015274769279314999 -0.0014273855583044177
1667 -0.004253297002405518 0.0010524914230698196 -0.0005171692135823993
531 -0.004300540779442622 -0.0008650045085155427 0.02254706134565015
227 0.01120731642563643 -0.0037943170940202024 -0.0025642095231428906
239 -0.022274699446178096 0.008397294915502127 0.015548465039941834
954 -0.013553461306193119 0.002108521605454662 0.01415747569212841
241 0.0102411328059954 0.006398714966930569 0.013704509058708417
1668 0.0038366303567934665 -0.030349574984744596 0.023650606173836457
240 -0.009209488611741168 -0.0014223749785512248 0.008291799638782632
236 0.012492793366699291 0.006831590972950161 -0.005746522668265877
247 -0.02005064014473369 0.022665762510391957 0.007590579845532037
229 0.007637494202045388 -0.0030422527799203285 -0.0007112108838083534
248 -0.024038279433454556 -0.002442784329488388 -0.0036762748196368534
230 -0.0035682461657619057 -0.004456744205542368 -0.0007841929836627283
244 0.019512355244483963 0.005060454552005085 0.00013059921129480968
243 0.020820069083224355 0.009938035148006865 -0.0010597136188230842
226 -0.004858060650546878 0.00035792667523003974 0.009317752591852213
228 -0.005264837018339801 -0.006154042923151769 -0.0015547713515219597
224 -0.005902392906728559 -0.001697208078306232 -0.006712009474062518
225 -0.0006712982964065882 0.003849891627108388 0.0008433547792960869
242 0.008114600128392338 0.033154015106882734 -0.00824247342054559
840 0.011246283617897625 -0.0023213041514787125 -0.019625472098358642
827 -0.0075107172380385065 0.0010142264356104572 -0.009792034807019267
841 0.0018812981400643698 0.008637959387589003 -0.018426325589780267
237 0.005960279839531225 0.0005005850186028527 0.00552155113510037
839 -0.011855181484647264 -0.00718740095932681 -0.0010502533597158035
826 0.00020248346241050867 0.00805790698394939 -0.003920634627855522
223 0.0036641799766609973 -0.0005352318169215348 -0.003869116468218062
828 -0.006310582852570283 0.005148673949224199 0.005879900885336698
900 0.01642912607642939 0.0036668623380418258 0.008563607833481429
825 0.00832001634408132 -0.0005654707242787634 -0.002056978387993179
824 0.006021420562299477 -0.005620683656005953 -0.008036186363737003
930 0.006300370123532689 0.019441192272826147 -0.007398309111533458
902 -0.00841367324863748 -0.010591290943376434 -0.000792156852593154
231 0.0007405895443383045 -0.0009204637182025424 -5.1940446971219864e-05
1660 0.0008630152327676206 0.019874052625061568 0.008029213686913108
1659 -0.0016149213929062497 0.010496365209274187 -0.001782124841016364
843 -0.006453720527871084 0.0089230154514298 -0.008643189688615901
829 -0.0006223956910987426 0.0033749228438470285 -0.004861274533619681
1333 -0.014612823688858039 0.010400241563204828 -0.013587391503332184
1759 -0.0067543849062664035 -0.004596302222436988 0.018481970649048406
1323 0.007980421808159947 0.020491209276705728 -0.015498961477760451
835 0.002184205565110468 -0.0026578799042254278 0.005800423220479631
1837 0.011017376637337763 0.005409496200698459 -0.03267473505821451
853 0.004829805811195007 -0.04053537373880041 0.02878619521253477
836 0.0012800460568726034 -0.0006713568550948881 0.0016767114885606665
1835 -0.00441204750864098 -0.0050187583664660215 -0.006284720818544794
1836 -0.0051916877094755585 -0.003859814695464611 -0.004977575437813457
837 0.024298427597842887 -0.005565213551459349 -0.012073136213082218
830 -0.0025897701937186816 0.005735981570097147 -0.0029949464721899313
842 0.008339237869604213 0.012109546474936197 -0.006499704697827174
1782 0.004077112469625988 0.0003455850274271176 -0.006644041257341037
1781 -0.003160085621901681 -0.0006666509148284612 -0.006177784786543436
1329 0.04092481761902539 0.016759090016610814 0.005996148876989042
1783 -0.0022353448617893593 0.006722792606287973 0.02471919973990621
1331 -0.016573870069052143 -0.025317607244199406 -0.012903560944271307
1315 -0.005891386785816568 0.0007063368109436808 0.005287603259743619
1332 -0.014588706441078165 -0.05918978210115529 -0.010938093138445683
1324 0.0024756122321125482 0.009112494871336418 0.014921380901574174
1311 0.001287553092853121 -0.0026727021961941012 0.005689976368392761
1312 0.0011669545458384398 -0.0011373422234500297 0.0037072576684379593
854 0.018542288700237407 0.011095734961810938 0.0172215953620407
1314 0.005546265491797029 0.00370170261802577 -0.0017977202600143623
1330 -0.028632787700086967 -0.007498530117058973 -0.018730092470820716
1637 0.005420260602357025 -8.930242771136603e-06 0.002165230840302952
1757 -0.0030306786731032448 0.004695115721347817 -0.0016659201078840513
1758 0.011771056494117941 0.008692547458378741 0.0008086718259963608
1334 0.012053406218023897 -0.0029650423026589584 0.023740797953716287
1328 -0.019171121140689484 0.024577928855434777 0.022708625393942635
1316 -0.0008453424963191301 0.00459951233356522 0.005653041409442395
22 0.009428325288480184 0.003477763842801369 0.008744000297985489
27 0.012714304686483942 0.00888922771161706 0.004931804912501168
23 0.006920489579443559 -0.014034923102242376 0.03450433308414806
3 -0.004459646516812562 -0.004071867738677471 0.0021294087615696296
4 -0.005010688535442638 -0.00014600254901723773 0.0034598466915516392
18 -0.012638153456008933 -0.023054638683036983 -0.005504936748134072
12 -0.009162373824399928 -0.0043013200871921415 0.006834067804792865
13 -0.0010603998206078927 0.01037494695337564 -0.0016030853191877287
5 0.00491085240005745 -0.006452017567207981 -0.0008925632329291227
6 -0.006506376937102444 0.006159940284018137 -0.013634616738757717
19 0.011651176344336642 0.0014304192750151865 -0.01808492543130345
7 -0.0044660344099785865 -0.0033608368751712908 0.0004424088135032583
20 -0.015807479877834756 -0.014343671578553296 0.007262716348890631
21 0.03502490780092699 0.02018923754165827 -0.022381146180554944
32 -0.012596028699640353 0.018736787751777655 -0.018635125963840097
31 -0.01833747289320844 -0.0026903373009166016 -0.001738303749767145
37 -0.002743584585336415 -0.0019471869455781874 -0.001739352788382108
56 -0.0027178197980984083 -0.02013631451884907 -0.002223168812205878
42 0.0013364597138648953 -0.001681247281478337 0.004091609058907577
58 0.00958253424543215 0.008044032428075302 -0.006248266232265528
50 0.03808697927015771 -0.013278489120048344 -0.0431142841929919
1726 -0.01083389206134274 -0.022491476261167775 -0.011324303969315197
1724 -0.0028833445059532337 -0.0017925410982568277 -0.0023672450407556957
1677 -0.0010317782983766005 0.004848147978701484 0.0008885452294088375
372 0.009040400843793248 0.005048615556342805 0.010307286054590905
1725 -0.0029839651598655686 -0.011269629613335903 -7.506261656884776e-05
373 -0.01714519720055805 0.01261308376237403 0.014686019154838819
330 0.0073652188420259114 -0.003909157493295027 -0.004016788821267543
331 -0.003350775684678897 -0.004048827882937129 -0.006798769705841811
350 0.0036317798661713546 -0.001206020490048789 0.003048402123555948
1678 0.018344687267912822 -0.014778779169562065 -0.004702948994583295
54 -0.003679578093524655 0.016355078598251548 -0.023948435751407485
55 0.0024538304064325315 0.008147858487992671 -0.018387070997162244
53 0.011865764590065607 -0.023462957331967765 0.012032914544798698
321 -0.004029595400898013 0.0020367639269065936 0.001298595566348115
41 0.0015409492025824922 -0.01525466673293636 0.001302637925319968
333 0.01763876236402376 0.0033669272747813618 0.023669839718161678
38 -0.003178284202575057 -0.005359973780644551 -0.004618458344900507
1666 -0.013182050029623646 -0.0038942668119155968 0.009071247448591882
40 0.009603053574628533 0.008044540280801012 0.004670926823577794
52 0.010714634268575468 -0.010005551974430463 -0.009258733701425877
39 -0.004730492659540511 0.0016813430910545136 -0.005884157834064804
60 0.008371227584461845 -0.020777932781530985 -0.013034393684607145
1665 0.007788213897329725 -0.005132646491831147 0.005642379858742573
933 -0.011087144710712407 0.004116679658362621 -0.001164261058665739
848 -0.0024265484147530333 -0.0046108371601156365 -0.021847038489399645
334 -0.0025959500273046317 -0.0037606417851217683 -0.007492401281488368
367 -0.015436514951375657 0.006919208980205318 0.024344486065152913
847 0.010470602634912448 0.01863032877419004 0.01544411732224535
352 0.007468164522991126 -0.004623428169450802 0.0039085342141025005
351 -0.004538261251477205 -0.008774050577651158 0.0021444260194096935
366 0.004476631426357753 -0.013904023392552351 0.02376641439407507
365 0.008754806858750089 0.027495809551981224 -0.0059327769729983475
320 -0.0038713081658308343 0.00495980681334924 0.003168678047050526
319 0.0005493076218982934 0.0007360974392489779 -0.0024375860208076293
1786 0.004084492788357733 7.502296432600075e-05 0.012074873820886395
849 -0.014535165255414694 -0.011502125353860275 0.020919982424890855
631 0.013107693207498407 -0.013583104124452091 0.024300216071906477
335 0.031672004989080606 -0.020638654199800877 -0.0053236161556378505
833 -1.2856273821661919e-05 0.002024873751102835 0.00604590100714849
1784 0.004065330442485486 0.0018233128142057348 -0.0015043483227689567
332 -0.0029558667257982073 0.003003115640925828 -0.007812279745731915
633 0.001563797129909243 -0.025125570183765548 0.0164968023578202
632 0.012134627262556198 -0.003199719098308889 0.012242716202017402
1785 0.004137588890768691 -0.0027636980306584547 0.0022267326212223205
903 0.0033412982320514006 -0.01706603955503551 0.011839013929439713
1654 -0.01432178148609335 -0.013108657972102483 -0.0005877036976853276
1069 0.007754730072599297 0.024529382229947203 0.004063932218735421
889 0.0038443316369404525 0.00038689659176807927 -0.0005267199919319806
890 0.006376975297615877 0.005255776612036667 0.00957418237120306
1075 0.022400195932657147 0.0024066034501825854 0.0008713174091016727
905 0.020570391339331157 -0.015128652131790966 0.013394449376614711
846 -0.016275378806004315 0.00017383028174901562 -0.004324251763069757
845 -0.008466504484311075 -0.0011645812769428973 0.0010602448693053676
844 -0.02651535271007633 -0.0008605566305288142 0.019434279098844195
832 0.001719886876947579 0.004736618686930029 -0.00720643144597156
831 -0.004224674117619805 -0.00011296936100966893 -0.004773529595445189
852 -0.02802198585764183 0.008615927076932303 0.04264797270552149
834 0.0024306489515141657 0.005592431210968913 -0.004631157680248106
850 0.00776616618178059 0.02974828684843768 -0.021532048064872668
851 0.0058413862522270835 0.017577628666563015 0.02101545851800366
1669 0.002293754322360303 -0.0021045944221085382 -0.00329389328303705
909 -0.005428180621277682 0.0044932919655523255 0.0206827491758269
1819 0.004260741600108726 0.0047843191750155285 0.019076121010527594
1818 -0.0009917629130987192 0.0032557725092656805 0.001533308879777894
1817 -0.002743905628596688 0.0008274019253196243 -0.0019216973391187706
895 0.004767888891413059 -0.003877753988989595 0.003181472330920431
910 0.003112676194391196 0.024239961225904407 0.04065542384288313
1670 -0.0012115652447927951 -0.023455653898082622 0.012228939139073889
1732 0.007404830647463425 0.0025279356611216564 -0.009273660292232653
49 0.0044399515280944355 -0.0158047838403994 0.015661852865668225
2 0.0019750549606181835 0.003274731073516925 0.0001573045176660362
17 -0.009948657107232849 0.02785939055990793 -0.01999903833968791
46 0.012319308824055901 0.012549452725757913 0.005980892645477699
33 -0.00016753971841605104 0.005371444279078184 0.0005460833008592576
78 0.0023223761572577807 -0.011992245226613314 0.015131776761412648
47 0.0018736788034093713 0.03508770324942255 0.000704614089119147
34 0.010952115169649697 0.007576754199789499 0.001387951893474218
66 -0.006432955639937474 -0.0010641545263152688 0.001990294770330591
48 -0.018675917302733235 0.025804492374733787 -0.02574118895263547
64 -0.0009288551734391843 0.0026480021680313002 -0.0010458355343997176
35 0.0018381493263401783 0.004678859827007643 0.001395150028786
36 0.0010136990020478095 -0.0032462681226948786 0.004252617710066879
1709 -0.0006607599916903802 -0.0028377933358449494 -0.0045186425223191305
1710 -0.00452629964526076 0.0068983853868143765 0.004699254083316273
1711 0.016965889293544003 0.001403144717174538 -3.2536130283466275e-05
80 -0.02734578571193666 0.005672891049736606 0.03814619753199387
1822 0.01661802677911948 -0.03752811211610186 -0.02136878029594468
1620 -0.008345795435281243 -0.0024451047781629456 0.03167765129660044
79 0.011291945474170447 0.008574445029587865 0.022102199021859066
65 -0.001211856753799073 0.004495574175754909 -0.0005683734270872841
77 0.0022890918464219465 -0.0015921195489232477 -0.006722280762040803
94 0.01648987951504463 -0.03417389630544821 0.0015314256437928737
1820 0.005921677761542198 -0.0025230064794877576 0.00016113554464611997
1821 0.0014612824109616058 0.005929403382134235 -0.0007218138613536055
1619 -0.0004108139803976506 -0.00013083245575939837 0.004454868505292213
1070 0.0010264628476451569 0.0026925038519197094 0.013055868320739959
322 -0.0001602928145871077 0.005510937011959974 0.001270199742523882
62 0.012345723676083824 -0.0064470883835643705 0.02495700445301831
108 0.026640140173839397 0.016591800541465838 -0.001583821521699205
171 -0.030834535652503322 -0.0037227753250034007 0.0060051233386647996
323 0.003470404644278221 0.0018576341433046754 0.002370448348048868
337 -0.00016808376871216645 0.0065424468590590396 -0.008458699502448723
109 -0.007178666947701491 0.024807811264422355 0.018866192033212808
95 -0.003943442409015172 0.006764828022041548 0.0006191141167113634
157 -0.0018829124507363274 -0.0021090781257643554 0.0012277720574253323
63 -0.0037177003973011286 -0.022534216875551353 0.0006082983607741927
45 -0.004154991741987488 0.008828490128409031 -0.0018702285751312248
139 -0.0002744381657711707 -0.0038109795002248315 -0.005555313530875169
127 -0.00667112120853296 -0.00526686654765258 -0.0007160091420099839
96 0.006682626347568733 0.0014525758885682253 -0.0019933980578753525
126 -0.002229865653074165 -0.0032156352628922497 0.006193957998520975
44 0.008777933335116997 0.0023722389387502048 0.0019618050462100398
170 -0.007864175415403738 -0.006683768161313728 0.0033861764124692778
110 -0.003776751898391972 -0.00018185694152663955 -0.015616835165303728
140 0.004248198061689758 -0.022916358477954007 -0.0077433527075134794
1514 0.03203087308040126 0.012530992541276048 0.001703021678169644
336 0.003196811975506756 -0.0222294096437989 0.034831855278387905
269 -0.018555927085319536 0.0010385867289294923 -0.011119043711565454
1057 -0.0006224665065619735 0.00042715781416271696 -0.0036090205807783934
1691 -0.005104810858999402 0.0035734452893553706 -0.0064256281837900405
1071 0.01920958752231717 0.0007646117170362959 0.018674407894562296
1653 -0.0032301219601387895 -0.0038974009391712226 0.0019908091930826714
272 0.03677182793066775 -0.009881273502359138 0.0016215330519710604
270 -0.002191219194127464 0.020764592389494203 -0.002554250371969749
258 -0.003948023440217505 0.005348082238056859 0.004128457078416268
271 0.00267391173170063 0.010740773146444347 0.006967272067232109
279 -0.015753210759501795 -0.010426094998938255 -0.02570262632333463
142 -0.01807888499989646 0.0031068939898179254 -0.014006708066631858
143 0.0025876896298351756 -0.0010664603913541368 0.0089889917621541
129 -0.0038370019274357537 -0.008044685320870557 -0.0004902286120867775
128 -0.008962679907871121 -0.0018476930915236275 -0.005551466828315423
130 -0.0019765164464077573 0.001653573865819058 0.001597648913068424
131 0.0022410807166583177 -0.0013306865695071803 -0.00022932079008728063
1731 0.006349675590238092 -0.001512465837177502 -0.009508223383959872
1692 0.003765569154053875 0.0058041475000959785 0.009437143543395803
144 0.016984296424357136 0.018689536064268594 -0.013954611848319753
132 0.001918735692161554 0.0020312962800447605 -0.001828831442206161
151 0.023104311895023686 0.008974433637728083 -0.004909112427314987
135 0.0008056398205168936 -0.0006105222985494991 0.007459169266020209
133 -0.0013154898379894482 0.007898630893746915 0.0014765313465219315
137 0.0023346346543933645 0.0002872148590872817 0.0029611797923708594
150 0.016117711159765315 0.0039431761869881815 0.02559381333486476
1730 0.005538432371141161 -0.0012834661723760943 -0.008194549557944488
134 -0.00109232785179163 -0.0015410452247659073 -0.0026534964577413556
138 0.006954085340046742 0.00657775020276088 -0.011451144521084953
145 0.009495570764687307 0.008009048040721629 0.04239876220056784
1077 0.014142688492321136 -0.000567088803561571 -0.016139886763020143
1059 -0.002000373287642698 -0.005561006194827168 0.0008808875187128607
1056 0.00019106451192481017 -0.0023589968988163867 -0.0005290429978266
1073 -0.021798992939824898 0.005906944541099613 -0.0056428980139849655
1693 -9.453528789693547e-05 -0.004694498957280937 -0.02378318251595175
149 -0.00921283330760114 0.019042943408146416 0.010848454361957284
154 0.032749361903097345 0.0011128798033117687 0.018355454891599517
136 0.0034756290489747358 -0.0018659487845015745 0.001193009076569659
152 0.005563637881961707 -0.010805638605413746 -0.001855445627985176
147 0.027788279236524854 -0.014831984892549466 0.007802349979093274
153 -0.011856927593548758 -0.011901858043434344 0.001993051342993946
146 0.012968059818260996 0.006458987073589476 0.011212310884824668
1745 0.0024987301305596124 0.005646139922075472 -0.011206985572678135
1723 -0.011986255216382087 0.008621111949957416 -0.021604428448341588
1721 -0.0024674616503927754 -0.0035497222357377947 -0.005722375332199999
1740 -0.019209744357730946 -0.005067188132986521 -0.018248479239458826
67 5.742402426219953e-05 -0.0004100101027413919 -0.0006639488792329889
76 -0.003728049509496072 0.0021028778218887675 -0.0040618943887361985
68 -0.005265800216328019 -0.00142736892575911 -0.006279265026527142
89 -0.010906311521568287 -0.007894054746295532 0.0021089419748602767
73 0.006099285498128998 -0.0030542535635950394 0.006410766966968291
82 0.008996577243634663 0.009445059916311487 -0.022815296645550043
70 0.0024793271258387022 0.0011586684945916624 0.004750571874668042
75 0.005340674770079913 0.004046204490911183 0.006661072129903842
93 0.0009252150114854723 -0.013765054227985947 -0.015385742651582643
71 0.0058108778806988245 -0.0008418990949174329 -0.004583553453506
69 -0.002185619759888154 0.00342528344099295 0.006772260081287064
87 -0.0006795746335224423 -0.00246420701361 -0.01767178794480875
83 0.016759703551092932 -0.007401387280244701 -0.007536087963910767
88 -0.0159516779194474 0.012636070790187097 -0.021039114600458004
72 0.0015017473293927523 -0.0035529650268988763 0.003148016037195863
81 0.0015679304701344187 0.007644861760654145 0.018982233238449275
85 0.011791997835995806 -0.01988276519233958 -0.0444422901276638
1424 0.021332155016826542 0.011169091376066207 0.001992721251527329
1811 -0.004338983523487711 0.004498678145210996 0.0007501232682857931
84 -0.0189403295289838 0.010305419156090727 -0.020262258766059863
1481 0.028825109941257396 -0.001968323423899276 -0.003790736306031981
1408 -0.0034435740572786562 -0.008951261141153334 -0.0016470401039596829
1425 -0.00421352059563749 0.005386129530421135 -0.0024653428556548635
141 -0.02437538526218556 -0.00466948786584264 0.009337255137863366
159 -0.005713965235907506 -0.005029081368582012 -0.00538080455744493
169 -0.002851901525644679 0.007404000437776894 0.001469300151432848
192 -0.0024989222987924966 -0.0024356915618370376 -0.002060250449630239
187 0.015814657537790783 0.005147135904325242 0.02147190760402801
191 -0.0004998280587983262 -0.002699510186872138 -0.0004008289208104232
172 -0.001939702574700293 -0.017907919487531284 -0.0016321667347111454
204 -0.0033622072393867486 0.022357745755715468 -0.0034533432788278226
158 0.0031059392422330377 -0.0071921828628200455 -0.0007764612898278671
111 0.0016249418541924377 -0.007250838270000437 0.016683898050520122
190 0.004530554212947942 0.0018903805242141926 -0.005119970396666269
119 -0.00030093100528904437 0.007211102052761437 -0.0032988278715586385
98 0.00516735461799159 -0.0035359236529797253 -0.003725064200290816
112 0.01699421039396359 0.020635268645107563 0.006257886392248709
97 0.0006377409929888651 0.0008749406752049416 -0.005524608622441254
99 0.006551604538821506 -0.0029245811533456325 -0.003738085437149622
116 0.007689531801220426 -0.011108050879098939 0.0221633758513812
107 -0.005730133037169634 -0.005497415516599188 -0.003302375558446997
188 -0.006193623769091933 -0.004202273184293391 0.0007682514516861561
207 -0.012118740584929077 -0.01210618570683296 0.0010040372344936337
100 0.004904578362284178 0.0035346112989226575 0.0042833333306414425
102 -0.005165574882912484 0.0012405370189320884 -0.00710885576282774
125 -0.00948880330540366 0.00029278709417338516 -0.002267163106970475
106 0.0008466109533170561 -0.008564820007501176 0.005265473046675372
103 -0.00014527485627709413 -0.005014642648194211 -0.005941543571676695
189 0.00767127186233785 0.004768271184851402 -0.004182567198093917
203 0.03408752932931813 -0.031741556268783985 0.0201264019395667
261 -0.002443342129839534 -0.003201457065941934 0.006859502066118027
148 -0.01171146014499093 -0.011409605509199412 0.029205942631868997
202 0.02032503330895417 -0.011800884568154498 -0.004762445078234148
219 0.00027739438989751985 -0.0013046294206632717 0.0005444322712266459
250 0.0030088040921848213 0.005438444865018514 -0.004735826663927873
262 -0.004221520706190352 -0.003279247064997146 0.0035657177796679473
201 -0.008339653171939071 -0.009720876317813947 -0.003753066076779267
220 -0.007167745541992456 0.004749877782251436 -0.0018041142869331826
252 0.0010472946975103063 0.0036697919205658856 0.0039056123192827744
263 0.016282486669514894 0.022977426757775574 0.018420945091432942
280 -0.017178242383077982 -0.013045685002896795 -0.011811561354650443
234 -0.003660831990270664 -0.005784019979249746 0.005842447096192717
251 0.007700959571464919 -0.00032600420881694607 0.010347435719019166
265 -0.008681274505136706 0.01774487179557019 0.022336236835707016
235 -0.005509761632578045 -0.02169365818152792 -0.006289775353731628
156 0.011821988059167916 -0.001205451743589527 -0.02108035376512364
810 -0.014043326859612836 -0.009646511018165195 -0.015415259040223303
809 -0.006431535066902417 -0.005479683515607818 0.0018468060210812284
155 -0.011229602743979657 0.02166421177341857 -0.026263493169264678
796 0.0006398352007448791 0.005921438943188116 -0.0037108353446308213
797 -0.004152775026612574 -0.003415576245634782 -0.009453085540405295
795 0.003322988771049803 0.0031089403918317044 -0.0019179724709652147
1722 0.0015733806608778458 0.015882639240552485 0.021138789651416526
1607 0.003766026778272242 -0.004972375099376706 -0.004999575734681631
1747 0.014680447441312774 0.020933252389693676 0.00492261561476989
1746 -0.007465666589811987 -0.012169387638504555 -0.001835361304944787
294 0.01672408678321097 0.02190358569754913 0.01945397044014484
281 -0.0006347823213386421 0.005523943223876943 -0.0009721979224386874
282 -0.0007177886225979688 0.0008411435510820481 0.0043530719641833365
297 0.014138863338728276 -0.01519118524909212 0.014293301765725306
296 0.007443242243287599 0.005139824641843791 0.0035306697577724123
317 0.009184925776930086 0.016816647710644606 -0.02048777913916042
318 0.005334442238164203 -0.02188824009345776 -0.01533309304925006
316 -0.040782303685242466 0.023014888164020388 -0.011681890242853765
1608 -0.008055944111549192 -0.006463681085514904 0.019327666653811824
1702 -0.0001916758321981748 0.0038798097839667233 -0.02385719534438817
1700 -0.0021070074006295575 0.004995453898680901 -0.0017328170838449889
807 -0.005196278338859059 -0.004575564491947568 -0.01841500571712459
1701 -0.030271386275609217 0.016912919676521317 0.012539267367837139
1419 0.01623714882449307 0.001056666890806994 0.0015221721692252645
1792 -0.0031703404309665942 -0.005543236344178663 -0.0069377351438092635
793 0.004163155674267877 -0.008000339451944016 0.0026979002522807727
806 -0.026875487094622768 -0.05065688197186799 -0.0031639459636758267
1791 -0.0031460164030355825 0.00035204783416945505 0.0033753187334397603
1790 -0.0020380495586251463 -0.00266845782092271 -0.001124199710623886
1828 0.0056141392983020365 -0.009684021401228616 -0.002597216838367218
1739 -0.0011892947393557693 0.0004449089635495281 0.0008420354993067452
1406 -0.00866503636823956 -0.0019316547566696712 -0.0028403689468549554
1741 -0.0009514349485515766 0.004127005254285398 0.0025640707835942653
1405 0.0033897434179114183 -0.0003895709492773319 -0.007289828121217738
1418 -0.004975851699304655 -0.009659636177551138 0.0008843117829922836
1826 -0.0010198970685489706 -0.0037637180096581468 -0.001516948137574082
1416 -0.03356667643751936 -0.0008398362316784352 0.012588748384246848
1415 0.008804017526135756 -0.021237360786133336 -0.006587255582885208
1812 -0.004278997395402358 0.009175017401057415 0.0041346006615787375
1813 0.00947959573979512 -0.008329931148431799 0.007742670376982172
86 -0.004435060979179705 -0.002524399398930807 -0.000703492775723365
1675 -0.002641089025735695 0.003954420557567494 -0.0030115652091292975
1676 0.013732092396690786 -0.006390185905786943 0.00038533998653768055
104 -0.0044350430019325406 0.000981004987104863 -0.0006248313007125929
120 0.0043624347367098104 0.008193777171728612 0.0047695821299227475
205 0.0010443405929291907 -0.015064350284317523 0.005299150323347069
118 0.0046187526561335054 -0.01733347164859909 -0.013001838656788509
536 0.004741661839744084 0.01785945726022135 -0.020830549839334158
117 0.010802383863781267 -0.007249446554048688 -0.01219925219247032
221 0.006224446332216643 0.004079233876160892 -0.0017953560251535586
222 -0.0031892881076173675 -0.004950952114024167 -0.0029430738342451266
249 0.021555105573766175 -0.0019469242412925066 0.009052914156507422
838 0.006774980075735354 -0.01840160324373316 -0.014737710045720415
794 -0.004474594172360963 5.8792539926346446e-05 -0.0013508958181401803
312 0.0392230312285582 -0.0005781189488096852 0.004849310504050828
1420 0.008294984105995953 -0.0023938246323907514 -0.0007014922245992618
1638 -0.02178839203364263 -0.014693503436776419 -0.003966700424109246
1349 0.016867845025073006 -0.015840744056768268 -0.015005441882888082
1412 3.07905667923198e-05 -0.003353233477383473 -0.018285654561964966
1351 -0.01960141688355806 -0.024711554209664446 -0.012706605786696976
1336 -0.0017209093247533514 -0.003611302584712604 0.0075018967576765076
1381 -0.04225315095467943 -0.0012855499430512755 -0.01574892773387466
1337 -0.004260133611506578 -0.004793217023153135 0.0012590295750535285
1382 -0.01270104472643307 -0.02379618355510301 -0.03991056941764292
1398 -0.004324103890919947 -0.001665126737345953 0.007843480756511643
1367 0.007917259541854078 -0.0050261887662631285 0.005491202563238435
1380 -0.008067280408887599 -0.002122095638566535 -0.010416125212737366
1411 0.006680390615595435 0.0012627266802797206 0.002722718661289496
1368 -0.0022056027157904877 -0.007159089468346672 6.982020579334452e-05
1369 -0.0020508153258895962 0.004016560917754193 -0.005741891177553811
1338 0.0030686097887868452 0.0010277569708908743 -0.0003832739368381924
1397 0.01838536542723416 0.032740401528498685 -0.019921331290587877
1137 -0.029886692343444033 0.005587408342352855 -0.007678632192718386
122 0.008675649579053637 0.0027252649772535878 0.01930684768080882
932 0.0031244200833933605 0.006746711532737656 -0.0030062515287336807
1121 -0.0007518501543360924 0.0020790014464339085 -0.012060478882372902
1138 0.01083343183356204 0.012524537333661453 -0.0004636759852293431
934 0.012393670079802693 -0.01524209747794769 0.017245800512670283
1546 0.0038095870238897796 -0.0025910968293791233 -0.01297227125823226
1662 -0.007760686296678484 -0.024231285413857294 -0.024013900272583114
1529 0.000451766604583885 0.0015427807216331286 -0.0031721657769201994
918 0.006554789512326726 -0.0003881922153117968 0.0005078003210533667
920 -0.004456910039789339 0.005221182635775026 -0.003916554190054774
1531 0.0021738178861693846 -0.010593316073627684 0.004376772760577811
1135 0.0011913653461862151 0.005502084705486569 0.007692160783400489
1661 0.0040186464560253935 -0.0030150522612867907 0.005333363062613058
1545 0.0063501720024283954 0.010972919948828031 -0.037370842304411726
1139 0.026134776854020433 -0.0034046668679706123 -0.012068665248022784
1547 -0.002553928867574401 0.006173070444126751 0.007676111388652764
1528 0.0016243638437483524 -0.003670110081766313 0.005583545688409188
1549 0.013165810504769289 -0.012443027083557436 -0.003869186273034541
935 -0.04290772438620237 0.03296787944706664 -0.02035686141503382
952 -0.04599169253807257 -0.005868597981314741 0.0037424830553601583
1580 -0.0035839655360942737 -0.02077842930678482 -0.015983963470017605
1541 0.03156030095329182 -0.011774748622140011 -0.011657441653732864
1548 -0.0012637033859533746 0.0040572995283387255 -0.004130219502614209
1532 -0.0002995896387000584 0.005471377220968161 -0.003998816986791014
917 0.008427249326924055 0.005654564292783092 -0.006549924096051323
899 0.026432445546571752 -0.009829532682616623 0.0058938544567732915
886 -0.000407763450545668 7.80940254420602e-05 -0.013277004201097382
931 -0.0215118741217307 -0.0037597842395507668 -0.0023653645456466524
887 -0.0039559421218519865 0.0005309457577073709 -0.0030153042596744364
856 0.0023516215043788563 0.002266822290293018 0.003678345300526076
901 -0.013960786089622399 -0.001426147741507415 -0.011300466235779948
857 0.0010007603138192354 -0.0012644024118981746 0.0075224356633579225
885 0.002727039593260458 0.0038196174623202133 -0.009765493747624551
855 -0.00607224556540061 0.0020532101770268686 0.0015910879651617321
870 -0.022652245506089876 -0.004937064575800508 -0.0038371549941230276
868 0.002940484071429729 -0.00506283397959661 0.00173530709393471
867 0.0069052376569314735 0.009772835336970282 0.002165650154174636
858 -0.004692955617998068 0.0006537982903137852 -0.0043884738189725915
1550 0.012944688890325268 0.006488733147979635 0.007672736563013072
871 0.005174966666354018 0.0013728039348787106 -0.010251006291522329
866 -0.0030125255138926266 -0.0007602809026698971 -0.0011248290995431165
859 -0.0023383228305920863 1.906012450199833e-05 -0.0018947223249525507
884 0.011786934896282205 -0.0057542999775642084 -0.01518763030090487
872 0.020344398456696295 -0.015942929006817753 0.027229991054548076
1540 0.0036574571399021582 0.02421692843454348 -0.014927126406593416
860 0.0005837792939876147 0.0008404984700692916 -0.003467099038106536
888 -0.009291863780885814 -0.0016708052098544526 0.0008042637136185924
1640 -0.017456204128858704 -0.009534493013177625 -0.015167692348460934
1313 -0.003027961529885939 -0.005591383957378686 -0.002486701613181585
1326 0.017548166217185617 0.0031277626263877 0.011428294157155908
786 0.0066485821270490025 -0.013873442194510617 0.006479825291274793
788 0.006379363572025987 0.0060816676857742905 0.014400909775536135
869 -0.021017229905454373 0.029354952303263137 -0.021379913936092593
1325 0.0048262317863041575 -0.01594667988454673 0.0005809315383463523
1322 0.017257184556930254 0.011803364123830049 0.007088875507675433
1643 0.003235556444340689 -0.004447810340493115 0.0006931268293401304
1644 0.01341610786516333 0.0034267861082156906 0.02272317834063866
1327 -0.004012435672665281 -0.009094324673116584 -0.005992518169044792
1309 -0.00949357369090552 0.0024481286522902114 0.0037466348846663584
785 -0.008302596204888315 -0.009656359720459655 -0.02357527363795779
1310 -6.38975070451136e-05 0.003839718019493845 0.007979399333481069
789 -0.007099047415146294 0.007657668507577244 0.007555997425933693
787 -0.024469734477437197 -0.0004565287241592102 -0.01591186231561617
771 0.0025841030336411705 -0.0020494516386829666 -0.004886298173121365
1321 0.019828541103370925 -0.01679079388475451 -0.0029155583886467354
772 -0.00045615481938425566 -0.00026040068756899256 0.0005658364735645279
769 0.0001081863878771201 0.0006955013605357941 -0.002018371430581385
1308 0.002222463001136378 0.004052842427597489 -0.0010485071536161991
1657 0.000873808395389164 0.00566956032362027 0.00022312340938587222
781 -0.00024253457275652602 0.005286568443045635 -0.03270208839717724
790 0.020512722917437703 -0.020309851837896322 0.019943806662012526
768 0.001351124456086714 0.0004821594976602461 -0.004856145268447934
780 -0.014374225475191368 -0.01939036364922788 0.013099209579985985
693 0.0010205756877666968 -0.01252464532060755 -0.007992034707756496
770 0.008469324235820822 0.0011192151112572025 0.0006890475791885541
783 -0.013747866084076996 -0.0062139638276231205 -0.006331174670717242
1339 -6.56724163169132e-05 0.005860178215998651 -0.007597047885557842
1317 -0.0025299011560129207 -0.004316986961262886 0.0002965785800175083
1307 -0.006081977033784123 -0.002941105725769743 0.00320602149580337
1352 0.00414403979000511 -0.01433215877578582 0.016449897687543603
1658 0.00039420185995323406 -0.01736289333666535 -0.01938128161830091
1417 8.968128949784828e-05 0.02084416471305182 0.008137409802923717
1136 -0.008708292096837178 -0.006862813036325182 -0.002986749200647615
1120 -0.0025974463596531772 0.0020811109090143535 -0.010350225573344047
57 -0.002775803633391109 -0.014748453122669406 -0.026217490970662807
1335 0.008603938137361806 -0.020751144875343127 -0.008500782539239625
1306 0.0051267161730023285 0.008366178658004453 -0.0024559246991611022
1350 0.02117223007044917 0.0014828726454673374 -0.0038740149600007133
1288 -0.027718548548087453 0.008805945985166267 -0.011343560845857683
1318 0.006239277821250219 -0.008580290789477567 -0.005700418320259737
1222 -0.05424392442815705 0.013877397210435233 -0.01605956645528832
1223 -0.0007799184988682918 -0.0009249151854764817 -0.0284882563891806
1210 -0.0017969879851539663 0.00522931181093966 0.006823671118988789
1305 0.001714369471053119 -0.0041106862627980165 0.005179225540146748
1319 0.011038923200061461 -0.0019431611786462667 -0.003938045007720762
1221 -0.01142676842780983 -0.0039212072261098066 -0.014148936375554484
1209 -0.001971473039893272 -0.004780142484812627 0.003498637316421727
1208 -0.001716301271522837 -0.002027962504809854 0.0017228454519134454
1233 0.006246315240770579 0.0208002504232959 -0.014398014905605503
1215 0.0010271934300735358 0.004350910914284071 -0.003887904550980453
1131 0.02999552164360058 -0.017707464272280236 -0.01141300173171546
1287 0.0038527108938246598 0.01287340802240835 -0.011768990254852747
1156 -0.007293868654879171 0.003728884804270803 0.0006129818210635123
43 0.0023046986624161254 -0.005373466659017721 -0.007584055011755596
61 -0.000702448341838973 0.00821770452842171 -0.01651621373303481
1133 0.012664490443117325 2.114738431751078e-05 -0.007751197856067936
953 0.02988608673266152 0.001223863809481067 -0.0006801926162037411
921 -0.00545404322059535 0.00017539346629508987 -0.004226187346887867
1129 -0.03194185658816209 0.022274957440323505 -0.042460124090635515
1118 -0.00407779918884908 0.0012435294535231354 -0.0073688455582841894
1117 -0.0019255750462699327 0.00827395851319838 -0.0008699473480207652
1130 -0.018963391436282423 0.021141413068575594 0.00728879104688679
1132 -0.00934618089486778 -0.0030270769440109827 0.013175860750865121
59 -0.0180125888586629 0.018133928212148688 0.0045261375799855634
51 -0.032687318325731754 -0.0011240584098782655 -0.018042463083919776
1119 -0.0012184033151998403 0.007795375948101582 -0.00011148401369001942
1599 -0.003371421770728979 -0.0008210070496755487 -0.0051513059987215995
1600 0.019865435956046396 -4.583382669278601e-06 0.002650078185814539
1128 -0.031100630683592215 0.006486026695622291 -0.02108931818065293
1115 0.0005645670681777652 -0.005306173483966693 -0.0020935129489924836
1116 0.00048319313328420044 -0.0026060202714340602 -0.005515220274108882
1127 -0.01837144388787541 -0.009575986446373242 -0.0178695866130814
1114 -0.004628582604604107 -0.0004438524319379993 -0.0018593366561782375
1134 0.011628479661814795 0.0004444349231438284 -0.009172997496979153
1067 0.026812782585655386 -0.0004128467336309671 -0.008313321022173715
919 -0.002881676533046658 0.005436997236281301 0.005002318489769183
948 0.010720779544271752 -0.017825099318882893 0.011681432583728314
929 0.005381761626379163 0.00197635032275256 0.0013228934328875356
928 0.007525573620298955 -0.004026967175982737 -0.008159296778783201
1122 0.003282669657142874 -0.008143770919784545 -0.0031201331742324555
946 0.017092460830404315 0.004141767619510485 0.022452292665675194
916 0.003321953515443393 -0.008386576426570496 0.013437904144939627
898 0.003443386992939113 -0.0008039090875977587 0.0041584849420930785
1055 -0.0020950597116968024 -0.0034004556863635625 0.001728681221751527
1068 -0.007149202372522952 0.010516827065287022 0.015258579543065053
897 0.0006153360499878924 -0.012191814179786778 -0.0012655814113697735
891 -0.004634091065652727 0.003822570127968346 0.005893523312458836
915 -0.015254896101774905 -0.000294590874155816 -0.03198661915169051
1078 0.05205942115918704 0.002262273855719967 0.013677962985327918
947 0.014289935141000258 -0.002873583717547859 -0.01137342045631695
892 -0.004203356547648702 -0.004058252233238683 -0.0012009143427003902
904 -0.02289707864965577 0.0028259925538842248 -0.00987181227258149
922 0.004995975934540845 -0.010349809906281421 -0.0026645260599361086
938 0.010864259203602922 0.015523076536540246 -0.010211395269799061
1771 -0.007390624639755013 0.0025465559561118484 0.0012307468694941384
1769 -0.005530280380256774 0.001510653678893322 0.0013012056489774327
1770 0.001505830111018721 -0.0059549006614210715 0.00190670909959481
923 0.007443607283763325 -0.008768030643891145 -0.002363655640933009
937 0.0035651910887336117 0.0016952973515284193 -0.008883532892961097
939 -0.008613637049167731 -0.006096555750098196 0.010124596649615254
940 0.019698153815606533 -0.018582951639500255 0.020396441892757747
925 0.004912903707853996 0.004802799039039928 0.0006176306171179252
1060 0.0034477223902467857 -0.0005851014059048205 0.0026471143220531523
1299 -0.034007572795893205 -0.003408302634562693 -0.002955913095391858
908 -0.0051274271873247975 0.025915215277875266 0.0011703796064449984
1587 0.028074975697660123 -0.006912608072047819 0.01288681384868032
906 -0.016624683022615164 0.028547914032484033 0.022361448435888814
907 0.004379005442423541 0.01729698914932897 -0.018797854383997302
914 -0.02701757987344464 -0.0013949798792698782 0.021126545335310026
1304 0.0041503222005246036 0.024552082971988885 0.037499600833256805
894 -0.006279698733929489 0.0038054451050196767 0.0024701477470490665
893 -0.00014081569258781056 -0.012971962406308529 0.00040409249165567363
911 0.001378476539948721 -0.003291337889883629 -0.0013879733893954393
1585 0.030442016212400703 0.01451916316226613 -0.027316779914142084
896 -0.006431543079520232 0.0014083792529212594 -0.002425480371423992
913 -0.014404492513991977 0.04347498650361041 -0.021854442908626776
912 0.0027234930420409835 0.010121161351981331 0.002645067703169268
1285 -0.002800483607024139 -0.002175879657795342 0.004608719035054805
1303 0.012870648065349226 -0.014716532398486488 -0.0025870473943386835
1284 0.00036651601819888874 -0.0005330777671759046 -0.004381162246079902
1275 -0.0031993311985992114 -0.0063944649891435725 -0.011068753345563882
1276 -0.002552230335965803 -0.001038291431644976 -0.0007655243231438401
1278 -0.009967908450058655 -0.004310862095550868 0.0023684968825231413
1298 0.0020110564861298913 0.004619939293566186 -0.03853328986491787
1748 0.00011709462958254474 -0.0016185215603957527 -0.0014147912172864199
1750 0.0041811229100236205 0.020774295055819746 0.02369994276777745
1297 0.02828112129146628 -0.003945802411857425 0.019138768847754697
1293 0.025433193466327168 0.01034972767181745 -0.008108022316874233
1282 0.004249750202196798 0.005205484044666388 -0.001072983079266083
1277 -0.0036072974246809794 0.0021113322097222756 -0.001483137150817415
1320 -0.004876175351830261 -0.011836437329909296 -0.013600031967832263
1286 0.00028141983991470136 0.0038893139837169336 -0.00021833125979779
1586 0.008264648364865564 0.014535935954098824 0.00838484868020995
1273 0.004709275878681804 0.005109481949893011 -0.00829629065362485
1274 0.0005293671747442078 0.0010822347821501839 -0.003589261890288147
1289 -0.0036955057712815434 -0.02174536304256523 -0.012752054864790363
1290 -0.009514141795986428 -0.014850664825737273 0.0004960557118255888
1227 -0.0016734548365404983 0.0024333951631181636 -0.018707356932012035
1225 -0.012368646667577884 0.017487700711494376 0.009146790727101381
1228 0.0033822411561990904 0.0036998561392790393 -0.01746465461824397
1213 -0.003236733409649469 -0.005130586183308717 -0.00950658267268733
1484 -0.0060785772275117654 0.03221367118661002 0.016346335095584415
1469 -0.004106225867914483 0.004924848382181467 0.0062020093691486575
1485 -0.019154909740667643 0.03310191629326152 0.003007820143511838
1466 -0.004323882265518124 0.008531724086547036 0.005836710059020274
1479 -0.00688406598373941 0.005364986735233877 -0.00642610568728142
1478 0.02243342226708927 0.03283535696093841 0.012926794641963016
1229 -0.003727443109396447 -0.010733341347735082 -0.024660333148641956
1486 0.004934156416417327 0.0033920553613951496 -0.01091230873093385
1211 -0.0007207866139981155 0.0007262628124220797 -0.00038963853763057226
1230 -0.012503871551661081 -0.004668658747111746 0.007762512655999984
1214 0.010146041577521945 -0.0007261490350509479 0.00023004116874661404
1231 0.0026104855191789755 0.006974672804141269 0.006682650222772162
1477 0.03272273374468537 -0.0014083846027942116 0.0068572517204134875
1232 -0.0037745756481885446 -0.004486521094368198 0.010714996437543157
1212 -0.0034981206199730113 0.00423017256954939 -0.0014594885226429618
1224 -0.015075478393607318 -0.010142688619174261 0.004028074186119395
1226 0.0023754949734046756 -0.006781787345384666 0.0012944244105155985
1511 0.00730717042034438 0.004914800800580783 0.004745912567382941
1512 -0.020323822834552353 -0.012237408216365797 0.018364098567510038
1629 -0.0005770739497194961 0.002943272667937384 0.00014841591234617362
1467 0.0021116999277050732 -0.006796924006259581 -0.002860986833681189
1483 -0.004927768558508379 -0.015873580319525838 0.004466062137968072
653 0.0038357128800255687 0.009996764800447979 -0.02476072165488011
1630 -0.002597227796047123 0.0033779532970616135 0.007605876521936119
1066 -0.012849001405334268 -0.010174023749825746 -0.0008322915994426035
1519 -0.01994647203373061 -0.008196188652804356 0.00863556332055024
1516 -0.026285813477315678 -0.02054677343698755 0.004134390301611642
1515 0.026124603974850072 -0.005113897866562201 -0.036962073780564535
1500 0.004068046659737238 0.006476222608329826 0.002494842632642566
1513 -0.014650548980613392 -0.012890044278304022 -0.005569442795011671
1499 0.0037991814704919215 -0.0017681619529918715 0.005243829325285248
1518 -0.00733123366298203 -0.01774556749352765 0.016839695518892778
1501 0.0028881411271854153 0.002335007430601288 0.0009381571678997814
1517 -0.01536033262385123 0.011827373634604005 -0.004287706059301338
1498 -0.003288215982341192 0.00043314181752671614 -0.00743981719177383
1497 -0.002970797871084775 -0.0016748839407139556 0.00024509507615340934
1510 0.006052957993423393 -0.03605690859037411 0.006305470840739669
1509 0.013842434931853576 0.007566978974490707 0.0025006193082063827
1508 -0.00348483821612243 0.0068170190811835014 0.016715342720354943
1496 0.001970525316149082 -0.0008726375767067976 -0.0074927219088089456
1495 0.0035163930720075376 -0.0021755590001308906 -0.00491922702740178
1494 -0.002216699189009467 0.00479919616772067 -0.003227722551686989
1065 0.009043540436754056 0.0019790504137262165 0.03234250577956159
1520 -0.0053959642006535585 0.014355028279637614 0.007795268724901335
1502 0.0001775459288436637 0.0010130485295627974 -0.0020456006506667387
1053 0.00028714137208102114 -0.01034315241343996 -0.00611104231238779
1614 -0.0023350919603796604 -0.013999606451861012 0.019091814382097626
1613 -0.0031200121650785287 0.005503546844312178 0.00012698663330588714
1074 0.022757373952868417 -0.004425528773379782 -0.014323024249004456
1052 -0.0020698896652256134 -0.0015283949277351218 -0.0020024395846586743
1503 -0.0014997423892903013 0.007962692621079261 -0.0013777459570629728
1155 0.009408666162829761 -0.02808976658300322 -0.02303255599539031
1125 0.01301749018666106 -0.015231516322805037 0.01128146017217244
1054 -0.00038071709205286233 0.0009053275683584159 3.746028131734204e-06
1076 0.007979593769417174 0.027145562405075718 4.124230929531718e-05
1058 0.00555978861574344 -0.0032473950188386296 -0.0011391556239297854
754 0.0017116245078799127 -0.011435056157003217 0.0015100810768603665
1072 -0.00942066777102841 0.006148719607953564 -0.002381861164899503
755 -0.00956965558788976 -0.005710179645265502 -0.019914240235928624
740 -0.002021186705884547 -0.0040500459672609 0.0013364711832213043
756 0.030968025471211504 0.02590534384885674 -0.016822061786709176
752 -0.018727133827350903 -0.022628155192593903 0.0019253838021642204
758 -0.029545796293168596 -0.020653721443147977 0.005640852327267922
738 0.0015333585990868755 0.004411541227140308 0.002435535567269569
759 -0.011386880625459317 0.017534799127386876 -0.018923510115776754
739 -0.0011225063217415424 -0.00066739127788316 -0.004441016328118041
736 -0.0018542689583266744 0.0006633443802116583 0.0015117212839544098
741 -0.00549814558149692 -0.0021343115314904153 0.00979058666319917
748 0.007636231222601989 -0.0017087106480444285 -0.015131234489457364
735 0.006782664221669702 -0.0019271728871945648 -0.006624534203681785
737 -0.0006527201877307556 0.001007020536799993 -0.0014117537779912977
749 0.01598355715190607 0.03371718853202776 -0.012057887116211308
757 0.008421659572152422 -0.027443864481438304 0.01032788152397988
751 0.002244106691430336 -6.19693001290318e-05 0.025452330631156435
753 -0.020250511099080486 0.0022035557781613095 0.014739161427971865
1824 0.009218708519226444 -0.0003711442613032443 0.006222285692006586
1719 0.04027101689159742 0.017940837299756072 -0.01109693054758973
750 0.004321367250854813 -0.004430255967345754 0.017132235800284428
1718 0.003653832633005465 0.0015408429716445829 -0.00968674458466243
1720 -0.020454167760286152 -0.007520611279976141 -0.001696064284402883
1061 -0.0037102635037664696 -0.007666310670757693 -0.0018321075258851084
1079 -0.0053681512967311265 -0.00906179338686492 0.024530195830623127
1051 -0.0018600954310170124 0.0015327014319135599 0.002567659058691264
1823 0.003934766660433952 0.0040769877960049996 0.0018387595912509017
1825 0.02159856274668434 0.005376118698093069 0.01831282039893439
1749 -0.009110832408692923 -0.0019112971466390346 -0.0009196828885750486
1743 -0.002329523904279507 -0.007970079693261566 -0.0063328413907287485
1742 -0.0007244529589194032 0.0024927457233617353 -0.005485355693006287
1744 0.0010416176263517616 0.028387787876926276 -0.001984312808181145
1615 -0.005949511626412949 0.0019380207009993343 0.004385732618752651
714 -0.011241435986833293 0.009693187899015809 -0.007986461968969846
730 0.014743680604281523 -0.004614766722961792 0.0006193432823930724
1616 0.009532046392681109 -0.008997942534145612 -0.00905660633963819
652 0.010571491938642498 -0.0011184385884675714 0.017962327501497944
712 0.007216426585443207 0.0021787145012698234 -0.0006683999926247955
950 -0.003647866393308998 0.0020658364058421803 0.008794634566548592
651 -0.007624949071838302 0.01518836982345498 0.022977405643637244
637 0.002309841393913541 -0.00313426972514543 0.003794494659176464
729 0.009856796057919176 -0.014731108654812716 0.023852556845736048
670 -0.007812936422498752 -0.002525560752134406 0.008515535156512146
711 0.0019014118608995947 0.006726042292823183 -0.0007381279272748375
951 0.003179490498149932 -0.016150460766143054 -0.02391817544805133
650 0.0006453715526873248 -0.0005953800546978997 0.004628168548662643
684 -0.01065339037681298 -0.010487982551174625 -0.005314382879624221
747 -0.02284150094355267 -0.010170968090790483 0.003942376054789819
683 0.0022067145567941145 0.01882837705478293 0.012263208168574291
949 0.0024815291999592632 -0.0034780241667709466 -0.009172111583069038
669 -0.003314809211337791 0.0056335088345567065 0.006002862385135023
638 -0.00275577829367975 -0.002296926889982638 0.0023042687557196474
682 -0.0024728467244976844 0.011817433542743463 -0.006417832448043185
1465 0.0038469099881163196 0.003636084513646483 0.007185317607350768
1470 -0.0048289205064980635 0.0028503701253642447 0.003104770957621983
1464 0.0010360319456997277 0.003223919736150164 0.0010956105552111036
1488 -0.016857688335004912 0.030589403366160776 0.01616876284141481
1487 -0.0075597771830448095 -0.014238823894884556 -0.018014467400843046
1468 -0.0009978618931135537 0.0004943081355208372 -0.0014259844140053271
1426 -0.017964424216421953 0.01142931386959238 -0.008692270695404288
1480 0.01417008380313817 0.030985433351985323 0.013575349688207916
1482 0.0009767330775545017 0.006479095802949438 0.0050466741293830044
1459 -0.008139295769166643 0.03294227384088589 -0.007604248143451555
1444 0.002087441039020044 -0.028681500074720118 0.011043336984184901
1441 -0.005801158043135593 0.0014783285994273733 -0.0010365474220481858
1489 -0.004808799149890944 -0.016268198795696773 0.030067388906366836
1458 0.005142765413909226 0.0017694157162911352 0.0025684406531281253
1431 -0.003496225274379797 0.0013835192238950092 0.003600431213307242
1463 0.002941232230622768 0.0029397797601565627 0.006265412190043514
1471 -0.0029324757733413145 -0.011343724259992374 0.010661392659019971
1430 0.005704550629563179 0.0024488318141154893 -0.0061453550582945835
1440 -0.0016803498783777699 -0.00564974494038771 0.0031587706703195884
1476 0.023098263851879408 -0.018549374237904932 0.005540112504656279
1451 -0.02221979127291682 0.01687060217252515 0.01128652771604019
1507 -0.004760780994352141 0.007472582655889086 -0.020205156418357524
101 -0.0010276697979181798 0.00227346933348137 0.000719920881207362
114 -0.003605259777251172 0.022994375320762598 0.02202296622696014
124 0.0021871173828299623 -0.0056984358455501784 -0.004257814124963023
1490 0.015034678552374945 -3.7035240636302815e-05 0.01453819999545328
113 0.022491398736607632 0.02301261547838252 -0.021289400714526382
1472 -0.0019055213352226412 0.0007769069993651067 -0.0015173734050552288
1605 -0.0012909689928454935 -0.003703082567365413 0.001451443470544836
814 -0.006965759757011745 -0.004150569189390408 -0.018434222299461064
1462 -0.004977041956660673 -0.006025853547611919 0.004596350763765002
1473 -0.020407383012352148 0.02829198591197984 0.003966095352814286
115 0.023768600525875507 0.022052647816451994 0.016220453050262894
1606 0.0001684862803746181 -0.003220181512960481 -0.03231618222125837
1475 0.034202512064714 0.004885036225374641 0.02126681287476247
1460 0.00182220065788231 -0.005049705486656462 0.0025394803483443284
1461 -0.006362129623272149 -0.003019586475236389 -0.008246873321893717
818 -0.0034656851308630097 0.0013338700775957176 -0.0017650784999412976
812 -0.0123763461091188 -0.005993229802003682 0.028909560549992722
1493 -0.0019245925652608444 -0.0037510298913984194 0.00045500119210140956
1506 -0.019767748083997862 0.02521858451626507 0.041796251543975906
815 -0.020063077537899283 0.02430502315168041 0.010883414725595363
1474 -0.022660007974592403 -0.029617149142334556 0.009016644289503363
801 0.005229511580525273 0.0034377129501452224 -0.00037562198991004253
802 -0.002088406616307092 -0.003191288813576645 0.0008673648213703854
813 -0.004211487165638428 -0.02016591196782976 -0.012909654211369024
821 -0.00492396546590453 0.009044913229378134 -0.009634626950423561
819 -0.013468781273373262 -0.01831061428164675 -0.015328846952290302
811 0.03138446118241947 0.012877755602005731 -0.003846203744412958
804 0.004672011364034022 -0.005067132888461637 -0.00013611548155572495
799 -0.005771973297719886 -0.0019606322122391485 0.001511037583492979
798 -0.0018709154817332467 0.007626540691625396 0.0016129206512154133
822 -0.003792688643782881 0.02294160620335659 0.004489273836034668
800 -0.0029775679977337983 0.0003349059263446644 -0.0006634551918087739
803 -0.0007472060190789461 -0.005534553128127469 0.005166561595914656
820 0.006190620128804679 0.007935611983771918 0.009044623554607967
792 -0.019154788651405286 -0.004126149932112076 0.01615827557533662
816 0.019770900553417313 0.0038607851197275424 0.018345756292699838
742 0.008267023987125208 -0.0009447276983327325 -0.000750002405620403
817 -0.010780412391576233 0.0003135091323713268 0.00871990562984887
777 0.008395713807410913 0.02175255182957263 0.02592892015259697
760 0.010373304419302964 -0.01096369490956279 -0.010625287213896752
743 0.007704826766467686 0.0002717906964215902 0.00020139843590402648
1551 0.023487129924042824 -0.021873743047920908 0.026877836680962993
1625 -0.0027146985457581776 -0.003152115773390448 -0.0008836130658579514
774 -0.0035180445174231227 0.011847198476169494 0.003101446672904279
761 0.003487387823585759 -0.015397799256611644 0.014872141804729538
700 -0.0010018663039924366 -0.0038728320331818983 0.00019110623484468425
691 0.01965029344831419 0.025508147763555065 -0.004468539427081474
744 0.021187076596378574 -0.02351258044907692 -0.008617379503588797
734 -0.00702575469459136 0.0021386512073765574 0.007675593874858056
713 0.010890548371249649 -0.019798691764252887 0.006285548609390494
702 -0.0012356314410339909 -0.0035579755515846626 0.007971365334518908
775 -0.015971064371751217 -0.010451762179202718 -0.01691193780624347
776 -0.014828758905762289 -0.005291101892372026 -0.00544681546459039
762 0.004456962817389166 0.0002460439926115657 0.004275950962405671
763 0.0011979912945012528 0.0008930053270742765 -0.0003582520706652053
778 0.03148619488454391 0.010969439332720562 0.01512362940936319
745 -0.0031443427186921987 -0.028151169238910922 -0.007901709519382105
731 -0.0008381935365610845 0.005093130390334987 -0.004120215386103008
732 0.007558679536314972 -0.005647301692008726 -0.0009509509389500326
733 -0.006703385788353631 0.0007938070450559804 -0.0071063151747621555
764 0.00337563981212289 0.008427965057382062 -0.001957167466928745
765 -0.0020798258155662283 -0.00481568854553896 -0.008762765028235591
746 -0.0037147579199721414 -0.0015201438317622635 -0.004323333715430639
701 0.0018866706437461174 0.0003903028005730327 -0.007217845489876809
715 0.03700095986540876 -0.01407396980982323 0.003647853969723085
1422 -0.005570887214160868 0.0018911354214117336 -0.014137235554159699
1407 -0.0015582110999629172 0.0009872771478023736 0.0011083472058599454
694 -0.005842708290737231 -0.047060362351177505 -0.005439276730446562
1421 0.01162239640678945 0.01245098904769296 -0.0010576175604763763
703 0.0073078649715055954 -0.002372707644458775 -0.003205452954995597
671 0.0016748227485559688 0.0009682770910530569 0.008673150400056196
1423 0.007697928043731726 0.007948585013368746 -0.00591471330278727
680 -0.0012228233363479112 0.010476327070419249 -0.009666802431961124
1641 0.0008548160809804853 -0.00395924274479108 -0.0009233802208941897
1642 -0.0071781810875269254 -0.007829102844368531 -0.015432397290400182
1827 -0.013548258443449177 0.003098778310116704 -0.0014812650385528066
699 0.00021218932816787262 0.01794331461454591 -0.015290933212327622
681 -0.004769624806327409 0.0036885389159333625 -4.745792381782998e-05
698 0.0023200284706030323 0.01085080950574933 0.007962865726477867
1428 0.012401725107349167 -0.016772165051406728 0.027174555504197763
1409 -0.002641469438238662 0.00025606968277356126 -0.00756587312403868
1414 -0.014878347457450444 0.006011594928859167 -0.017115318446563485
1410 0.00021750400970271604 -0.0005946565323548949 0.003367850315534268
1403 -0.0038814699985588535 -0.005086845233680979 0.0037578527106070275
1429 -0.0031640601198728987 0.0041208349081009645 0.005567413316169752
1400 -0.0008273801390014897 -0.004794313772711131 -0.003026323891393355
1402 0.0004700479980204717 -0.009340352403852507 0.0025244313476485976
1401 0.002520360202050047 -0.0018561602516600402 0.0006177455505156175
1399 0.0007527763630617104 -0.003946555934665598 0.008804059101963557
1442 -0.006062328803741194 -0.004189795960915653 0.03281247376028692
1413 0.022135271684101916 -0.028204635394169814 -0.03236133798379424
1443 0.021600802093090957 0.007251779899414683 0.003471464721722871
1544 -0.005582105710824252 -0.017947334194100967 0.031927908762916075
1542 0.01621288135225164 0.00461557579647609 -0.006580667675767657
123 0.015841965572574186 -0.01295223513538426 -0.04011272989078953
121 0.010670451229183309 0.0016202161938643567 0.0039126340705662
105 0.004476192287713324 0.0025747289884929634 -0.010435775811067286
1543 -0.011075623336745267 -0.0224835904647024 -0.021288910420683427
1530 -0.0016981302592389506 0.002557571248062215 -0.004925006906762176
1604 -0.005976654675871592 -0.005863548673955268 0.0031056548478466677
805 -0.0008602921274177463 0.004207200088747693 -0.006587315912352456
823 0.017444891289903543 -0.009784799844264813 -0.0046572887132870005
1603 -0.004659125902502179 1.4977243463378033e-05 -0.0020572599944459636
791 -0.0015200025174589927 0.01968840857718688 0.016851676591645857
808 0.005717254692854633 -0.004448839622923287 -0.02863671146793172
773 0.0020521075119833486 0.0014290720678553591 -0.0035337954137069343
767 0.007633461230153424 -0.0016725181779287134 0.0030464420184654435
766 0.007695909665311413 0.0005380726678310866 -0.0023925639672863325
779 -0.00017413783793330541 0.01185635463169293 -0.027303072710927488
678 -0.0008161896930625647 0.008595600207272963 -0.005205507234233946
1427 -0.0274598507675544 0.030517062279670982 -0.032486573951754597
1404 0.004471764903519653 0.010697632404851307 -0.002313478512945546
1348 -0.005210201098090815 -0.012110057292694522 -0.008753132471543789
1379 0.0038360565828951068 -0.002375210004826013 -0.005503317324166647
1366 0.017568293669401398 -0.0037726421484349055 0.025239420848303613
1370 0.001117993959832971 0.0019214808715807504 0.009277236378041374
1383 -0.0022608849610388027 0.004759543697938596 0.002150104105209705
1575 -0.009392010434732917 0.0031606020707711318 0.020454208351983545
1578 0.0143585756381035 -0.008585337341637987 -0.027880965368044255
1581 0.012180170842707255 0.009534122566731031 -0.020060017276762036
1561 -0.002848344116653342 0.006390682715579026 -0.003949889355403711
1563 0.005429184318141683 -0.004494115356216787 -0.0026523694252895236
1582 -0.04697239943611756 -0.00472955112275777 -0.004450198046044124
1639 0.0017976250238366976 0.006049193986577627 -0.0040816793378393446
874 0.014702236156237738 -0.015957242227745874 -0.021072943027095767
882 0.01799169663586549 0.0004778422686297803 0.007881506140339403
861 -0.0033011691585944016 -0.0026796264080615672 -0.0049664986602358805
873 -0.00023727540136410377 0.013370459255093683 -0.0041717400484227165
863 -0.005882570829626797 -0.0024216907991943593 -0.003441520424595135
875 0.010117995402185189 -0.01322037219369465 0.008046039952567956
877 0.011722889136324926 0.00766047425297964 0.016911049237610307
782 -0.00848547776970582 0.016951981177669898 -0.005474382976056714
1674 -0.02242425928373011 -0.013153573436801532 -0.009943276004563024
1353 0.0005264776472064622 -0.006741573232668476 -0.029628517508779692
784 -0.009080537635365954 0.002499165538009943 0.00020810307724146012
1340 -0.0024707624886696877 -0.0006674919496352446 -0.014214430880145667
1234 -0.02832727467611912 0.011085784290134761 -0.015563259989177323
1206 -0.004868494589636071 -0.0036994033400924533 0.0031887472207492423
1216 -0.002397931376425744 0.002720022770503644 0.0039156203390658785
1220 0.00703068867669645 0.016099464308180222 0.015168295563777962
1207 -0.0010255628461062097 -0.0007703283203374721 -0.005526748703682993
1112 0.0018426164115833814 -0.0036010562390539997 0.004493265707749521
1123 0.004936834941922142 -0.002244716477540763 -0.0018670096638537539
1140 0.005662090659622632 0.013083564553025501 0.0006402151741693908
1113 -0.004989044716473154 0.005512541822808566 0.0016412276917794058
936 0.018029967871108592 -0.0028430215524423543 0.016864000905781888
943 0.0025714491958690393 -0.0218766608823997 -0.0073449889714607836
1294 0.003884938856545336 -0.0012884467585595122 -0.023524092204252053
1598 -0.025807681932506266 0.028932309613592295 -0.0035461298787492984
944 0.0036643474791412923 0.0063210848785417665 -0.014388911029135216
927 -0.004669510219441125 -0.0020576805437550636 0.004983496181193474
945 0.005334448782518121 -0.00465381291458458 0.002753196869187106
924 0.0006530402334103886 -0.002777637541209681 -0.003187773688742263
1597 0.003354286919160374 -0.0013504340688041728 0.002834317106850352
1296 -0.0007314502220927532 -0.01474570265970638 -0.0007167684833837905
1301 0.0038409654438797724 0.0020329782837271784 -0.006975273950871799
1283 0.002491507044006023 -0.0043242928868677906 0.003137976948563508
1281 -0.0022120164254360378 0.0024143813014079205 6.74951695483312e-05
1292 -0.00870191174815065 -0.004447634388927128 -0.00024526800366255055
1280 0.0023219405713524465 0.0005228525834748923 -0.0003685922005565368
1279 -0.001730604061889032 0.0006490834106237104 -0.002573567009980354
1291 0.003081853173741927 -0.009104234302120677 -0.0070800971888470956
1302 -0.0364204590240418 -0.025326808909065936 -0.0018697536266947404
1157 -0.010735213941821597 -0.002242250475870544 -0.00471333201462747
654 -0.023247646662822925 0.021891476032519983 0.008738470874523308
1158 0.0066008479826551334 -0.015119587078529746 0.0016781886478219544
1450 0.00028005276960438227 -0.002828746822138786 -0.009462167418959118
1111 -0.001018043907004539 -0.0035963225299549405 -0.000912399482707923
1124 0.007146297789987473 0.008170589172197146 0.016755813515598635
1080 0.0015969536296657823 -0.009278301803772905 0.00469677229929695
1142 0.009288261027867756 0.0035551620253504745 -0.0022509218249553557
1095 0.018725131858456246 0.02301586291116614 0.017896644004332954
1093 -0.0011349579281139835 0.005143138680138008 -0.009589668042820224
1521 -0.0027878985749722656 -0.012435223127761873 -0.025906955634623866
1064 -0.006116330201947285 0.011123100117450522 0.020976972414916546
1031 0.025148341065357273 -0.016582145993466888 -0.002527997616257476
1032 0.004643386755534372 -0.005822013430817995 0.012128309405939501
1048 -0.004082398722502255 0.010510811097710336 0.015580957621729037
719 -0.01991217004309221 -0.013782350216230489 -0.011029952056970648
1050 -0.005568695588401887 0.002830408365027608 -1.4649161481398506e-05
1049 -0.001158525484595686 0.0053979686635205575 -0.004173678729298475
1062 -0.00763938926530643 -0.010067346646025656 0.003405177699035414
1063 -0.007589258187504891 -0.0040190357274515545 -0.011133905278182829
724 -0.004140540080842535 -0.01058170001747934 0.021293071177309317
709 -0.0026862233912969746 0.009246155452546014 2.9842123225123925e-05
726 0.0016465860494706698 0.004649565096995684 0.015209488128605357
649 -0.002026154747974125 -0.0005664671699998818 -7.088817918116916e-05
725 -0.0016714632926127064 -0.009050167825158674 -0.020699967186796203
705 -0.018355946365505398 -0.002038422143389574 0.0018589789978551376
668 0.014075869402360101 0.012557333381781046 -0.0011457727173702756
640 -0.00269076925698116 -0.006848831414547109 0.00016525174333221901
639 -0.0012388798188596977 -0.004145275374650523 -0.002067588163684612
1447 -0.01504940418557268 -0.00215004557454056 0.005673844679481018
1433 0.0012984356580421302 -0.006190533130147446 0.006376050888156016
1445 0.011509381920559 -0.0007356151198998094 0.007202782742887145
1437 -0.004953335490853234 0.0032832266520582873 -0.007600880733271474
1449 0.005654423286920972 -0.02199004665725435 -0.0034220397654725894
1434 0.0032211159052848402 0.008434903036846322 -0.005038184697125523
1432 -0.0032864269259162 0.0029911192006295377 0.002261264943483188
1525 -0.0010939390067426764 0.003840448928806863 0.0028423098635558565
1534 0.004691339904883761 0.01058032071935507 0.006766503581523015
1505 0.004154538335401092 -0.014778440038272686 -0.014215490262787732
1504 -0.012298035184098778 0.0017378844896904183 -0.019842999777359715
1492 -0.007401141367601602 -0.012878653989253532 0.0032126807423984442
1491 0.00031881760681206657 -0.007027537694884399 0.0033251694649518125
968 -0.00874238918588163 0.004215639213555814 -0.008882837571427776
1268 -0.010204682147378574 -0.00045733429236468313 0.01660208325577868
1626 0.021245704550865944 0.013866066826122053 -0.01027961480510044
1269 -0.0014322830751898779 -0.016120142831076902 -0.016352749422102075
1552 0.0009617626240457555 -0.0003061386524049169 0.000965485271713516
1267 0.016272774105049865 0.00937846092778434 -0.0075673225042166975
1533 -0.008586330545897235 -0.007760781651535604 0.00425458795030569
672 0.000676424767816169 0.005661223765143752 0.0019117515865330029
704 0.0008088128784588576 -0.007001183507862014 0.0030319706180317856
677 -0.0037528881582308236 0.004258411241582479 0.0028757241193732587
674 0.00013135413468692397 -0.001086889711044231 -0.002182000639652122
716 -0.001292637092460196 0.014242893966967672 -0.01830927012268627
1527 -0.002980114824394639 0.01002316671480147 -0.0022385447674578996
1526 0.0027665272958770715 0.0007904270269551416 -0.0011300593819584053
1539 -0.017116100527514836 0.023097859419231398 0.010446955219393605
692 0.03228994103055054 -0.00420723026117047 -0.0138774758982843
689 0.0011276892966854872 0.009724714215742938 0.02112549969063151
676 -0.006050157268670133 0.003935500647874793 -0.0037828263720002795

Bonds

1 3 1371 1372
2 6 1371 1384
3 5 1250 1270
4 5 1250 1271
5 5 1250 1272
6 7 1344 1356
7 7 1344 1357
8 7 1344 1358
9 2 1372 1373
10 3 1372 1378
11 8 1635 1636
12 9 1775 1776
13 9 1775 1777
14 4 1373 1374
15 7 1373 1385
16 7 1373 1386
17 9 1763 1764
18 9 1763 1765
19 7 485 501
20 7 485 502
21 7 485 503
22 3 1347 1348
23 6 1347 1365
24 3 1378 1379
25 6 1378 1396
26 4 1560 1561
27 4 1560 1562
28 4 1560 1563
29 4 1559 1560
30 7 1559 1572
31 7 1559 1573
32 2 1558 1559
33 3 1558 1564
34 3 1564 1565
35 6 1564 1583
36 7 423 439
37 7 423 440
38 7 423 441
39 7 483 495
40 7 483 496
41 7 483 497
42 3 1557 1558
43 6 1557 1571
44 4 482 483
45 4 482 484
46 4 482 485
47 3 486 487
48 6 486 504
49 4 420 421
50 4 420 422
51 4 420 423
52 6 487 505
53 7 1562 1577
54 7 1562 1578
55 7 1562 1579
56 4 862 863
57 4 862 864
58 4 862 865
59 7 865 881
60 7 865 882
61 7 865 883
62 7 864 878
63 7 864 879
64 7 864 880
65 7 421 433
66 7 421 434
67 7 421 435
68 7 422 436
69 7 422 437
70 7 422 438
71 8 1627 1628
72 3 455 456
73 6 455 473
74 6 456 474
75 7 577 591
76 7 577 592
77 7 577 593
78 4 575 576
79 4 575 577
80 4 575 578
81 8 1673 1674
82 7 453 467
83 7 453 468
84 7 453 469
85 7 576 588
86 7 576 589
87 7 576 590
88 4 451 452
89 4 451 453
90 4 451 454
91 9 1733 1734
92 9 1733 1735
93 2 449 450
94 3 449 455
95 7 454 470
96 7 454 471
97 7 454 472
98 7 578 594
99 7 578 595
100 7 578 596
101 7 1346 1362
102 7 1346 1363
103 7 1346 1364
104 8 1595 1596
105 7 1345 1359
106 7 1345 1360
107 7 1345 1361
108 2 1341 1342
109 3 1341 1347
110 4 1343 1344
111 4 1343 1345
112 4 1343 1346
113 4 1342 1343
114 7 1342 1354
115 7 1342 1355
116 2 1236 1237
117 1 1236 1250
118 5 1236 1251
119 1 1235 1236
120 5 1235 1248
121 5 1235 1249
122 2 1205 1206
123 1 1205 1235
124 5 1205 1219
125 2 1174 1175
126 1 1174 1204
127 5 1174 1188
128 1 1204 1205
129 5 1204 1217
130 5 1204 1218
131 1 1173 1174
132 5 1173 1186
133 5 1173 1187
134 3 1237 1238
135 3 1237 1247
136 6 1247 1266
137 3 1238 1239
138 6 1238 1252
139 6 1185 1203
140 3 1246 1247
141 6 1246 1265
142 2 1240 1241
143 3 1240 1246
144 4 419 420
145 7 419 431
146 7 419 432
147 8 1611 1612
148 6 1092 1110
149 2 1085 1086
150 3 1085 1091
151 3 1091 1092
152 6 1091 1109
153 3 1239 1240
154 6 1239 1253
155 4 1086 1087
156 7 1086 1098
157 7 1086 1099
158 3 417 418
159 6 417 430
160 7 1245 1262
161 7 1245 1263
162 7 1245 1264
163 8 1663 1664
164 7 926 941
165 7 926 942
166 7 926 943
167 7 1027 1041
168 7 1027 1042
169 7 1027 1043
170 4 1025 1026
171 4 1025 1027
172 4 1025 1028
173 4 1024 1025
174 7 1024 1036
175 7 1024 1037
176 3 424 425
177 6 424 442
178 2 418 419
179 3 418 424
180 6 425 443
181 7 1089 1103
182 7 1089 1104
183 7 1089 1105
184 7 1028 1044
185 7 1028 1045
186 7 1028 1046
187 7 1026 1038
188 7 1026 1039
189 7 1026 1040
190 7 452 464
191 7 452 465
192 7 452 466
193 4 450 451
194 7 450 462
195 7 450 463
196 8 1651 1652
197 9 1802 1803
198 9 1802 1804
199 9 1814 1815
200 9 1814 1816
201 8 1655 1656
202 3 1175 1176
203 3 1175 1185
204 2 1143 1144
205 1 1143 1173
206 5 1143 1157
207 3 1176 1177
208 6 1176 1189
209 3 1177 1178
210 6 1177 1190
211 9 1715 1716
212 9 1715 1717
213 3 1144 1145
214 3 1144 1154
215 3 1145 1146
216 6 1145 1158
217 3 1146 1147
218 6 1146 1159
219 2 1178 1179
220 3 1178 1184
221 3 1184 1185
222 6 1184 1202
223 4 1179 1180
224 7 1179 1191
225 7 1179 1192
226 3 1082 1083
227 3 1082 1092
228 3 1084 1085
229 6 1084 1097
230 2 1081 1082
231 1 1081 1111
232 5 1081 1095
233 3 1083 1084
234 6 1083 1096
235 6 1154 1172
236 2 1147 1148
237 3 1147 1153
238 3 1153 1154
239 6 1153 1171
240 4 1148 1149
241 7 1148 1160
242 7 1148 1161
243 4 1149 1150
244 4 1149 1151
245 4 1149 1152
246 7 1152 1168
247 7 1152 1169
248 7 1152 1170
249 4 993 994
250 7 993 1005
251 7 993 1006
252 8 1609 1610
253 7 995 1007
254 7 995 1008
255 7 995 1009
256 2 992 993
257 3 992 998
258 2 1023 1024
259 3 1023 1029
260 3 1029 1030
261 6 1029 1047
262 1 1018 1019
263 5 1018 1031
264 5 1018 1032
265 2 1019 1020
266 1 1019 1049
267 5 1019 1033
268 6 1030 1048
269 3 1020 1021
270 3 1020 1030
271 2 988 989
272 1 988 1018
273 5 988 1002
274 3 989 990
275 3 989 999
276 3 1021 1022
277 6 1021 1034
278 3 1022 1023
279 6 1022 1035
280 3 990 991
281 6 990 1003
282 3 991 992
283 6 991 1004
284 4 706 707
285 7 706 718
286 7 706 719
287 4 707 708
288 4 707 709
289 4 707 710
290 7 710 726
291 7 710 727
292 7 710 728
293 7 708 720
294 7 708 721
295 7 708 722
296 9 1829 1830
297 9 1829 1831
298 7 647 664
299 7 647 665
300 7 647 666
301 3 648 649
302 6 648 667
303 4 644 645
304 4 644 646
305 4 644 647
306 7 646 661
307 7 646 662
308 7 646 663
309 8 1631 1632
310 4 643 644
311 7 643 656
312 7 643 657
313 2 642 643
314 3 642 648
315 3 641 642
316 6 641 655
317 7 645 658
318 7 645 659
319 7 645 660
320 7 1151 1165
321 7 1151 1166
322 7 1151 1167
323 7 1438 1452
324 7 1438 1453
325 7 1438 1454
326 4 1436 1437
327 4 1436 1438
328 4 1436 1439
329 4 1435 1436
330 7 1435 1447
331 7 1435 1448
332 7 1439 1455
333 7 1439 1456
334 7 1439 1457
335 7 1377 1393
336 7 1377 1394
337 7 1377 1395
338 9 1766 1767
339 9 1766 1768
340 8 1683 1684
341 9 1772 1773
342 9 1772 1774
343 8 1601 1602
344 7 1376 1390
345 7 1376 1391
346 7 1376 1392
347 7 545 557
348 7 545 558
349 7 545 559
350 3 998 999
351 6 998 1016
352 1 1522 1523
353 5 1522 1535
354 5 1522 1536
355 2 1523 1524
356 1 1523 1553
357 5 1523 1537
358 3 1524 1525
359 3 1524 1534
360 1 1553 1554
361 5 1553 1566
362 5 1553 1567
363 3 1555 1556
364 3 1555 1565
365 2 1554 1555
366 1 1554 1568
367 5 1554 1569
368 7 1150 1162
369 7 1150 1163
370 7 1150 1164
371 5 1568 1588
372 5 1568 1589
373 5 1568 1590
374 7 546 560
375 7 546 561
376 7 546 562
377 4 544 545
378 4 544 546
379 4 544 547
380 6 999 1017
381 1 987 988
382 5 987 1000
383 5 987 1001
384 1 955 956
385 1 955 968
386 5 955 969
387 5 955 970
388 2 956 957
389 1 956 987
390 5 956 971
391 3 957 958
392 3 957 967
393 5 614 634
394 5 614 635
395 5 614 636
396 3 579 580
397 6 579 597
398 6 580 598
399 3 958 959
400 6 958 972
401 6 967 986
402 3 966 967
403 6 966 985
404 3 959 960
405 6 959 973
406 2 960 961
407 3 960 966
408 4 961 962
409 7 961 974
410 7 961 975
411 3 673 674
412 6 673 686
413 4 675 676
414 7 675 687
415 7 675 688
416 7 964 979
417 7 964 980
418 7 964 981
419 4 962 963
420 4 962 964
421 4 962 965
422 7 965 982
423 7 965 983
424 7 965 984
425 8 1617 1618
426 9 1703 1704
427 9 1703 1705
428 7 963 976
429 7 963 977
430 7 963 978
431 7 1375 1387
432 7 1375 1388
433 7 1375 1389
434 4 1374 1375
435 4 1374 1376
436 4 1374 1377
437 4 543 544
438 7 543 555
439 7 543 556
440 3 1556 1557
441 6 1556 1570
442 6 1565 1584
443 3 541 542
444 6 541 554
445 2 573 574
446 3 573 579
447 4 574 575
448 7 574 586
449 7 574 587
450 7 679 695
451 7 679 696
452 7 679 697
453 8 1623 1624
454 9 1712 1713
455 9 1712 1714
456 9 1727 1728
457 9 1727 1729
458 9 1697 1698
459 9 1697 1699
460 9 1760 1761
461 9 1760 1762
462 9 1694 1695
463 9 1694 1696
464 8 1689 1690
465 7 291 308
466 7 291 309
467 7 291 310
468 8 1685 1686
469 7 198 214
470 7 198 215
471 7 198 216
472 9 1736 1737
473 9 1736 1738
474 9 1808 1809
475 9 1808 1810
476 4 481 482
477 7 481 493
478 7 481 494
479 2 480 481
480 3 480 486
481 3 479 480
482 6 479 492
483 3 509 510
484 6 509 522
485 3 478 479
486 6 478 491
487 7 197 211
488 7 197 212
489 7 197 213
490 3 508 509
491 3 508 518
492 2 507 508
493 1 507 537
494 5 507 521
495 7 196 208
496 7 196 209
497 7 196 210
498 3 477 478
499 3 477 487
500 3 510 511
501 6 510 523
502 6 518 536
503 2 445 446
504 1 445 475
505 5 445 459
506 3 446 447
507 3 446 456
508 2 476 477
509 1 476 506
510 5 476 490
511 1 475 476
512 5 475 488
513 5 475 489
514 1 444 445
515 5 444 457
516 5 444 458
517 1 506 507
518 5 506 519
519 5 506 520
520 3 447 448
521 6 447 460
522 8 1681 1682
523 3 448 449
524 6 448 461
525 8 1679 1680
526 7 392 408
527 7 392 409
528 7 392 410
529 9 1799 1800
530 9 1799 1801
531 4 389 390
532 4 389 391
533 4 389 392
534 7 391 405
535 7 391 406
536 7 391 407
537 9 1706 1707
538 9 1706 1708
539 7 289 302
540 7 289 303
541 7 289 304
542 4 288 289
543 4 288 290
544 4 288 291
545 9 1796 1797
546 9 1796 1798
547 8 1593 1594
548 7 484 498
549 7 484 499
550 7 484 500
551 4 1242 1243
552 4 1242 1244
553 4 1242 1245
554 4 1241 1242
555 7 1241 1254
556 7 1241 1255
557 8 1687 1688
558 7 1244 1259
559 7 1244 1260
560 7 1244 1261
561 7 360 374
562 7 360 375
563 7 360 376
564 4 357 358
565 7 357 369
566 7 357 370
567 2 356 357
568 3 356 362
569 3 362 363
570 6 362 380
571 4 358 359
572 4 358 360
573 4 358 361
574 7 361 377
575 7 361 378
576 7 361 379
577 6 363 381
578 3 355 356
579 6 355 368
580 4 1087 1088
581 4 1087 1089
582 4 1087 1090
583 7 359 371
584 7 359 372
585 7 359 373
586 3 416 417
587 6 416 429
588 2 414 415
589 1 414 444
590 5 414 428
591 3 415 416
592 3 415 425
593 8 1649 1650
594 7 1090 1106
595 7 1090 1107
596 7 1090 1108
597 1 413 414
598 5 413 426
599 5 413 427
600 2 383 384
601 1 383 413
602 5 383 397
603 3 384 385
604 3 384 394
605 6 394 412
606 3 385 386
607 6 385 398
608 1 382 383
609 5 382 395
610 5 382 396
611 3 354 355
612 6 354 367
613 3 353 354
614 3 353 363
615 3 386 387
616 6 386 399
617 7 390 402
618 7 390 403
619 7 390 404
620 3 393 394
621 6 393 411
622 4 388 389
623 7 388 400
624 7 388 401
625 2 387 388
626 3 387 393
627 7 1243 1256
628 7 1243 1257
629 7 1243 1258
630 4 1180 1181
631 4 1180 1182
632 4 1180 1183
633 7 1181 1193
634 7 1181 1194
635 7 1181 1195
636 7 1183 1199
637 7 1183 1200
638 7 1183 1201
639 7 1182 1196
640 7 1182 1197
641 7 1182 1198
642 8 1671 1672
643 9 1805 1806
644 9 1805 1807
645 5 14 313
646 5 14 314
647 5 14 315
648 1 1 2
649 1 1 14
650 5 1 15
651 5 1 16
652 7 1088 1100
653 7 1088 1101
654 7 1088 1102
655 7 996 1010
656 7 996 1011
657 7 996 1012
658 4 994 995
659 4 994 996
660 4 994 997
661 7 328 343
662 7 328 344
663 7 328 345
664 7 329 346
665 7 329 347
666 7 329 348
667 4 326 327
668 4 326 328
669 4 326 329
670 8 1591 1592
671 7 997 1013
672 7 997 1014
673 7 997 1015
674 7 327 340
675 7 327 341
676 7 327 342
677 4 325 326
678 7 325 338
679 7 325 339
680 2 324 325
681 3 324 330
682 9 1838 1839
683 9 1838 1840
684 8 1633 1634
685 3 602 603
686 6 602 616
687 3 603 604
688 6 603 617
689 7 259 273
690 7 259 274
691 7 259 275
692 2 604 605
693 3 604 610
694 4 256 257
695 7 256 268
696 7 256 269
697 7 260 276
698 7 260 277
699 7 260 278
700 7 608 623
701 7 608 624
702 7 608 625
703 4 257 258
704 4 257 259
705 4 257 260
706 2 255 256
707 3 255 261
708 3 610 611
709 6 610 629
710 7 609 626
711 7 609 627
712 7 609 628
713 7 607 620
714 7 607 621
715 7 607 622
716 4 606 607
717 4 606 608
718 4 606 609
719 4 605 606
720 7 605 618
721 7 605 619
722 9 1751 1752
723 9 1751 1753
724 7 167 183
725 7 167 184
726 7 167 185
727 7 165 177
728 7 165 178
729 7 165 179
730 8 1621 1622
731 4 164 165
732 4 164 166
733 4 164 167
734 7 74 90
735 7 74 91
736 7 74 92
737 7 166 180
738 7 166 181
739 7 166 182
740 7 547 563
741 7 547 564
742 7 547 565
743 8 1647 1648
744 2 542 543
745 3 542 548
746 3 548 549
747 6 548 566
748 4 163 164
749 7 163 175
750 7 163 176
751 3 161 162
752 6 161 174
753 6 549 567
754 2 162 163
755 3 162 168
756 3 539 540
757 3 539 549
758 3 199 200
759 6 199 217
760 3 160 161
761 6 160 173
762 3 168 169
763 6 168 186
764 6 200 218
765 4 194 195
766 7 194 206
767 7 194 207
768 2 193 194
769 3 193 199
770 3 601 602
771 3 601 611
772 3 254 255
773 6 254 267
774 6 611 630
775 2 600 601
776 1 600 614
777 5 600 615
778 3 570 571
779 3 570 580
780 2 569 570
781 1 569 599
782 5 569 583
783 1 599 600
784 5 599 612
785 5 599 613
786 2 538 539
787 1 538 568
788 5 538 552
789 1 568 569
790 5 568 581
791 5 568 582
792 3 571 572
793 6 571 584
794 3 572 573
795 6 572 585
796 3 253 254
797 6 253 266
798 9 1787 1788
799 9 1787 1789
800 3 285 286
801 6 285 299
802 3 284 285
803 6 284 298
804 3 283 284
805 3 283 293
806 9 1832 1833
807 9 1832 1834
808 4 195 196
809 4 195 197
810 4 195 198
811 3 540 541
812 6 540 553
813 1 537 538
814 5 537 550
815 5 537 551
816 3 292 293
817 6 292 311
818 4 287 288
819 7 287 300
820 7 287 301
821 2 286 287
822 3 286 292
823 6 293 312
824 7 290 305
825 7 290 306
826 7 290 307
827 7 9 22
828 7 9 23
829 7 9 24
830 4 8 9
831 4 8 10
832 4 8 11
833 7 11 28
834 7 11 29
835 7 11 30
836 9 1754 1755
837 9 1754 1756
838 9 1793 1794
839 9 1793 1795
840 7 10 25
841 7 10 26
842 7 10 27
843 8 1645 1646
844 9 1778 1779
845 9 1778 1780
846 2 511 512
847 3 511 517
848 7 516 532
849 7 516 533
850 7 516 534
851 4 512 513
852 7 512 524
853 7 512 525
854 3 517 518
855 6 517 535
856 4 513 514
857 4 513 515
858 4 513 516
859 7 514 526
860 7 514 527
861 7 514 528
862 7 515 529
863 7 515 530
864 7 515 531
865 8 1667 1668
866 7 227 239
867 7 227 240
868 7 227 241
869 7 229 245
870 7 229 246
871 7 229 247
872 3 230 231
873 6 230 248
874 4 226 227
875 4 226 228
876 4 226 229
877 7 228 242
878 7 228 243
879 7 228 244
880 2 224 225
881 3 224 230
882 4 225 226
883 7 225 237
884 7 225 238
885 3 827 828
886 6 827 840
887 3 826 827
888 3 826 836
889 3 223 224
890 6 223 236
891 3 828 829
892 6 828 841
893 2 825 826
894 1 825 855
895 5 825 839
896 1 824 825
897 5 824 837
898 5 824 838
899 6 231 249
900 8 1659 1660
901 2 829 830
902 3 829 835
903 3 835 836
904 6 835 853
905 6 836 854
906 9 1835 1836
907 9 1835 1837
908 4 830 831
909 7 830 842
910 7 830 843
911 9 1781 1782
912 9 1781 1783
913 7 1315 1331
914 7 1315 1332
915 7 1315 1333
916 4 1311 1312
917 7 1311 1323
918 7 1311 1324
919 4 1312 1313
920 4 1312 1314
921 4 1312 1315
922 7 1314 1328
923 7 1314 1329
924 7 1314 1330
925 8 1637 1638
926 9 1757 1758
927 9 1757 1759
928 3 1316 1317
929 6 1316 1334
930 3 3 4
931 3 3 13
932 3 4 5
933 6 4 18
934 3 12 13
935 6 12 31
936 6 13 32
937 3 5 6
938 6 5 19
939 2 6 7
940 3 6 12
941 4 7 8
942 7 7 20
943 7 7 21
944 3 37 38
945 6 37 50
946 7 42 56
947 7 42 57
948 7 42 58
949 9 1724 1725
950 9 1724 1726
951 8 1677 1678
952 3 330 331
953 6 330 349
954 6 331 350
955 3 321 322
956 3 321 331
957 7 41 53
958 7 41 54
959 7 41 55
960 2 38 39
961 3 38 44
962 4 40 41
963 4 40 42
964 4 40 43
965 4 39 40
966 7 39 51
967 7 39 52
968 8 1665 1666
969 2 352 353
970 1 352 382
971 5 352 366
972 1 351 352
973 5 351 364
974 5 351 365
975 2 320 321
976 1 320 351
977 5 320 335
978 1 319 320
979 1 319 332
980 5 319 333
981 5 319 334
982 7 833 847
983 7 833 848
984 7 833 849
985 9 1784 1785
986 9 1784 1786
987 5 332 631
988 5 332 632
989 5 332 633
990 3 889 890
991 6 889 902
992 3 890 891
993 6 890 903
994 7 832 844
995 7 832 845
996 7 832 846
997 4 831 832
998 4 831 833
999 4 831 834
1000 7 834 850
1001 7 834 851
1002 7 834 852
1003 8 1669 1670
1004 9 1817 1818
1005 9 1817 1819
1006 7 895 909
1007 7 895 910
1008 7 895 911
1009 2 2 3
1010 1 2 33
1011 5 2 17
1012 1 33 34
1013 5 33 46
1014 5 33 47
1015 2 34 35
1016 1 34 64
1017 5 34 48
1018 3 66 67
1019 3 66 76
1020 1 64 65
1021 5 64 77
1022 5 64 78
1023 3 35 36
1024 3 35 45
1025 3 36 37
1026 6 36 49
1027 9 1709 1710
1028 9 1709 1711
1029 2 65 66
1030 1 65 95
1031 5 65 79
1032 9 1820 1821
1033 9 1820 1822
1034 8 1619 1620
1035 3 322 323
1036 6 322 336
1037 3 323 324
1038 6 323 337
1039 1 95 96
1040 5 95 108
1041 5 95 109
1042 1 157 158
1043 5 157 170
1044 5 157 171
1045 6 45 63
1046 2 127 128
1047 1 127 157
1048 5 127 141
1049 2 96 97
1050 1 96 126
1051 5 96 110
1052 1 126 127
1053 5 126 139
1054 5 126 140
1055 3 44 45
1056 6 44 62
1057 7 1057 1069
1058 7 1057 1070
1059 7 1057 1071
1060 9 1691 1692
1061 9 1691 1693
1062 8 1653 1654
1063 7 258 270
1064 7 258 271
1065 7 258 272
1066 3 129 130
1067 6 129 142
1068 3 128 129
1069 3 128 138
1070 3 130 131
1071 6 130 143
1072 2 131 132
1073 3 131 137
1074 4 132 133
1075 7 132 144
1076 7 132 145
1077 7 135 149
1078 7 135 150
1079 7 135 151
1080 4 133 134
1081 4 133 135
1082 4 133 136
1083 3 137 138
1084 6 137 155
1085 9 1730 1731
1086 9 1730 1732
1087 7 134 146
1088 7 134 147
1089 7 134 148
1090 6 138 156
1091 7 1059 1075
1092 7 1059 1076
1093 7 1059 1077
1094 4 1056 1057
1095 4 1056 1058
1096 4 1056 1059
1097 7 136 152
1098 7 136 153
1099 7 136 154
1100 9 1745 1746
1101 9 1745 1747
1102 9 1721 1722
1103 9 1721 1723
1104 3 67 68
1105 6 67 80
1106 6 76 94
1107 3 68 69
1108 6 68 81
1109 7 73 87
1110 7 73 88
1111 7 73 89
1112 4 70 71
1113 7 70 82
1114 7 70 83
1115 3 75 76
1116 6 75 93
1117 4 71 72
1118 4 71 73
1119 4 71 74
1120 2 69 70
1121 3 69 75
1122 7 72 84
1123 7 72 85
1124 7 72 86
1125 9 1811 1812
1126 9 1811 1813
1127 7 1408 1424
1128 7 1408 1425
1129 7 1408 1426
1130 3 159 160
1131 3 159 169
1132 6 169 187
1133 3 192 193
1134 6 192 205
1135 3 191 192
1136 6 191 204
1137 2 158 159
1138 1 158 188
1139 5 158 172
1140 3 190 191
1141 3 190 200
1142 3 98 99
1143 6 98 111
1144 3 97 98
1145 3 97 107
1146 3 99 100
1147 6 99 112
1148 6 107 125
1149 1 188 189
1150 5 188 201
1151 5 188 202
1152 2 100 101
1153 3 100 106
1154 4 102 103
1155 4 102 104
1156 4 102 105
1157 3 106 107
1158 6 106 124
1159 7 103 115
1160 7 103 116
1161 7 103 117
1162 2 189 190
1163 1 189 219
1164 5 189 203
1165 3 261 262
1166 6 261 279
1167 1 219 220
1168 5 219 232
1169 5 219 233
1170 1 250 251
1171 5 250 263
1172 5 250 264
1173 6 262 280
1174 2 220 221
1175 1 220 250
1176 5 220 234
1177 3 252 253
1178 3 252 262
1179 2 251 252
1180 1 251 281
1181 5 251 265
1182 3 796 797
1183 6 796 809
1184 3 797 798
1185 6 797 810
1186 3 795 796
1187 3 795 805
1188 8 1607 1608
1189 1 281 282
1190 5 281 294
1191 5 281 295
1192 2 282 283
1193 1 282 296
1194 5 282 297
1195 5 296 316
1196 5 296 317
1197 5 296 318
1198 9 1700 1701
1199 9 1700 1702
1200 1 793 794
1201 5 793 806
1202 5 793 807
1203 9 1790 1791
1204 9 1790 1792
1205 9 1739 1740
1206 9 1739 1741
1207 7 1406 1418
1208 7 1406 1419
1209 7 1406 1420
1210 4 1405 1406
1211 4 1405 1407
1212 4 1405 1408
1213 9 1826 1827
1214 9 1826 1828
1215 8 1675 1676
1216 7 104 118
1217 7 104 119
1218 7 104 120
1219 3 221 222
1220 3 221 231
1221 3 222 223
1222 6 222 235
1223 2 794 795
1224 1 794 824
1225 5 794 808
1226 1 1336 1337
1227 5 1336 1349
1228 5 1336 1350
1229 2 1337 1338
1230 1 1337 1367
1231 5 1337 1351
1232 1 1398 1399
1233 5 1398 1411
1234 5 1398 1412
1235 1 1367 1368
1236 5 1367 1380
1237 5 1367 1381
1238 2 1368 1369
1239 1 1368 1398
1240 5 1368 1382
1241 3 1369 1370
1242 3 1369 1379
1243 3 1338 1339
1244 3 1338 1348
1245 5 932 952
1246 5 932 953
1247 5 932 954
1248 7 1121 1137
1249 7 1121 1138
1250 7 1121 1139
1251 4 1529 1530
1252 4 1529 1531
1253 4 1529 1532
1254 2 918 919
1255 1 918 932
1256 5 918 933
1257 3 920 921
1258 6 920 934
1259 7 1531 1545
1260 7 1531 1546
1261 7 1531 1547
1262 8 1661 1662
1263 4 1528 1529
1264 7 1528 1540
1265 7 1528 1541
1266 7 1532 1548
1267 7 1532 1549
1268 7 1532 1550
1269 1 917 918
1270 5 917 930
1271 5 917 931
1272 1 886 887
1273 5 886 899
1274 5 886 900
1275 2 887 888
1276 1 887 917
1277 5 887 901
1278 2 856 857
1279 1 856 886
1280 5 856 870
1281 3 857 858
1282 3 857 867
1283 1 855 856
1284 5 855 868
1285 5 855 869
1286 6 867 885
1287 3 858 859
1288 6 858 871
1289 3 866 867
1290 6 866 884
1291 3 859 860
1292 6 859 872
1293 2 860 861
1294 3 860 866
1295 3 888 889
1296 3 888 898
1297 7 1313 1325
1298 7 1313 1326
1299 7 1313 1327
1300 8 1643 1644
1301 3 1309 1310
1302 6 1309 1322
1303 2 1310 1311
1304 3 1310 1316
1305 7 771 785
1306 7 771 786
1307 7 771 787
1308 7 772 788
1309 7 772 789
1310 7 772 790
1311 4 769 770
1312 4 769 771
1313 4 769 772
1314 3 1308 1309
1315 6 1308 1321
1316 8 1657 1658
1317 4 768 769
1318 7 768 780
1319 7 768 781
1320 7 770 782
1321 7 770 783
1322 7 770 784
1323 3 1339 1340
1324 6 1339 1352
1325 6 1317 1335
1326 3 1307 1308
1327 3 1307 1317
1328 7 1120 1134
1329 7 1120 1135
1330 7 1120 1136
1331 2 1306 1307
1332 1 1306 1336
1333 5 1306 1320
1334 4 1210 1211
1335 7 1210 1222
1336 7 1210 1223
1337 1 1305 1306
1338 5 1305 1318
1339 5 1305 1319
1340 2 1209 1210
1341 3 1209 1215
1342 3 1208 1209
1343 6 1208 1221
1344 3 1215 1216
1345 6 1215 1233
1346 7 43 59
1347 7 43 60
1348 7 43 61
1349 3 921 922
1350 6 921 935
1351 4 1118 1119
1352 4 1118 1120
1353 4 1118 1121
1354 4 1117 1118
1355 7 1117 1129
1356 7 1117 1130
1357 7 1119 1131
1358 7 1119 1132
1359 7 1119 1133
1360 8 1599 1600
1361 3 1115 1116
1362 6 1115 1128
1363 2 1116 1117
1364 3 1116 1122
1365 3 1114 1115
1366 6 1114 1127
1367 3 919 920
1368 3 919 929
1369 6 929 948
1370 3 928 929
1371 6 928 947
1372 3 1122 1123
1373 6 1122 1140
1374 6 898 916
1375 4 1055 1056
1376 7 1055 1067
1377 7 1055 1068
1378 3 897 898
1379 6 897 915
1380 2 891 892
1381 3 891 897
1382 4 892 893
1383 7 892 904
1384 7 892 905
1385 2 922 923
1386 3 922 928
1387 9 1769 1770
1388 9 1769 1771
1389 4 923 924
1390 7 923 936
1391 7 923 937
1392 7 925 938
1393 7 925 939
1394 7 925 940
1395 3 1060 1061
1396 6 1060 1078
1397 7 894 906
1398 7 894 907
1399 7 894 908
1400 4 893 894
1401 4 893 895
1402 4 893 896
1403 7 896 912
1404 7 896 913
1405 7 896 914
1406 6 1285 1304
1407 3 1284 1285
1408 6 1284 1303
1409 3 1275 1276
1410 3 1275 1285
1411 3 1276 1277
1412 6 1276 1290
1413 2 1278 1279
1414 3 1278 1284
1415 9 1748 1749
1416 9 1748 1750
1417 7 1282 1297
1418 7 1282 1298
1419 7 1282 1299
1420 3 1277 1278
1421 6 1277 1291
1422 5 1286 1585
1423 5 1286 1586
1424 5 1286 1587
1425 1 1273 1274
1426 1 1273 1286
1427 5 1273 1287
1428 5 1273 1288
1429 2 1274 1275
1430 1 1274 1305
1431 5 1274 1289
1432 7 1213 1227
1433 7 1213 1228
1434 7 1213 1229
1435 7 1469 1483
1436 7 1469 1484
1437 7 1469 1485
1438 4 1466 1467
1439 7 1466 1478
1440 7 1466 1479
1441 4 1211 1212
1442 4 1211 1213
1443 4 1211 1214
1444 7 1214 1230
1445 7 1214 1231
1446 7 1214 1232
1447 7 1212 1224
1448 7 1212 1225
1449 7 1212 1226
1450 8 1629 1630
1451 4 1467 1468
1452 4 1467 1469
1453 4 1467 1470
1454 7 1500 1514
1455 7 1500 1515
1456 7 1500 1516
1457 7 1499 1511
1458 7 1499 1512
1459 7 1499 1513
1460 7 1501 1517
1461 7 1501 1518
1462 7 1501 1519
1463 4 1498 1499
1464 4 1498 1500
1465 4 1498 1501
1466 4 1497 1498
1467 7 1497 1509
1468 7 1497 1510
1469 2 1496 1497
1470 3 1496 1502
1471 3 1495 1496
1472 6 1495 1508
1473 3 1494 1495
1474 6 1494 1507
1475 3 1502 1503
1476 6 1502 1520
1477 3 1053 1054
1478 6 1053 1066
1479 8 1613 1614
1480 3 1052 1053
1481 6 1052 1065
1482 6 1503 1521
1483 2 1054 1055
1484 3 1054 1060
1485 7 1058 1072
1486 7 1058 1073
1487 7 1058 1074
1488 7 740 754
1489 7 740 755
1490 7 740 756
1491 4 738 739
1492 4 738 740
1493 4 738 741
1494 7 739 751
1495 7 739 752
1496 7 739 753
1497 2 736 737
1498 3 736 742
1499 7 741 757
1500 7 741 758
1501 7 741 759
1502 3 735 736
1503 6 735 748
1504 4 737 738
1505 7 737 749
1506 7 737 750
1507 9 1718 1719
1508 9 1718 1720
1509 6 1061 1079
1510 3 1051 1052
1511 3 1051 1061
1512 9 1823 1824
1513 9 1823 1825
1514 9 1742 1743
1515 9 1742 1744
1516 8 1615 1616
1517 6 712 730
1518 1 637 638
1519 1 637 650
1520 5 637 651
1521 5 637 652
1522 2 670 671
1523 1 670 700
1524 5 670 684
1525 3 711 712
1526 6 711 729
1527 5 650 949
1528 5 650 950
1529 5 650 951
1530 1 669 670
1531 5 669 682
1532 5 669 683
1533 2 638 639
1534 1 638 669
1535 5 638 653
1536 2 1465 1466
1537 3 1465 1471
1538 7 1470 1486
1539 7 1470 1487
1540 7 1470 1488
1541 3 1464 1465
1542 6 1464 1477
1543 7 1468 1480
1544 7 1468 1481
1545 7 1468 1482
1546 6 1441 1459
1547 3 1431 1432
1548 3 1431 1441
1549 3 1463 1464
1550 6 1463 1476
1551 3 1471 1472
1552 6 1471 1489
1553 2 1430 1431
1554 1 1430 1460
1555 5 1430 1444
1556 3 1440 1441
1557 6 1440 1458
1558 4 101 102
1559 7 101 113
1560 7 101 114
1561 6 1472 1490
1562 8 1605 1606
1563 3 1462 1463
1564 3 1462 1472
1565 1 1460 1461
1566 5 1460 1473
1567 5 1460 1474
1568 2 1461 1462
1569 1 1461 1491
1570 5 1461 1475
1571 3 1493 1494
1572 3 1493 1503
1573 7 801 813
1574 7 801 814
1575 7 801 815
1576 7 802 816
1577 7 802 817
1578 7 802 818
1579 3 804 805
1580 6 804 822
1581 4 799 800
1582 7 799 811
1583 7 799 812
1584 2 798 799
1585 3 798 804
1586 4 800 801
1587 4 800 802
1588 4 800 803
1589 7 803 819
1590 7 803 820
1591 7 803 821
1592 3 742 743
1593 6 742 760
1594 6 743 761
1595 8 1625 1626
1596 6 774 792
1597 1 700 701
1598 5 700 713
1599 5 700 714
1600 3 734 735
1601 6 734 747
1602 3 702 703
1603 3 702 712
1604 1 762 763
1605 5 762 775
1606 5 762 776
1607 2 763 764
1608 1 763 793
1609 5 763 777
1610 1 731 732
1611 5 731 744
1612 5 731 745
1613 2 732 733
1614 1 732 762
1615 5 732 746
1616 3 733 734
1617 3 733 743
1618 3 764 765
1619 3 764 774
1620 3 765 766
1621 6 765 778
1622 2 701 702
1623 1 701 731
1624 5 701 715
1625 7 1407 1421
1626 7 1407 1422
1627 7 1407 1423
1628 3 703 704
1629 6 703 716
1630 3 671 672
1631 3 671 681
1632 3 680 681
1633 6 680 698
1634 8 1641 1642
1635 6 681 699
1636 3 1409 1410
1637 6 1409 1427
1638 6 1410 1428
1639 2 1403 1404
1640 3 1403 1409
1641 1 1429 1430
1642 5 1429 1442
1643 5 1429 1443
1644 3 1400 1401
1645 3 1400 1410
1646 3 1402 1403
1647 6 1402 1415
1648 3 1401 1402
1649 6 1401 1414
1650 2 1399 1400
1651 1 1399 1429
1652 5 1399 1413
1653 7 105 121
1654 7 105 122
1655 7 105 123
1656 7 1530 1542
1657 7 1530 1543
1658 7 1530 1544
1659 6 805 823
1660 8 1603 1604
1661 3 773 774
1662 6 773 791
1663 2 767 768
1664 3 767 773
1665 3 766 767
1666 6 766 779
1667 7 678 692
1668 7 678 693
1669 7 678 694
1670 4 1404 1405
1671 7 1404 1416
1672 7 1404 1417
1673 6 1348 1366
1674 6 1379 1397
1675 3 1370 1371
1676 6 1370 1383
1677 7 1561 1574
1678 7 1561 1575
1679 7 1561 1576
1680 7 1563 1580
1681 7 1563 1581
1682 7 1563 1582
1683 8 1639 1640
1684 4 861 862
1685 7 861 873
1686 7 861 874
1687 7 863 875
1688 7 863 876
1689 7 863 877
1690 3 1340 1341
1691 6 1340 1353
1692 3 1206 1207
1693 3 1206 1216
1694 6 1216 1234
1695 3 1207 1208
1696 6 1207 1220
1697 2 1112 1113
1698 1 1112 1142
1699 5 1112 1126
1700 6 1123 1141
1701 3 1113 1114
1702 3 1113 1123
1703 7 927 944
1704 7 927 945
1705 7 927 946
1706 4 924 925
1707 4 924 926
1708 4 924 927
1709 8 1597 1598
1710 7 1283 1300
1711 7 1283 1301
1712 7 1283 1302
1713 7 1281 1294
1714 7 1281 1295
1715 7 1281 1296
1716 4 1280 1281
1717 4 1280 1282
1718 4 1280 1283
1719 4 1279 1280
1720 7 1279 1292
1721 7 1279 1293
1722 1 1111 1112
1723 5 1111 1124
1724 5 1111 1125
1725 1 1080 1081
1726 5 1080 1093
1727 5 1080 1094
1728 1 1142 1143
1729 5 1142 1155
1730 5 1142 1156
1731 2 1050 1051
1732 1 1050 1080
1733 5 1050 1064
1734 1 1049 1050
1735 5 1049 1062
1736 5 1049 1063
1737 7 709 723
1738 7 709 724
1739 7 709 725
1740 6 649 668
1741 2 705 706
1742 3 705 711
1743 3 640 641
1744 6 640 654
1745 3 639 640
1746 3 639 649
1747 3 1433 1434
1748 6 1433 1446
1749 7 1437 1449
1750 7 1437 1450
1751 7 1437 1451
1752 2 1434 1435
1753 3 1434 1440
1754 3 1432 1433
1755 6 1432 1445
1756 3 1525 1526
1757 6 1525 1538
1758 6 1534 1552
1759 2 1492 1493
1760 1 1492 1522
1761 5 1492 1506
1762 1 1491 1492
1763 5 1491 1504
1764 5 1491 1505
1765 5 968 1267
1766 5 968 1268
1767 5 968 1269
1768 3 1533 1534
1769 6 1533 1551
1770 3 672 673
1771 6 672 685
1772 3 704 705
1773 6 704 717
1774 7 677 689
1775 7 677 690
1776 7 677 691
1777 2 674 675
1778 3 674 680
1779 2 1527 1528
1780 3 1527 1533
1781 3 1526 1527
1782 6 1526 1539
1783 4 676 677
1784 4 676 678
1785 4 676 679

Angles

1 4 1370 1371 1372
2 9 1370 1371 1384
3 9 1372 1371 1384
4 7 1236 1250 1270
5 7 1236 1250 1271
6 7 1236 1250 1272
7 12 1270 1250 1271
8 12 1270 1250 1272
9 12 1271 1250 1272
10 11 1343 1344 1356
11 11 1343 1344 1357
12 11 1343 1344 1358
13 13 1356 1344 1357
14 13 1356 1344 1358
15 13 1357 1344 1358
16 3 1371 1372 1373
17 4 1371 1372 1378
18 3 1373 1372 1378
19 14 1776 1775 1777
20 5 1372 1373 1374
21 10 1372 1373 1385
22 10 1372 1373 1386
23 11 1374 1373 1385
24 11 1374 1373 1386
25 13 1385 1373 1386
26 14 1764 1763 1765
27 11 482 485 501
28 11 482 485 502
29 11 482 485 503
30 13 501 485 502
31 13 501 485 503
32 13 502 485 503
33 4 1341 1347 1348
34 9 1341 1347 1365
35 9 1348 1347 1365
36 4 1372 1378 1379
37 9 1372 1378 1396
38 9 1379 1378 1396
39 6 1559 1560 1561
40 6 1559 1560 1562
41 6 1559 1560 1563
42 6 1561 1560 1562
43 6 1561 1560 1563
44 6 1562 1560 1563
45 5 1558 1559 1560
46 10 1558 1559 1572
47 10 1558 1559 1573
48 11 1560 1559 1572
49 11 1560 1559 1573
50 13 1572 1559 1573
51 3 1557 1558 1559
52 4 1557 1558 1564
53 3 1559 1558 1564
54 4 1558 1564 1565
55 9 1558 1564 1583
56 9 1565 1564 1583
57 11 420 423 439
58 11 420 423 440
59 11 420 423 441
60 13 439 423 440
61 13 439 423 441
62 13 440 423 441
63 11 482 483 495
64 11 482 483 496
65 11 482 483 497
66 13 495 483 496
67 13 495 483 497
68 13 496 483 497
69 4 1556 1557 1558
70 9 1556 1557 1571
71 9 1558 1557 1571
72 6 481 482 483
73 6 481 482 484
74 6 481 482 485
75 6 483 482 484
76 6 483 482 485
77 6 484 482 485
78 4 480 486 487
79 9 480 486 504
80 9 487 486 504
81 6 419 420 421
82 6 419 420 422
83 6 419 420 423
84 6 421 420 422
85 6 421 420 423
86 6 422 420 423
87 4 477 487 486
88 9 477 487 505
89 9 486 487 505
90 11 1560 1562 1577
91 11 1560 1562 1578
92 11 1560 1562 1579
93 13 1577 1562 1578
94 13 1577 1562 1579
95 13 1578 1562 1579
96 6 861 862 863
97 6 861 862 864
98 6 861 862 865
99 6 863 862 864
100 6 863 862 865
101 6 864 862 865
102 11 862 865 881
103 11 862 865 882
104 11 862 865 883
105 13 881 865 882
106 13 881 865 883
107 13 882 865 883
108 11 862 864 878
109 11 862 864 879
110 11 862 864 880
111 13 878 864 879
112 13 878 864 880
113 13 879 864 880
114 11 420 421 433
115 11 420 421 434
116 11 420 421 435
117 13 433 421 434
118 13 433 421 435
119 13 434 421 435
120 11 420 422 436
121 11 420 422 437
122 11 420 422 438
123 13 436 422 437
124 13 436 422 438
125 13 437 422 438
126 4 449 455 456
127 9 449 455 473
128 9 456 455 473
129 4 446 456 455
130 9 446 456 474
131 9 455 456 474
132 11 575 577 591
133 11 575 577 592
134 11 575 577 593
135 13 591 577 592
136 13 591 577 593
137 13 592 577 593
138 6 574 575 576
139 6 574 575 577
140 6 574 575 578
141 6 576 575 577
142 6 576 575 578
143 6 577 575 578
144 11 451 453 467
145 11 451 453 468
146 11 451 453 469
147 13 467 453 468
148 13 467 453 469
149 13 468 453 469
150 11 575 576 588
151 11 575 576 589
152 11 575 576 590
153 13 588 576 589
154 13 588 576 590
155 13 589 576 590
156 6 450 451 452
157 6 450 451 453
158 6 450 451 454
159 6 452 451 453
160 6 452 451 454
161 6 453 451 454
162 14 1734 1733 1735
163 3 448 449 450
164 4 448 449 455
165 3 450 449 455
166 11 451 454 470
167 11 451 454 471
168 11 451 454 472
169 13 470 454 471
170 13 470 454 472
171 13 471 454 472
172 11 575 578 594
173 11 575 578 595
174 11 575 578 596
175 13 594 578 595
176 13 594 578 596
177 13 595 578 596
178 11 1343 1346 1362
179 11 1343 1346 1363
180 11 1343 1346 1364
181 13 1362 1346 1363
182 13 1362 1346 1364
183 13 1363 1346 1364
184 11 1343 1345 1359
185 11 1343 1345 1360
186 11 1343 1345 1361
187 13 1359 1345 1360
188 13 1359 1345 1361
189 13 1360 1345 1361
190 3 1340 1341 1342
191 4 1340 1341 1347
192 3 1342 1341 1347
193 6 1342 1343 1344
194 6 1342 1343 1345
195 6 1342 1343 1346
196 6 1344 1343 1345
197 6 1344 1343 1346
198 6 1345 1343 1346
199 5 1341 1342 1343
200 10 1341 1342 1354
201 10 1341 1342 1355
202 11 1343 1342 1354
203 11 1343 1342 1355
204 13 1354 1342 1355
205 1 1235 1236 1237
206 2 1235 1236 1250
207 1 1237 1236 1250
208 7 1235 1236 1251
209 8 1237 1236 1251
210 7 1250 1236 1251
211 2 1205 1235 1236
212 7 1205 1235 1248
213 7 1205 1235 1249
214 7 1236 1235 1248
215 7 1236 1235 1249
216 12 1248 1235 1249
217 1 1204 1205 1206
218 2 1204 1205 1235
219 1 1206 1205 1235
220 7 1204 1205 1219
221 8 1206 1205 1219
222 7 1219 1205 1235
223 1 1173 1174 1175
224 2 1173 1174 1204
225 1 1175 1174 1204
226 7 1173 1174 1188
227 8 1175 1174 1188
228 7 1188 1174 1204
229 2 1174 1204 1205
230 7 1174 1204 1217
231 7 1174 1204 1218
232 7 1205 1204 1217
233 7 1205 1204 1218
234 12 1217 1204 1218
235 2 1143 1173 1174
236 7 1143 1173 1186
237 7 1143 1173 1187
238 7 1174 1173 1186
239 7 1174 1173 1187
240 12 1186 1173 1187
241 3 1236 1237 1238
242 3 1236 1237 1247
243 4 1238 1237 1247
244 4 1237 1247 1246
245 9 1237 1247 1266
246 9 1246 1247 1266
247 4 1237 1238 1239
248 9 1237 1238 1252
249 9 1239 1238 1252
250 4 1175 1185 1184
251 9 1175 1185 1203
252 9 1184 1185 1203
253 4 1240 1246 1247
254 9 1240 1246 1265
255 9 1247 1246 1265
256 3 1239 1240 1241
257 4 1239 1240 1246
258 3 1241 1240 1246
259 5 418 419 420
260 10 418 419 431
261 10 418 419 432
262 11 420 419 431
263 11 420 419 432
264 13 431 419 432
265 4 1082 1092 1091
266 9 1082 1092 1110
267 9 1091 1092 1110
268 3 1084 1085 1086
269 4 1084 1085 1091
270 3 1086 1085 1091
271 4 1085 1091 1092
272 9 1085 1091 1109
273 9 1092 1091 1109
274 4 1238 1239 1240
275 9 1238 1239 1253
276 9 1240 1239 1253
277 5 1085 1086 1087
278 10 1085 1086 1098
279 10 1085 1086 1099
280 11 1087 1086 1098
281 11 1087 1086 1099
282 13 1098 1086 1099
283 4 416 417 418
284 9 416 417 430
285 9 418 417 430
286 11 1242 1245 1262
287 11 1242 1245 1263
288 11 1242 1245 1264
289 13 1262 1245 1263
290 13 1262 1245 1264
291 13 1263 1245 1264
292 11 924 926 941
293 11 924 926 942
294 11 924 926 943
295 13 941 926 942
296 13 941 926 943
297 13 942 926 943
298 11 1025 1027 1041
299 11 1025 1027 1042
300 11 1025 1027 1043
301 13 1041 1027 1042
302 13 1041 1027 1043
303 13 1042 1027 1043
304 6 1024 1025 1026
305 6 1024 1025 1027
306 6 1024 1025 1028
307 6 1026 1025 1027
308 6 1026 1025 1028
309 6 1027 1025 1028
310 5 1023 1024 1025
311 10 1023 1024 1036
312 10 1023 1024 1037
313 11 1025 1024 1036
314 11 1025 1024 1037
315 13 1036 1024 1037
316 4 418 424 425
317 9 418 424 442
318 9 425 424 442
319 3 417 418 419
320 4 417 418 424
321 3 419 418 424
322 4 415 425 424
323 9 415 425 443
324 9 424 425 443
325 11 1087 1089 1103
326 11 1087 1089 1104
327 11 1087 1089 1105
328 13 1103 1089 1104
329 13 1103 1089 1105
330 13 1104 1089 1105
331 11 1025 1028 1044
332 11 1025 1028 1045
333 11 1025 1028 1046
334 13 1044 1028 1045
335 13 1044 1028 1046
336 13 1045 1028 1046
337 11 1025 1026 1038
338 11 1025 1026 1039
339 11 1025 1026 1040
340 13 1038 1026 1039
341 13 1038 1026 1040
342 13 1039 1026 1040
343 11 451 452 464
344 11 451 452 465
345 11 451 452 466
346 13 464 452 465
347 13 464 452 466
348 13 465 452 466
349 5 449 450 451
350 10 449 450 462
351 10 449 450 463
352 11 451 450 462
353 11 451 450 463
354 13 462 450 463
355 14 1803 1802 1804
356 14 1815 1814 1816
357 3 1174 1175 1176
358 3 1174 1175 1185
359 4 1176 1175 1185
360 1 1142 1143 1144
361 2 1142 1143 1173
362 1 1144 1143 1173
363 7 1142 1143 1157
364 8 1144 1143 1157
365 7 1157 1143 1173
366 4 1175 1176 1177
367 9 1175 1176 1189
368 9 1177 1176 1189
369 4 1176 1177 1178
370 9 1176 1177 1190
371 9 1178 1177 1190
372 14 1716 1715 1717
373 3 1143 1144 1145
374 3 1143 1144 1154
375 4 1145 1144 1154
376 4 1144 1145 1146
377 9 1144 1145 1158
378 9 1146 1145 1158
379 4 1145 1146 1147
380 9 1145 1146 1159
381 9 1147 1146 1159
382 3 1177 1178 1179
383 4 1177 1178 1184
384 3 1179 1178 1184
385 4 1178 1184 1185
386 9 1178 1184 1202
387 9 1185 1184 1202
388 5 1178 1179 1180
389 10 1178 1179 1191
390 10 1178 1179 1192
391 11 1180 1179 1191
392 11 1180 1179 1192
393 13 1191 1179 1192
394 3 1081 1082 1083
395 3 1081 1082 1092
396 4 1083 1082 1092
397 4 1083 1084 1085
398 9 1083 1084 1097
399 9 1085 1084 1097
400 1 1080 1081 1082
401 2 1080 1081 1111
402 1 1082 1081 1111
403 7 1080 1081 1095
404 8 1082 1081 1095
405 7 1095 1081 1111
406 4 1082 1083 1084
407 9 1082 1083 1096
408 9 1084 1083 1096
409 4 1144 1154 1153
410 9 1144 1154 1172
411 9 1153 1154 1172
412 3 1146 1147 1148
413 4 1146 1147 1153
414 3 1148 1147 1153
415 4 1147 1153 1154
416 9 1147 1153 1171
417 9 1154 1153 1171
418 5 1147 1148 1149
419 10 1147 1148 1160
420 10 1147 1148 1161
421 11 1149 1148 1160
422 11 1149 1148 1161
423 13 1160 1148 1161
424 6 1148 1149 1150
425 6 1148 1149 1151
426 6 1148 1149 1152
427 6 1150 1149 1151
428 6 1150 1149 1152
429 6 1151 1149 1152
430 11 1149 1152 1168
431 11 1149 1152 1169
432 11 1149 1152 1170
433 13 1168 1152 1169
434 13 1168 1152 1170
435 13 1169 1152 1170
436 5 992 993 994
437 10 992 993 1005
438 10 992 993 1006
439 11 994 993 1005
440 11 994 993 1006
441 13 1005 993 1006
442 11 994 995 1007
443 11 994 995 1008
444 11 994 995 1009
445 13 1007 995 1008
446 13 1007 995 1009
447 13 1008 995 1009
448 3 991 992 993
449 4 991 992 998
450 3 993 992 998
451 3 1022 1023 1024
452 4 1022 1023 1029
453 3 1024 1023 1029
454 4 1023 1029 1030
455 9 1023 1029 1047
456 9 1030 1029 1047
457 2 988 1018 1019
458 7 988 1018 1031
459 7 988 1018 1032
460 7 1019 1018 1031
461 7 1019 1018 1032
462 12 1031 1018 1032
463 1 1018 1019 1020
464 2 1018 1019 1049
465 1 1020 1019 1049
466 7 1018 1019 1033
467 8 1020 1019 1033
468 7 1033 1019 1049
469 4 1020 1030 1029
470 9 1020 1030 1048
471 9 1029 1030 1048
472 3 1019 1020 1021
473 3 1019 1020 1030
474 4 1021 1020 1030
475 1 987 988 989
476 2 987 988 1018
477 1 989 988 1018
478 7 987 988 1002
479 8 989 988 1002
480 7 1002 988 1018
481 3 988 989 990
482 3 988 989 999
483 4 990 989 999
484 4 1020 1021 1022
485 9 1020 1021 1034
486 9 1022 1021 1034
487 4 1021 1022 1023
488 9 1021 1022 1035
489 9 1023 1022 1035
490 4 989 990 991
491 9 989 990 1003
492 9 991 990 1003
493 4 990 991 992
494 9 990 991 1004
495 9 992 991 1004
496 5 705 706 707
497 10 705 706 718
498 10 705 706 719
499 11 707 706 718
500 11 707 706 719
501 13 718 706 719
502 6 706 707 708
503 6 706 707 709
504 6 706 707 710
505 6 708 707 709
506 6 708 707 710
507 6 709 707 710
508 11 707 710 726
509 11 707 710 727
510 11 707 710 728
511 13 726 710 727
512 13 726 710 728
513 13 727 710 728
514 11 707 708 720
515 11 707 708 721
516 11 707 708 722
517 13 720 708 721
518 13 720 708 722
519 13 721 708 722
520 14 1830 1829 1831
521 11 644 647 664
522 11 644 647 665
523 11 644 647 666
524 13 664 647 665
525 13 664 647 666
526 13 665 647 666
527 4 642 648 649
528 9 642 648 667
529 9 649 648 667
530 6 643 644 645
531 6 643 644 646
532 6 643 644 647
533 6 645 644 646
534 6 645 644 647
535 6 646 644 647
536 11 644 646 661
537 11 644 646 662
538 11 644 646 663
539 13 661 646 662
540 13 661 646 663
541 13 662 646 663
542 5 642 643 644
543 10 642 643 656
544 10 642 643 657
545 11 644 643 656
546 11 644 643 657
547 13 656 643 657
548 3 641 642 643
549 4 641 642 648
550 3 643 642 648
551 4 640 641 642
552 9 640 641 655
553 9 642 641 655
554 11 644 645 658
555 11 644 645 659
556 11 644 645 660
557 13 658 645 659
558 13 658 645 660
559 13 659 645 660
560 11 1149 1151 1165
561 11 1149 1151 1166
562 11 1149 1151 1167
563 13 1165 1151 1166
564 13 1165 1151 1167
565 13 1166 1151 1167
566 11 1436 1438 1452
567 11 1436 1438 1453
568 11 1436 1438 1454
569 13 1452 1438 1453
570 13 1452 1438 1454
571 13 1453 1438 1454
572 6 1435 1436 1437
573 6 1435 1436 1438
574 6 1435 1436 1439
575 6 1437 1436 1438
576 6 1437 1436 1439
577 6 1438 1436 1439
578 5 1434 1435 1436
579 10 1434 1435 1447
580 10 1434 1435 1448
581 11 1436 1435 1447
582 11 1436 1435 1448
583 13 1447 1435 1448
584 11 1436 1439 1455
585 11 1436 1439 1456
586 11 1436 1439 1457
587 13 1455 1439 1456
588 13 1455 1439 1457
589 13 1456 1439 1457
590 11 1374 1377 1393
591 11 1374 1377 1394
592 11 1374 1377 1395
593 13 1393 1377 1394
594 13 1393 1377 1395
595 13 1394 1377 1395
596 14 1767 1766 1768
597 14 1773 1772 1774
598 11 1374 1376 1390
599 11 1374 1376 1391
600 11 1374 1376 1392
601 13 1390 1376 1391
602 13 1390 1376 1392
603 13 1391 1376 1392
604 11 544 545 557
605 11 544 545 558
606 11 544 545 559
607 13 557 545 558
608 13 557 545 559
609 13 558 545 559
610 4 992 998 999
611 9 992 998 1016
612 9 999 998 1016
613 2 1492 1522 1523
614 7 1492 1522 1535
615 7 1492 1522 1536
616 7 1523 1522 1535
617 7 1523 1522 1536
618 12 1535 1522 1536
619 1 1522 1523 1524
620 2 1522 1523 1553
621 1 1524 1523 1553
622 7 1522 1523 1537
623 8 1524 1523 1537
624 7 1537 1523 1553
625 3 1523 1524 1525
626 3 1523 1524 1534
627 4 1525 1524 1534
628 2 1523 1553 1554
629 7 1523 1553 1566
630 7 1523 1553 1567
631 7 1554 1553 1566
632 7 1554 1553 1567
633 12 1566 1553 1567
634 3 1554 1555 1556
635 3 1554 1555 1565
636 4 1556 1555 1565
637 1 1553 1554 1555
638 2 1553 1554 1568
639 1 1555 1554 1568
640 7 1553 1554 1569
641 8 1555 1554 1569
642 7 1568 1554 1569
643 11 1149 1150 1162
644 11 1149 1150 1163
645 11 1149 1150 1164
646 13 1162 1150 1163
647 13 1162 1150 1164
648 13 1163 1150 1164
649 7 1554 1568 1588
650 7 1554 1568 1589
651 7 1554 1568 1590
652 12 1588 1568 1589
653 12 1588 1568 1590
654 12 1589 1568 1590
655 11 544 546 560
656 11 544 546 561
657 11 544 546 562
658 13 560 546 561
659 13 560 546 562
660 13 561 546 562
661 6 543 544 545
662 6 543 544 546
663 6 543 544 547
664 6 545 544 546
665 6 545 544 547
666 6 546 544 547
667 4 989 999 998
668 9 989 999 1017
669 9 998 999 1017
670 2 956 987 988
671 7 956 987 1000
672 7 956 987 1001
673 7 988 987 1000
674 7 988 987 1001
675 12 1000 987 1001
676 2 956 955 968
677 7 956 955 969
678 7 956 955 970
679 7 968 955 969
680 7 968 955 970
681 12 969 955 970
682 1 955 956 957
683 2 955 956 987
684 1 957 956 987
685 7 955 956 971
686 8 957 956 971
687 7 971 956 987
688 3 956 957 958
689 3 956 957 967
690 4 958 957 967
691 7 600 614 634
692 7 600 614 635
693 7 600 614 636
694 12 634 614 635
695 12 634 614 636
696 12 635 614 636
697 4 573 579 580
698 9 573 579 597
699 9 580 579 597
700 4 570 580 579
701 9 570 580 598
702 9 579 580 598
703 4 957 958 959
704 9 957 958 972
705 9 959 958 972
706 4 957 967 966
707 9 957 967 986
708 9 966 967 986
709 4 960 966 967
710 9 960 966 985
711 9 967 966 985
712 4 958 959 960
713 9 958 959 973
714 9 960 959 973
715 3 959 960 961
716 4 959 960 966
717 3 961 960 966
718 5 960 961 962
719 10 960 961 974
720 10 960 961 975
721 11 962 961 974
722 11 962 961 975
723 13 974 961 975
724 4 672 673 674
725 9 672 673 686
726 9 674 673 686
727 5 674 675 676
728 10 674 675 687
729 10 674 675 688
730 11 676 675 687
731 11 676 675 688
732 13 687 675 688
733 11 962 964 979
734 11 962 964 980
735 11 962 964 981
736 13 979 964 980
737 13 979 964 981
738 13 980 964 981
739 6 961 962 963
740 6 961 962 964
741 6 961 962 965
742 6 963 962 964
743 6 963 962 965
744 6 964 962 965
745 11 962 965 982
746 11 962 965 983
747 11 962 965 984
748 13 982 965 983
749 13 982 965 984
750 13 983 965 984
751 14 1704 1703 1705
752 11 962 963 976
753 11 962 963 977
754 11 962 963 978
755 13 976 963 977
756 13 976 963 978
757 13 977 963 978
758 11 1374 1375 1387
759 11 1374 1375 1388
760 11 1374 1375 1389
761 13 1387 1375 1388
762 13 1387 1375 1389
763 13 1388 1375 1389
764 6 1373 1374 1375
765 6 1373 1374 1376
766 6 1373 1374 1377
767 6 1375 1374 1376
768 6 1375 1374 1377
769 6 1376 1374 1377
770 5 542 543 544
771 10 542 543 555
772 10 542 543 556
773 11 544 543 555
774 11 544 543 556
775 13 555 543 556
776 4 1555 1556 1557
777 9 1555 1556 1570
778 9 1557 1556 1570
779 4 1555 1565 1564
780 9 1555 1565 1584
781 9 1564 1565 1584
782 4 540 541 542
783 9 540 541 554
784 9 542 541 554
785 3 572 573 574
786 4 572 573 579
787 3 574 573 579
788 5 573 574 575
789 10 573 574 586
790 10 573 574 587
791 11 575 574 586
792 11 575 574 587
793 13 586 574 587
794 11 676 679 695
795 11 676 679 696
796 11 676 679 697
797 13 695 679 696
798 13 695 679 697
799 13 696 679 697
800 14 1713 1712 1714
801 14 1728 1727 1729
802 14 1698 1697 1699
803 14 1761 1760 1762
804 14 1695 1694 1696
805 11 288 291 308
806 11 288 291 309
807 11 288 291 310
808 13 308 291 309
809 13 308 291 310
810 13 309 291 310
811 11 195 198 214
812 11 195 198 215
813 11 195 198 216
814 13 214 198 215
815 13 214 198 216
816 13 215 198 216
817 14 1737 1736 1738
818 14 1809 1808 1810
819 5 480 481 482
820 10 480 481 493
821 10 480 481 494
822 11 482 481 493
823 11 482 481 494
824 13 493 481 494
825 3 479 480 481
826 4 479 480 486
827 3 481 480 486
828 4 478 479 480
829 9 478 479 492
830 9 480 479 492
831 4 508 509 510
832 9 508 509 522
833 9 510 509 522
834 4 477 478 479
835 9 477 478 491
836 9 479 478 491
837 11 195 197 211
838 11 195 197 212
839 11 195 197 213
840 13 211 197 212
841 13 211 197 213
842 13 212 197 213
843 3 507 508 509
844 3 507 508 518
845 4 509 508 518
846 1 506 507 508
847 2 506 507 537
848 1 508 507 537
849 7 506 507 521
850 8 508 507 521
851 7 521 507 537
852 11 195 196 208
853 11 195 196 209
854 11 195 196 210
855 13 208 196 209
856 13 208 196 210
857 13 209 196 210
858 3 476 477 478
859 3 476 477 487
860 4 478 477 487
861 4 509 510 511
862 9 509 510 523
863 9 511 510 523
864 4 508 518 517
865 9 508 518 536
866 9 517 518 536
867 1 444 445 446
868 2 444 445 475
869 1 446 445 475
870 7 444 445 459
871 8 446 445 459
872 7 459 445 475
873 3 445 446 447
874 3 445 446 456
875 4 447 446 456
876 1 475 476 477
877 2 475 476 506
878 1 477 476 506
879 7 475 476 490
880 8 477 476 490
881 7 490 476 506
882 2 445 475 476
883 7 445 475 488
884 7 445 475 489
885 7 476 475 488
886 7 476 475 489
887 12 488 475 489
888 2 414 444 445
889 7 414 444 457
890 7 414 444 458
891 7 445 444 457
892 7 445 444 458
893 12 457 444 458
894 2 476 506 507
895 7 476 506 519
896 7 476 506 520
897 7 507 506 519
898 7 507 506 520
899 12 519 506 520
900 4 446 447 448
901 9 446 447 460
902 9 448 447 460
903 4 447 448 449
904 9 447 448 461
905 9 449 448 461
906 11 389 392 408
907 11 389 392 409
908 11 389 392 410
909 13 408 392 409
910 13 408 392 410
911 13 409 392 410
912 14 1800 1799 1801
913 6 388 389 390
914 6 388 389 391
915 6 388 389 392
916 6 390 389 391
917 6 390 389 392
918 6 391 389 392
919 11 389 391 405
920 11 389 391 406
921 11 389 391 407
922 13 405 391 406
923 13 405 391 407
924 13 406 391 407
925 14 1707 1706 1708
926 11 288 289 302
927 11 288 289 303
928 11 288 289 304
929 13 302 289 303
930 13 302 289 304
931 13 303 289 304
932 6 287 288 289
933 6 287 288 290
934 6 287 288 291
935 6 289 288 290
936 6 289 288 291
937 6 290 288 291
938 14 1797 1796 1798
939 11 482 484 498
940 11 482 484 499
941 11 482 484 500
942 13 498 484 499
943 13 498 484 500
944 13 499 484 500
945 6 1241 1242 1243
946 6 1241 1242 1244
947 6 1241 1242 1245
948 6 1243 1242 1244
949 6 1243 1242 1245
950 6 1244 1242 1245
951 5 1240 1241 1242
952 10 1240 1241 1254
953 10 1240 1241 1255
954 11 1242 1241 1254
955 11 1242 1241 1255
956 13 1254 1241 1255
957 11 1242 1244 1259
958 11 1242 1244 1260
959 11 1242 1244 1261
960 13 1259 1244 1260
961 13 1259 1244 1261
962 13 1260 1244 1261
963 11 358 360 374
964 11 358 360 375
965 11 358 360 376
966 13 374 360 375
967 13 374 360 376
968 13 375 360 376
969 5 356 357 358
970 10 356 357 369
971 10 356 357 370
972 11 358 357 369
973 11 358 357 370
974 13 369 357 370
975 3 355 356 357
976 4 355 356 362
977 3 357 356 362
978 4 356 362 363
979 9 356 362 380
980 9 363 362 380
981 6 357 358 359
982 6 357 358 360
983 6 357 358 361
984 6 359 358 360
985 6 359 358 361
986 6 360 358 361
987 11 358 361 377
988 11 358 361 378
989 11 358 361 379
990 13 377 361 378
991 13 377 361 379
992 13 378 361 379
993 4 353 363 362
994 9 353 363 381
995 9 362 363 381
996 4 354 355 356
997 9 354 355 368
998 9 356 355 368
999 6 1086 1087 1088
1000 6 1086 1087 1089
1001 6 1086 1087 1090
1002 6 1088 1087 1089
1003 6 1088 1087 1090
1004 6 1089 1087 1090
1005 11 358 359 371
1006 11 358 359 372
1007 11 358 359 373
1008 13 371 359 372
1009 13 371 359 373
1010 13 372 359 373
1011 4 415 416 417
1012 9 415 416 429
1013 9 417 416 429
1014 1 413 414 415
1015 2 413 414 444
1016 1 415 414 444
1017 7 413 414 428
1018 8 415 414 428
1019 7 428 414 444
1020 3 414 415 416
1021 3 414 415 425
1022 4 416 415 425
1023 11 1087 1090 1106
1024 11 1087 1090 1107
1025 11 1087 1090 1108
1026 13 1106 1090 1107
1027 13 1106 1090 1108
1028 13 1107 1090 1108
1029 2 383 413 414
1030 7 383 413 426
1031 7 383 413 427
1032 7 414 413 426
1033 7 414 413 427
1034 12 426 413 427
1035 1 382 383 384
1036 2 382 383 413
1037 1 384 383 413
1038 7 382 383 397
1039 8 384 383 397
1040 7 397 383 413
1041 3 383 384 385
1042 3 383 384 394
1043 4 385 384 394
1044 4 384 394 393
1045 9 384 394 412
1046 9 393 394 412
1047 4 384 385 386
1048 9 384 385 398
1049 9 386 385 398
1050 2 352 382 383
1051 7 352 382 395
1052 7 352 382 396
1053 7 383 382 395
1054 7 383 382 396
1055 12 395 382 396
1056 4 353 354 355
1057 9 353 354 367
1058 9 355 354 367
1059 3 352 353 354
1060 3 352 353 363
1061 4 354 353 363
1062 4 385 386 387
1063 9 385 386 399
1064 9 387 386 399
1065 11 389 390 402
1066 11 389 390 403
1067 11 389 390 404
1068 13 402 390 403
1069 13 402 390 404
1070 13 403 390 404
1071 4 387 393 394
1072 9 387 393 411
1073 9 394 393 411
1074 5 387 388 389
1075 10 387 388 400
1076 10 387 388 401
1077 11 389 388 400
1078 11 389 388 401
1079 13 400 388 401
1080 3 386 387 388
1081 4 386 387 393
1082 3 388 387 393
1083 11 1242 1243 1256
1084 11 1242 1243 1257
1085 11 1242 1243 1258
1086 13 1256 1243 1257
1087 13 1256 1243 1258
1088 13 1257 1243 1258
1089 6 1179 1180 1181
1090 6 1179 1180 1182
1091 6 1179 1180 1183
1092 6 1181 1180 1182
1093 6 1181 1180 1183
1094 6 1182 1180 1183
1095 11 1180 1181 1193
1096 11 1180 1181 1194
1097 11 1180 1181 1195
1098 13 1193 1181 1194
1099 13 1193 1181 1195
1100 13 1194 1181 1195
1101 11 1180 1183 1199
1102 11 1180 1183 1200
1103 11 1180 1183 1201
1104 13 1199 1183 1200
1105 13 1199 1183 1201
1106 13 1200 1183 1201
1107 11 1180 1182 1196
1108 11 1180 1182 1197
1109 11 1180 1182 1198
1110 13 1196 1182 1197
1111 13 1196 1182 1198
1112 13 1197 1182 1198
1113 14 1806 1805 1807
1114 7 1 14 313
1115 7 1 14 314
1116 7 1 14 315
1117 12 313 14 314
1118 12 313 14 315
1119 12 314 14 315
1120 2 2 1 14
1121 7 2 1 15
1122 7 2 1 16
1123 7 14 1 15
1124 7 14 1 16
1125 12 15 1 16
1126 11 1087 1088 1100
1127 11 1087 1088 1101
1128 11 1087 1088 1102
1129 13 1100 1088 1101
1130 13 1100 1088 1102
1131 13 1101 1088 1102
1132 11 994 996 1010
1133 11 994 996 1011
1134 11 994 996 1012
1135 13 1010 996 1011
1136 13 1010 996 1012
1137 13 1011 996 1012
1138 6 993 994 995
1139 6 993 994 996
1140 6 993 994 997
1141 6 995 994 996
1142 6 995 994 997
1143 6 996 994 997
1144 11 326 328 343
1145 11 326 328 344
1146 11 326 328 345
1147 13 343 328 344
1148 13 343 328 345
1149 13 344 328 345
1150 11 326 329 346
1151 11 326 329 347
1152 11 326 329 348
1153 13 346 329 347
1154 13 346 329 348
1155 13 347 329 348
1156 6 325 326 327
1157 6 325 326 328
1158 6 325 326 329
1159 6 327 326 328
1160 6 327 326 329
1161 6 328 326 329
1162 11 994 997 1013
1163 11 994 997 1014
1164 11 994 997 1015
1165 13 1013 997 1014
1166 13 1013 997 1015
1167 13 1014 997 1015
1168 11 326 327 340
1169 11 326 327 341
1170 11 326 327 342
1171 13 340 327 341
1172 13 340 327 342
1173 13 341 327 342
1174 5 324 325 326
1175 10 324 325 338
1176 10 324 325 339
1177 11 326 325 338
1178 11 326 325 339
1179 13 338 325 339
1180 3 323 324 325
1181 4 323 324 330
1182 3 325 324 330
1183 14 1839 1838 1840
1184 4 601 602 603
1185 9 601 602 616
1186 9 603 602 616
1187 4 602 603 604
1188 9 602 603 617
1189 9 604 603 617
1190 11 257 259 273
1191 11 257 259 274
1192 11 257 259 275
1193 13 273 259 274
1194 13 273 259 275
1195 13 274 259 275
1196 3 603 604 605
1197 4 603 604 610
1198 3 605 604 610
1199 5 255 256 257
1200 10 255 256 268
1201 10 255 256 269
1202 11 257 256 268
1203 11 257 256 269
1204 13 268 256 269
1205 11 257 260 276
1206 11 257 260 277
1207 11 257 260 278
1208 13 276 260 277
1209 13 276 260 278
1210 13 277 260 278
1211 11 606 608 623
1212 11 606 608 624
1213 11 606 608 625
1214 13 623 608 624
1215 13 623 608 625
1216 13 624 608 625
1217 6 256 257 258
1218 6 256 257 259
1219 6 256 257 260
1220 6 258 257 259
1221 6 258 257 260
1222 6 259 257 260
1223 3 254 255 256
1224 4 254 255 261
1225 3 256 255 261
1226 4 604 610 611
1227 9 604 610 629
1228 9 611 610 629
1229 11 606 609 626
1230 11 606 609 627
1231 11 606 609 628
1232 13 626 609 627
1233 13 626 609 628
1234 13 627 609 628
1235 11 606 607 620
1236 11 606 607 621
1237 11 606 607 622
1238 13 620 607 621
1239 13 620 607 622
1240 13 621 607 622
1241 6 605 606 607
1242 6 605 606 608
1243 6 605 606 609
1244 6 607 606 608
1245 6 607 606 609
1246 6 608 606 609
1247 5 604 605 606
1248 10 604 605 618
1249 10 604 605 619
1250 11 606 605 618
1251 11 606 605 619
1252 13 618 605 619
1253 14 1752 1751 1753
1254 11 164 167 183
1255 11 164 167 184
1256 11 164 167 185
1257 13 183 167 184
1258 13 183 167 185
1259 13 184 167 185
1260 11 164 165 177
1261 11 164 165 178
1262 11 164 165 179
1263 13 177 165 178
1264 13 177 165 179
1265 13 178 165 179
1266 6 163 164 165
1267 6 163 164 166
1268 6 163 164 167
1269 6 165 164 166
1270 6 165 164 167
1271 6 166 164 167
1272 11 71 74 90
1273 11 71 74 91
1274 11 71 74 92
1275 13 90 74 91
1276 13 90 74 92
1277 13 91 74 92
1278 11 164 166 180
1279 11 164 166 181
1280 11 164 166 182
1281 13 180 166 181
1282 13 180 166 182
1283 13 181 166 182
1284 11 544 547 563
1285 11 544 547 564
1286 11 544 547 565
1287 13 563 547 564
1288 13 563 547 565
1289 13 564 547 565
1290 3 541 542 543
1291 4 541 542 548
1292 3 543 542 548
1293 4 542 548 549
1294 9 542 548 566
1295 9 549 548 566
1296 5 162 163 164
1297 10 162 163 175
1298 10 162 163 176
1299 11 164 163 175
1300 11 164 163 176
1301 13 175 163 176
1302 4 160 161 162
1303 9 160 161 174
1304 9 162 161 174
1305 4 539 549 548
1306 9 539 549 567
1307 9 548 549 567
1308 3 161 162 163
1309 4 161 162 168
1310 3 163 162 168
1311 3 538 539 540
1312 3 538 539 549
1313 4 540 539 549
1314 4 193 199 200
1315 9 193 199 217
1316 9 200 199 217
1317 4 159 160 161
1318 9 159 160 173
1319 9 161 160 173
1320 4 162 168 169
1321 9 162 168 186
1322 9 169 168 186
1323 4 190 200 199
1324 9 190 200 218
1325 9 199 200 218
1326 5 193 194 195
1327 10 193 194 206
1328 10 193 194 207
1329 11 195 194 206
1330 11 195 194 207
1331 13 206 194 207
1332 3 192 193 194
1333 4 192 193 199
1334 3 194 193 199
1335 3 600 601 602
1336 3 600 601 611
1337 4 602 601 611
1338 4 253 254 255
1339 9 253 254 267
1340 9 255 254 267
1341 4 601 611 610
1342 9 601 611 630
1343 9 610 611 630
1344 1 599 600 601
1345 2 599 600 614
1346 1 601 600 614
1347 7 599 600 615
1348 8 601 600 615
1349 7 614 600 615
1350 3 569 570 571
1351 3 569 570 580
1352 4 571 570 580
1353 1 568 569 570
1354 2 568 569 599
1355 1 570 569 599
1356 7 568 569 583
1357 8 570 569 583
1358 7 583 569 599
1359 2 569 599 600
1360 7 569 599 612
1361 7 569 599 613
1362 7 600 599 612
1363 7 600 599 613
1364 12 612 599 613
1365 1 537 538 539
1366 2 537 538 568
1367 1 539 538 568
1368 7 537 538 552
1369 8 539 538 552
1370 7 552 538 568
1371 2 538 568 569
1372 7 538 568 581
1373 7 538 568 582
1374 7 569 568 581
1375 7 569 568 582
1376 12 581 568 582
1377 4 570 571 572
1378 9 570 571 584
1379 9 572 571 584
1380 4 571 572 573
1381 9 571 572 585
1382 9 573 572 585
1383 4 252 253 254
1384 9 252 253 266
1385 9 254 253 266
1386 14 1788 1787 1789
1387 4 284 285 286
1388 9 284 285 299
1389 9 286 285 299
1390 4 283 284 285
1391 9 283 284 298
1392 9 285 284 298
1393 3 282 283 284
1394 3 282 283 293
1395 4 284 283 293
1396 14 1833 1832 1834
1397 6 194 195 196
1398 6 194 195 197
1399 6 194 195 198
1400 6 196 195 197
1401 6 196 195 198
1402 6 197 195 198
1403 4 539 540 541
1404 9 539 540 553
1405 9 541 540 553
1406 2 507 537 538
1407 7 507 537 550
1408 7 507 537 551
1409 7 538 537 550
1410 7 538 537 551
1411 12 550 537 551
1412 4 286 292 293
1413 9 286 292 311
1414 9 293 292 311
1415 5 286 287 288
1416 10 286 287 300
1417 10 286 287 301
1418 11 288 287 300
1419 11 288 287 301
1420 13 300 287 301
1421 3 285 286 287
1422 4 285 286 292
1423 3 287 286 292
1424 4 283 293 292
1425 9 283 293 312
1426 9 292 293 312
1427 11 288 290 305
1428 11 288 290 306
1429 11 288 290 307
1430 13 305 290 306
1431 13 305 290 307
1432 13 306 290 307
1433 11 8 9 22
1434 11 8 9 23
1435 11 8 9 24
1436 13 22 9 23
1437 13 22 9 24
1438 13 23 9 24
1439 6 7 8 9
1440 6 7 8 10
1441 6 7 8 11
1442 6 9 8 10
1443 6 9 8 11
1444 6 10 8 11
1445 11 8 11 28
1446 11 8 11 29
1447 11 8 11 30
1448 13 28 11 29
1449 13 28 11 30
1450 13 29 11 30
1451 14 1755 1754 1756
1452 14 1794 1793 1795
1453 11 8 10 25
1454 11 8 10 26
1455 11 8 10 27
1456 13 25 10 26
1457 13 25 10 27
1458 13 26 10 27
1459 14 1779 1778 1780
1460 3 510 511 512
1461 4 510 511 517
1462 3 512 511 517
1463 11 513 516 532
1464 11 513 516 533
1465 11 513 516 534
1466 13 532 516 533
1467 13 532 516 534
1468 13 533 516 534
1469 5 511 512 513
1470 10 511 512 524
1471 10 511 512 525
1472 11 513 512 524
1473 11 513 512 525
1474 13 524 512 525
1475 4 511 517 518
1476 9 511 517 535
1477 9 518 517 535
1478 6 512 513 514
1479 6 512 513 515
1480 6 512 513 516
1481 6 514 513 515
1482 6 514 513 516
1483 6 515 513 516
1484 11 513 514 526
1485 11 513 514 527
1486 11 513 514 528
1487 13 526 514 527
1488 13 526 514 528
1489 13 527 514 528
1490 11 513 515 529
1491 11 513 515 530
1492 11 513 515 531
1493 13 529 515 530
1494 13 529 515 531
1495 13 530 515 531
1496 11 226 227 239
1497 11 226 227 240
1498 11 226 227 241
1499 13 239 227 240
1500 13 239 227 241
1501 13 240 227 241
1502 11 226 229 245
1503 11 226 229 246
1504 11 226 229 247
1505 13 245 229 246
1506 13 245 229 247
1507 13 246 229 247
1508 4 224 230 231
1509 9 224 230 248
1510 9 231 230 248
1511 6 225 226 227
1512 6 225 226 228
1513 6 225 226 229
1514 6 227 226 228
1515 6 227 226 229
1516 6 228 226 229
1517 11 226 228 242
1518 11 226 228 243
1519 11 226 228 244
1520 13 242 228 243
1521 13 242 228 244
1522 13 243 228 244
1523 3 223 224 225
1524 4 223 224 230
1525 3 225 224 230
1526 5 224 225 226
1527 10 224 225 237
1528 10 224 225 238
1529 11 226 225 237
1530 11 226 225 238
1531 13 237 225 238
1532 4 826 827 828
1533 9 826 827 840
1534 9 828 827 840
1535 3 825 826 827
1536 3 825 826 836
1537 4 827 826 836
1538 4 222 223 224
1539 9 222 223 236
1540 9 224 223 236
1541 4 827 828 829
1542 9 827 828 841
1543 9 829 828 841
1544 1 824 825 826
1545 2 824 825 855
1546 1 826 825 855
1547 7 824 825 839
1548 8 826 825 839
1549 7 839 825 855
1550 2 794 824 825
1551 7 794 824 837
1552 7 794 824 838
1553 7 825 824 837
1554 7 825 824 838
1555 12 837 824 838
1556 4 221 231 230
1557 9 221 231 249
1558 9 230 231 249
1559 3 828 829 830
1560 4 828 829 835
1561 3 830 829 835
1562 4 829 835 836
1563 9 829 835 853
1564 9 836 835 853
1565 4 826 836 835
1566 9 826 836 854
1567 9 835 836 854
1568 14 1836 1835 1837
1569 5 829 830 831
1570 10 829 830 842
1571 10 829 830 843
1572 11 831 830 842
1573 11 831 830 843
1574 13 842 830 843
1575 14 1782 1781 1783
1576 11 1312 1315 1331
1577 11 1312 1315 1332
1578 11 1312 1315 1333
1579 13 1331 1315 1332
1580 13 1331 1315 1333
1581 13 1332 1315 1333
1582 5 1310 1311 1312
1583 10 1310 1311 1323
1584 10 1310 1311 1324
1585 11 1312 1311 1323
1586 11 1312 1311 1324
1587 13 1323 1311 1324
1588 6 1311 1312 1313
1589 6 1311 1312 1314
1590 6 1311 1312 1315
1591 6 1313 1312 1314
1592 6 1313 1312 1315
1593 6 1314 1312 1315
1594 11 1312 1314 1328
1595 11 1312 1314 1329
1596 11 1312 1314 1330
1597 13 1328 1314 1329
1598 13 1328 1314 1330
1599 13 1329 1314 1330
1600 14 1758 1757 1759
1601 4 1310 1316 1317
1602 9 1310 1316 1334
1603 9 1317 1316 1334
1604 3 2 3 4
1605 3 2 3 13
1606 4 4 3 13
1607 4 3 4 5
1608 9 3 4 18
1609 9 5 4 18
1610 4 6 12 13
1611 9 6 12 31
1612 9 13 12 31
1613 4 3 13 12
1614 9 3 13 32
1615 9 12 13 32
1616 4 4 5 6
1617 9 4 5 19
1618 9 6 5 19
1619 3 5 6 7
1620 4 5 6 12
1621 3 7 6 12
1622 5 6 7 8
1623 10 6 7 20
1624 10 6 7 21
1625 11 8 7 20
1626 11 8 7 21
1627 13 20 7 21
1628 4 36 37 38
1629 9 36 37 50
1630 9 38 37 50
1631 11 40 42 56
1632 11 40 42 57
1633 11 40 42 58
1634 13 56 42 57
1635 13 56 42 58
1636 13 57 42 58
1637 14 1725 1724 1726
1638 4 324 330 331
1639 9 324 330 349
1640 9 331 330 349
1641 4 321 331 330
1642 9 321 331 350
1643 9 330 331 350
1644 3 320 321 322
1645 3 320 321 331
1646 4 322 321 331
1647 11 40 41 53
1648 11 40 41 54
1649 11 40 41 55
1650 13 53 41 54
1651 13 53 41 55
1652 13 54 41 55
1653 3 37 38 39
1654 4 37 38 44
1655 3 39 38 44
1656 6 39 40 41
1657 6 39 40 42
1658 6 39 40 43
1659 6 41 40 42
1660 6 41 40 43
1661 6 42 40 43
1662 5 38 39 40
1663 10 38 39 51
1664 10 38 39 52
1665 11 40 39 51
1666 11 40 39 52
1667 13 51 39 52
1668 1 351 352 353
1669 2 351 352 382
1670 1 353 352 382
1671 7 351 352 366
1672 8 353 352 366
1673 7 366 352 382
1674 2 320 351 352
1675 7 320 351 364
1676 7 320 351 365
1677 7 352 351 364
1678 7 352 351 365
1679 12 364 351 365
1680 1 319 320 321
1681 2 319 320 351
1682 1 321 320 351
1683 7 319 320 335
1684 8 321 320 335
1685 7 335 320 351
1686 2 320 319 332
1687 7 320 319 333
1688 7 320 319 334
1689 7 332 319 333
1690 7 332 319 334
1691 12 333 319 334
1692 11 831 833 847
1693 11 831 833 848
1694 11 831 833 849
1695 13 847 833 848
1696 13 847 833 849
1697 13 848 833 849
1698 14 1785 1784 1786
1699 7 319 332 631
1700 7 319 332 632
1701 7 319 332 633
1702 12 631 332 632
1703 12 631 332 633
1704 12 632 332 633
1705 4 888 889 890
1706 9 888 889 902
1707 9 890 889 902
1708 4 889 890 891
1709 9 889 890 903
1710 9 891 890 903
1711 11 831 832 844
1712 11 831 832 845
1713 11 831 832 846
1714 13 844 832 845
1715 13 844 832 846
1716 13 845 832 846
1717 6 830 831 832
1718 6 830 831 833
1719 6 830 831 834
1720 6 832 831 833
1721 6 832 831 834
1722 6 833 831 834
1723 11 831 834 850
1724 11 831 834 851
1725 11 831 834 852
1726 13 850 834 851
1727 13 850 834 852
1728 13 851 834 852
1729 14 1818 1817 1819
1730 11 893 895 909
1731 11 893 895 910
1732 11 893 895 911
1733 13 909 895 910
1734 13 909 895 911
1735 13 910 895 911
1736 1 1 2 3
1737 2 1 2 33
1738 1 3 2 33
1739 7 1 2 17
1740 8 3 2 17
1741 7 17 2 33
1742 2 2 33 34
1743 7 2 33 46
1744 7 2 33 47
1745 7 34 33 46
1746 7 34 33 47
1747 12 46 33 47
1748 1 33 34 35
1749 2 33 34 64
1750 1 35 34 64
1751 7 33 34 48
1752 8 35 34 48
1753 7 48 34 64
1754 3 65 66 67
1755 3 65 66 76
1756 4 67 66 76
1757 2 34 64 65
1758 7 34 64 77
1759 7 34 64 78
1760 7 65 64 77
1761 7 65 64 78
1762 12 77 64 78
1763 3 34 35 36
1764 3 34 35 45
1765 4 36 35 45
1766 4 35 36 37
1767 9 35 36 49
1768 9 37 36 49
1769 14 1710 1709 1711
1770 1 64 65 66
1771 2 64 65 95
1772 1 66 65 95
1773 7 64 65 79
1774 8 66 65 79
1775 7 79 65 95
1776 14 1821 1820 1822
1777 4 321 322 323
1778 9 321 322 336
1779 9 323 322 336
1780 4 322 323 324
1781 9 322 323 337
1782 9 324 323 337
1783 2 65 95 96
1784 7 65 95 108
1785 7 65 95 109
1786 7 96 95 108
1787 7 96 95 109
1788 12 108 95 109
1789 2 127 157 158
1790 7 127 157 170
1791 7 127 157 171
1792 7 158 157 170
1793 7 158 157 171
1794 12 170 157 171
1795 4 35 45 44
1796 9 35 45 63
1797 9 44 45 63
1798 1 126 127 128
1799 2 126 127 157
1800 1 128 127 157
1801 7 126 127 141
1802 8 128 127 141
1803 7 141 127 157
1804 1 95 96 97
1805 2 95 96 126
1806 1 97 96 126
1807 7 95 96 110
1808 8 97 96 110
1809 7 110 96 126
1810 2 96 126 127
1811 7 96 126 139
1812 7 96 126 140
1813 7 127 126 139
1814 7 127 126 140
1815 12 139 126 140
1816 4 38 44 45
1817 9 38 44 62
1818 9 45 44 62
1819 11 1056 1057 1069
1820 11 1056 1057 1070
1821 11 1056 1057 1071
1822 13 1069 1057 1070
1823 13 1069 1057 1071
1824 13 1070 1057 1071
1825 14 1692 1691 1693
1826 11 257 258 270
1827 11 257 258 271
1828 11 257 258 272
1829 13 270 258 271
1830 13 270 258 272
1831 13 271 258 272
1832 4 128 129 130
1833 9 128 129 142
1834 9 130 129 142
1835 3 127 128 129
1836 3 127 128 138
1837 4 129 128 138
1838 4 129 130 131
1839 9 129 130 143
1840 9 131 130 143
1841 3 130 131 132
1842 4 130 131 137
1843 3 132 131 137
1844 5 131 132 133
1845 10 131 132 144
1846 10 131 132 145
1847 11 133 132 144
1848 11 133 132 145
1849 13 144 132 145
1850 11 133 135 149
1851 11 133 135 150
1852 11 133 135 151
1853 13 149 135 150
1854 13 149 135 151
1855 13 150 135 151
1856 6 132 133 134
1857 6 132 133 135
1858 6 132 133 136
1859 6 134 133 135
1860 6 134 133 136
1861 6 135 133 136
1862 4 131 137 138
1863 9 131 137 155
1864 9 138 137 155
1865 14 1731 1730 1732
1866 11 133 134 146
1867 11 133 134 147
1868 11 133 134 148
1869 13 146 134 147
1870 13 146 134 148
1871 13 147 134 148
1872 4 128 138 137
1873 9 128 138 156
1874 9 137 138 156
1875 11 1056 1059 1075
1876 11 1056 1059 1076
1877 11 1056 1059 1077
1878 13 1075 1059 1076
1879 13 1075 1059 1077
1880 13 1076 1059 1077
1881 6 1055 1056 1057
1882 6 1055 1056 1058
1883 6 1055 1056 1059
1884 6 1057 1056 1058
1885 6 1057 1056 1059
1886 6 1058 1056 1059
1887 11 133 136 152
1888 11 133 136 153
1889 11 133 136 154
1890 13 152 136 153
1891 13 152 136 154
1892 13 153 136 154
1893 14 1746 1745 1747
1894 14 1722 1721 1723
1895 4 66 67 68
1896 9 66 67 80
1897 9 68 67 80
1898 4 66 76 75
1899 9 66 76 94
1900 9 75 76 94
1901 4 67 68 69
1902 9 67 68 81
1903 9 69 68 81
1904 11 71 73 87
1905 11 71 73 88
1906 11 71 73 89
1907 13 87 73 88
1908 13 87 73 89
1909 13 88 73 89
1910 5 69 70 71
1911 10 69 70 82
1912 10 69 70 83
1913 11 71 70 82
1914 11 71 70 83
1915 13 82 70 83
1916 4 69 75 76
1917 9 69 75 93
1918 9 76 75 93
1919 6 70 71 72
1920 6 70 71 73
1921 6 70 71 74
1922 6 72 71 73
1923 6 72 71 74
1924 6 73 71 74
1925 3 68 69 70
1926 4 68 69 75
1927 3 70 69 75
1928 11 71 72 84
1929 11 71 72 85
1930 11 71 72 86
1931 13 84 72 85
1932 13 84 72 86
1933 13 85 72 86
1934 14 1812 1811 1813
1935 11 1405 1408 1424
1936 11 1405 1408 1425
1937 11 1405 1408 1426
1938 13 1424 1408 1425
1939 13 1424 1408 1426
1940 13 1425 1408 1426
1941 3 158 159 160
1942 3 158 159 169
1943 4 160 159 169
1944 4 159 169 168
1945 9 159 169 187
1946 9 168 169 187
1947 4 191 192 193
1948 9 191 192 205
1949 9 193 192 205
1950 4 190 191 192
1951 9 190 191 204
1952 9 192 191 204
1953 1 157 158 159
1954 2 157 158 188
1955 1 159 158 188
1956 7 157 158 172
1957 8 159 158 172
1958 7 172 158 188
1959 3 189 190 191
1960 3 189 190 200
1961 4 191 190 200
1962 4 97 98 99
1963 9 97 98 111
1964 9 99 98 111
1965 3 96 97 98
1966 3 96 97 107
1967 4 98 97 107
1968 4 98 99 100
1969 9 98 99 112
1970 9 100 99 112
1971 4 97 107 106
1972 9 97 107 125
1973 9 106 107 125
1974 2 158 188 189
1975 7 158 188 201
1976 7 158 188 202
1977 7 189 188 201
1978 7 189 188 202
1979 12 201 188 202
1980 3 99 100 101
1981 4 99 100 106
1982 3 101 100 106
1983 6 101 102 103
1984 6 101 102 104
1985 6 101 102 105
1986 6 103 102 104
1987 6 103 102 105
1988 6 104 102 105
1989 4 100 106 107
1990 9 100 106 124
1991 9 107 106 124
1992 11 102 103 115
1993 11 102 103 116
1994 11 102 103 117
1995 13 115 103 116
1996 13 115 103 117
1997 13 116 103 117
1998 1 188 189 190
1999 2 188 189 219
2000 1 190 189 219
2001 7 188 189 203
2002 8 190 189 203
2003 7 203 189 219
2004 4 255 261 262
2005 9 255 261 279
2006 9 262 261 279
2007 2 189 219 220
2008 7 189 219 232
2009 7 189 219 233
2010 7 220 219 232
2011 7 220 219 233
2012 12 232 219 233
2013 2 220 250 251
2014 7 220 250 263
2015 7 220 250 264
2016 7 251 250 263
2017 7 251 250 264
2018 12 263 250 264
2019 4 252 262 261
2020 9 252 262 280
2021 9 261 262 280
2022 1 219 220 221
2023 2 219 220 250
2024 1 221 220 250
2025 7 219 220 234
2026 8 221 220 234
2027 7 234 220 250
2028 3 251 252 253
2029 3 251 252 262
2030 4 253 252 262
2031 1 250 251 252
2032 2 250 251 281
2033 1 252 251 281
2034 7 250 251 265
2035 8 252 251 265
2036 7 265 251 281
2037 4 795 796 797
2038 9 795 796 809
2039 9 797 796 809
2040 4 796 797 798
2041 9 796 797 810
2042 9 798 797 810
2043 3 794 795 796
2044 3 794 795 805
2045 4 796 795 805
2046 2 251 281 282
2047 7 251 281 294
2048 7 251 281 295
2049 7 282 281 294
2050 7 282 281 295
2051 12 294 281 295
2052 1 281 282 283
2053 2 281 282 296
2054 1 283 282 296
2055 7 281 282 297
2056 8 283 282 297
2057 7 296 282 297
2058 7 282 296 316
2059 7 282 296 317
2060 7 282 296 318
2061 12 316 296 317
2062 12 316 296 318
2063 12 317 296 318
2064 14 1701 1700 1702
2065 2 763 793 794
2066 7 763 793 806
2067 7 763 793 807
2068 7 794 793 806
2069 7 794 793 807
2070 12 806 793 807
2071 14 1791 1790 1792
2072 14 1740 1739 1741
2073 11 1405 1406 1418
2074 11 1405 1406 1419
2075 11 1405 1406 1420
2076 13 1418 1406 1419
2077 13 1418 1406 1420
2078 13 1419 1406 1420
2079 6 1404 1405 1406
2080 6 1404 1405 1407
2081 6 1404 1405 1408
2082 6 1406 1405 1407
2083 6 1406 1405 1408
2084 6 1407 1405 1408
2085 14 1827 1826 1828
2086 11 102 104 118
2087 11 102 104 119
2088 11 102 104 120
2089 13 118 104 119
2090 13 118 104 120
2091 13 119 104 120
2092 3 220 221 222
2093 3 220 221 231
2094 4 222 221 231
2095 4 221 222 223
2096 9 221 222 235
2097 9 223 222 235
2098 1 793 794 795
2099 2 793 794 824
2100 1 795 794 824
2101 7 793 794 808
2102 8 795 794 808
2103 7 808 794 824
2104 2 1306 1336 1337
2105 7 1306 1336 1349
2106 7 1306 1336 1350
2107 7 1337 1336 1349
2108 7 1337 1336 1350
2109 12 1349 1336 1350
2110 1 1336 1337 1338
2111 2 1336 1337 1367
2112 1 1338 1337 1367
2113 7 1336 1337 1351
2114 8 1338 1337 1351
2115 7 1351 1337 1367
2116 2 1368 1398 1399
2117 7 1368 1398 1411
2118 7 1368 1398 1412
2119 7 1399 1398 1411
2120 7 1399 1398 1412
2121 12 1411 1398 1412
2122 2 1337 1367 1368
2123 7 1337 1367 1380
2124 7 1337 1367 1381
2125 7 1368 1367 1380
2126 7 1368 1367 1381
2127 12 1380 1367 1381
2128 1 1367 1368 1369
2129 2 1367 1368 1398
2130 1 1369 1368 1398
2131 7 1367 1368 1382
2132 8 1369 1368 1382
2133 7 1382 1368 1398
2134 3 1368 1369 1370
2135 3 1368 1369 1379
2136 4 1370 1369 1379
2137 3 1337 1338 1339
2138 3 1337 1338 1348
2139 4 1339 1338 1348
2140 7 918 932 952
2141 7 918 932 953
2142 7 918 932 954
2143 12 952 932 953
2144 12 952 932 954
2145 12 953 932 954
2146 11 1118 1121 1137
2147 11 1118 1121 1138
2148 11 1118 1121 1139
2149 13 1137 1121 1138
2150 13 1137 1121 1139
2151 13 1138 1121 1139
2152 6 1528 1529 1530
2153 6 1528 1529 1531
2154 6 1528 1529 1532
2155 6 1530 1529 1531
2156 6 1530 1529 1532
2157 6 1531 1529 1532
2158 1 917 918 919
2159 2 917 918 932
2160 1 919 918 932
2161 7 917 918 933
2162 8 919 918 933
2163 7 932 918 933
2164 4 919 920 921
2165 9 919 920 934
2166 9 921 920 934
2167 11 1529 1531 1545
2168 11 1529 1531 1546
2169 11 1529 1531 1547
2170 13 1545 1531 1546
2171 13 1545 1531 1547
2172 13 1546 1531 1547
2173 5 1527 1528 1529
2174 10 1527 1528 1540
2175 10 1527 1528 1541
2176 11 1529 1528 1540
2177 11 1529 1528 1541
2178 13 1540 1528 1541
2179 11 1529 1532 1548
2180 11 1529 1532 1549
2181 11 1529 1532 1550
2182 13 1548 1532 1549
2183 13 1548 1532 1550
2184 13 1549 1532 1550
2185 2 887 917 918
2186 7 887 917 930
2187 7 887 917 931
2188 7 918 917 930
2189 7 918 917 931
2190 12 930 917 931
2191 2 856 886 887
2192 7 856 886 899
2193 7 856 886 900
2194 7 887 886 899
2195 7 887 886 900
2196 12 899 886 900
2197 1 886 887 888
2198 2 886 887 917
2199 1 888 887 917
2200 7 886 887 901
2201 8 888 887 901
2202 7 901 887 917
2203 1 855 856 857
2204 2 855 856 886
2205 1 857 856 886
2206 7 855 856 870
2207 8 857 856 870
2208 7 870 856 886
2209 3 856 857 858
2210 3 856 857 867
2211 4 858 857 867
2212 2 825 855 856
2213 7 825 855 868
2214 7 825 855 869
2215 7 856 855 868
2216 7 856 855 869
2217 12 868 855 869
2218 4 857 867 866
2219 9 857 867 885
2220 9 866 867 885
2221 4 857 858 859
2222 9 857 858 871
2223 9 859 858 871
2224 4 860 866 867
2225 9 860 866 884
2226 9 867 866 884
2227 4 858 859 860
2228 9 858 859 872
2229 9 860 859 872
2230 3 859 860 861
2231 4 859 860 866
2232 3 861 860 866
2233 3 887 888 889
2234 3 887 888 898
2235 4 889 888 898
2236 11 1312 1313 1325
2237 11 1312 1313 1326
2238 11 1312 1313 1327
2239 13 1325 1313 1326
2240 13 1325 1313 1327
2241 13 1326 1313 1327
2242 4 1308 1309 1310
2243 9 1308 1309 1322
2244 9 1310 1309 1322
2245 3 1309 1310 1311
2246 4 1309 1310 1316
2247 3 1311 1310 1316
2248 11 769 771 785
2249 11 769 771 786
2250 11 769 771 787
2251 13 785 771 786
2252 13 785 771 787
2253 13 786 771 787
2254 11 769 772 788
2255 11 769 772 789
2256 11 769 772 790
2257 13 788 772 789
2258 13 788 772 790
2259 13 789 772 790
2260 6 768 769 770
2261 6 768 769 771
2262 6 768 769 772
2263 6 770 769 771
2264 6 770 769 772
2265 6 771 769 772
2266 4 1307 1308 1309
2267 9 1307 1308 1321
2268 9 1309 1308 1321
2269 5 767 768 769
2270 10 767 768 780
2271 10 767 768 781
2272 11 769 768 780
2273 11 769 768 781
2274 13 780 768 781
2275 11 769 770 782
2276 11 769 770 783
2277 11 769 770 784
2278 13 782 770 783
2279 13 782 770 784
2280 13 783 770 784
2281 4 1338 1339 1340
2282 9 1338 1339 1352
2283 9 1340 1339 1352
2284 4 1307 1317 1316
2285 9 1307 1317 1335
2286 9 1316 1317 1335
2287 3 1306 1307 1308
2288 3 1306 1307 1317
2289 4 1308 1307 1317
2290 11 1118 1120 1134
2291 11 1118 1120 1135
2292 11 1118 1120 1136
2293 13 1134 1120 1135
2294 13 1134 1120 1136
2295 13 1135 1120 1136
2296 1 1305 1306 1307
2297 2 1305 1306 1336
2298 1 1307 1306 1336
2299 7 1305 1306 1320
2300 8 1307 1306 1320
2301 7 1320 1306 1336
2302 5 1209 1210 1211
2303 10 1209 1210 1222
2304 10 1209 1210 1223
2305 11 1211 1210 1222
2306 11 1211 1210 1223
2307 13 1222 1210 1223
2308 2 1274 1305 1306
2309 7 1274 1305 1318
2310 7 1274 1305 1319
2311 7 1306 1305 1318
2312 7 1306 1305 1319
2313 12 1318 1305 1319
2314 3 1208 1209 1210
2315 4 1208 1209 1215
2316 3 1210 1209 1215
2317 4 1207 1208 1209
2318 9 1207 1208 1221
2319 9 1209 1208 1221
2320 4 1209 1215 1216
2321 9 1209 1215 1233
2322 9 1216 1215 1233
2323 11 40 43 59
2324 11 40 43 60
2325 11 40 43 61
2326 13 59 43 60
2327 13 59 43 61
2328 13 60 43 61
2329 4 920 921 922
2330 9 920 921 935
2331 9 922 921 935
2332 6 1117 1118 1119
2333 6 1117 1118 1120
2334 6 1117 1118 1121
2335 6 1119 1118 1120
2336 6 1119 1118 1121
2337 6 1120 1118 1121
2338 5 1116 1117 1118
2339 10 1116 1117 1129
2340 10 1116 1117 1130
2341 11 1118 1117 1129
2342 11 1118 1117 1130
2343 13 1129 1117 1130
2344 11 1118 1119 1131
2345 11 1118 1119 1132
2346 11 1118 1119 1133
2347 13 1131 1119 1132
2348 13 1131 1119 1133
2349 13 1132 1119 1133
2350 4 1114 1115 1116
2351 9 1114 1115 1128
2352 9 1116 1115 1128
2353 3 1115 1116 1117
2354 4 1115 1116 1122
2355 3 1117 1116 1122
2356 4 1113 1114 1115
2357 9 1113 1114 1127
2358 9 1115 1114 1127
2359 3 918 919 920
2360 3 918 919 929
2361 4 920 919 929
2362 4 919 929 928
2363 9 919 929 948
2364 9 928 929 948
2365 4 922 928 929
2366 9 922 928 947
2367 9 929 928 947
2368 4 1116 1122 1123
2369 9 1116 1122 1140
2370 9 1123 1122 1140
2371 4 888 898 897
2372 9 888 898 916
2373 9 897 898 916
2374 5 1054 1055 1056
2375 10 1054 1055 1067
2376 10 1054 1055 1068
2377 11 1056 1055 1067
2378 11 1056 1055 1068
2379 13 1067 1055 1068
2380 4 891 897 898
2381 9 891 897 915
2382 9 898 897 915
2383 3 890 891 892
2384 4 890 891 897
2385 3 892 891 897
2386 5 891 892 893
2387 10 891 892 904
2388 10 891 892 905
2389 11 893 892 904
2390 11 893 892 905
2391 13 904 892 905
2392 3 921 922 923
2393 4 921 922 928
2394 3 923 922 928
2395 14 1770 1769 1771
2396 5 922 923 924
2397 10 922 923 936
2398 10 922 923 937
2399 11 924 923 936
2400 11 924 923 937
2401 13 936 923 937
2402 11 924 925 938
2403 11 924 925 939
2404 11 924 925 940
2405 13 938 925 939
2406 13 938 925 940
2407 13 939 925 940
2408 4 1054 1060 1061
2409 9 1054 1060 1078
2410 9 1061 1060 1078
2411 11 893 894 906
2412 11 893 894 907
2413 11 893 894 908
2414 13 906 894 907
2415 13 906 894 908
2416 13 907 894 908
2417 6 892 893 894
2418 6 892 893 895
2419 6 892 893 896
2420 6 894 893 895
2421 6 894 893 896
2422 6 895 893 896
2423 11 893 896 912
2424 11 893 896 913
2425 11 893 896 914
2426 13 912 896 913
2427 13 912 896 914
2428 13 913 896 914
2429 4 1275 1285 1284
2430 9 1275 1285 1304
2431 9 1284 1285 1304
2432 4 1278 1284 1285
2433 9 1278 1284 1303
2434 9 1285 1284 1303
2435 3 1274 1275 1276
2436 3 1274 1275 1285
2437 4 1276 1275 1285
2438 4 1275 1276 1277
2439 9 1275 1276 1290
2440 9 1277 1276 1290
2441 3 1277 1278 1279
2442 4 1277 1278 1284
2443 3 1279 1278 1284
2444 14 1749 1748 1750
2445 11 1280 1282 1297
2446 11 1280 1282 1298
2447 11 1280 1282 1299
2448 13 1297 1282 1298
2449 13 1297 1282 1299
2450 13 1298 1282 1299
2451 4 1276 1277 1278
2452 9 1276 1277 1291
2453 9 1278 1277 1291
2454 7 1273 1286 1585
2455 7 1273 1286 1586
2456 7 1273 1286 1587
2457 12 1585 1286 1586
2458 12 1585 1286 1587
2459 12 1586 1286 1587
2460 2 1274 1273 1286
2461 7 1274 1273 1287
2462 7 1274 1273 1288
2463 7 1286 1273 1287
2464 7 1286 1273 1288
2465 12 1287 1273 1288
2466 1 1273 1274 1275
2467 2 1273 1274 1305
2468 1 1275 1274 1305
2469 7 1273 1274 1289
2470 8 1275 1274 1289
2471 7 1289 1274 1305
2472 11 1211 1213 1227
2473 11 1211 1213 1228
2474 11 1211 1213 1229
2475 13 1227 1213 1228
2476 13 1227 1213 1229
2477 13 1228 1213 1229
2478 11 1467 1469 1483
2479 11 1467 1469 1484
2480 11 1467 1469 1485
2481 13 1483 1469 1484
2482 13 1483 1469 1485
2483 13 1484 1469 1485
2484 5 1465 1466 1467
2485 10 1465 1466 1478
2486 10 1465 1466 1479
2487 11 1467 1466 1478
2488 11 1467 1466 1479
2489 13 1478 1466 1479
2490 6 1210 1211 1212
2491 6 1210 1211 1213
2492 6 1210 1211 1214
2493 6 1212 1211 1213
2494 6 1212 1211 1214
2495 6 1213 1211 1214
2496 11 1211 1214 1230
2497 11 1211 1214 1231
2498 11 1211 1214 1232
2499 13 1230 1214 1231
2500 13 1230 1214 1232
2501 13 1231 1214 1232
2502 11 1211 1212 1224
2503 11 1211 1212 1225
2504 11 1211 1212 1226
2505 13 1224 1212 1225
2506 13 1224 1212 1226
2507 13 1225 1212 1226
2508 6 1466 1467 1468
2509 6 1466 1467 1469
2510 6 1466 1467 1470
2511 6 1468 1467 1469
2512 6 1468 1467 1470
2513 6 1469 1467 1470
2514 11 1498 1500 1514
2515 11 1498 1500 1515
2516 11 1498 1500 1516
2517 13 1514 1500 1515
2518 13 1514 1500 1516
2519 13 1515 1500 1516
2520 11 1498 1499 1511
2521 11 1498 1499 1512
2522 11 1498 1499 1513
2523 13 1511 1499 1512
2524 13 1511 1499 1513
2525 13 1512 1499 1513
2526 11 1498 1501 1517
2527 11 1498 1501 1518
2528 11 1498 1501 1519
2529 13 1517 1501 1518
2530 13 1517 1501 1519
2531 13 1518 1501 1519
2532 6 1497 1498 1499
2533 6 1497 1498 1500
2534 6 1497 1498 1501
2535 6 1499 1498 1500
2536 6 1499 1498 1501
2537 6 1500 1498 1501
2538 5 1496 1497 1498
2539 10 1496 1497 1509
2540 10 1496 1497 1510
2541 11 1498 1497 1509
2542 11 1498 1497 1510
2543 13 1509 1497 1510
2544 3 1495 1496 1497
2545 4 1495 1496 1502
2546 3 1497 1496 1502
2547 4 1494 1495 1496
2548 9 1494 1495 1508
2549 9 1496 1495 1508
2550 4 1493 1494 1495
2551 9 1493 1494 1507
2552 9 1495 1494 1507
2553 4 1496 1502 1503
2554 9 1496 1502 1520
2555 9 1503 1502 1520
2556 4 1052 1053 1054
2557 9 1052 1053 1066
2558 9 1054 1053 1066
2559 4 1051 1052 1053
2560 9 1051 1052 1065
2561 9 1053 1052 1065
2562 4 1493 1503 1502
2563 9 1493 1503 1521
2564 9 1502 1503 1521
2565 3 1053 1054 1055
2566 4 1053 1054 1060
2567 3 1055 1054 1060
2568 11 1056 1058 1072
2569 11 1056 1058 1073
2570 11 1056 1058 1074
2571 13 1072 1058 1073
2572 13 1072 1058 1074
2573 13 1073 1058 1074
2574 11 738 740 754
2575 11 738 740 755
2576 11 738 740 756
2577 13 754 740 755
2578 13 754 740 756
2579 13 755 740 756
2580 6 737 738 739
2581 6 737 738 740
2582 6 737 738 741
2583 6 739 738 740
2584 6 739 738 741
2585 6 740 738 741
2586 11 738 739 751
2587 11 738 739 752
2588 11 738 739 753
2589 13 751 739 752
2590 13 751 739 753
2591 13 752 739 753
2592 3 735 736 737
2593 4 735 736 742
2594 3 737 736 742
2595 11 738 741 757
2596 11 738 741 758
2597 11 738 741 759
2598 13 757 741 758
2599 13 757 741 759
2600 13 758 741 759
2601 4 734 735 736
2602 9 734 735 748
2603 9 736 735 748
2604 5 736 737 738
2605 10 736 737 749
2606 10 736 737 750
2607 11 738 737 749
2608 11 738 737 750
2609 13 749 737 750
2610 14 1719 1718 1720
2611 4 1051 1061 1060
2612 9 1051 1061 1079
2613 9 1060 1061 1079
2614 3 1050 1051 1052
2615 3 1050 1051 1061
2616 4 1052 1051 1061
2617 14 1824 1823 1825
2618 14 1743 1742 1744
2619 4 702 712 711
2620 9 702 712 730
2621 9 711 712 730
2622 2 638 637 650
2623 7 638 637 651
2624 7 638 637 652
2625 7 650 637 651
2626 7 650 637 652
2627 12 651 637 652
2628 1 669 670 671
2629 2 669 670 700
2630 1 671 670 700
2631 7 669 670 684
2632 8 671 670 684
2633 7 684 670 700
2634 4 705 711 712
2635 9 705 711 729
2636 9 712 711 729
2637 7 637 650 949
2638 7 637 650 950
2639 7 637 650 951
2640 12 949 650 950
2641 12 949 650 951
2642 12 950 650 951
2643 2 638 669 670
2644 7 638 669 682
2645 7 638 669 683
2646 7 670 669 682
2647 7 670 669 683
2648 12 682 669 683
2649 1 637 638 639
2650 2 637 638 669
2651 1 639 638 669
2652 7 637 638 653
2653 8 639 638 653
2654 7 653 638 669
2655 3 1464 1465 1466
2656 4 1464 1465 1471
2657 3 1466 1465 1471
2658 11 1467 1470 1486
2659 11 1467 1470 1487
2660 11 1467 1470 1488
2661 13 1486 1470 1487
2662 13 1486 1470 1488
2663 13 1487 1470 1488
2664 4 1463 1464 1465
2665 9 1463 1464 1477
2666 9 1465 1464 1477
2667 11 1467 1468 1480
2668 11 1467 1468 1481
2669 11 1467 1468 1482
2670 13 1480 1468 1481
2671 13 1480 1468 1482
2672 13 1481 1468 1482
2673 4 1431 1441 1440
2674 9 1431 1441 1459
2675 9 1440 1441 1459
2676 3 1430 1431 1432
2677 3 1430 1431 1441
2678 4 1432 1431 1441
2679 4 1462 1463 1464
2680 9 1462 1463 1476
2681 9 1464 1463 1476
2682 4 1465 1471 1472
2683 9 1465 1471 1489
2684 9 1472 1471 1489
2685 1 1429 1430 1431
2686 2 1429 1430 1460
2687 1 1431 1430 1460
2688 7 1429 1430 1444
2689 8 1431 1430 1444
2690 7 1444 1430 1460
2691 4 1434 1440 1441
2692 9 1434 1440 1458
2693 9 1441 1440 1458
2694 5 100 101 102
2695 10 100 101 113
2696 10 100 101 114
2697 11 102 101 113
2698 11 102 101 114
2699 13 113 101 114
2700 4 1462 1472 1471
2701 9 1462 1472 1490
2702 9 1471 1472 1490
2703 3 1461 1462 1463
2704 3 1461 1462 1472
2705 4 1463 1462 1472
2706 2 1430 1460 1461
2707 7 1430 1460 1473
2708 7 1430 1460 1474
2709 7 1461 1460 1473
2710 7 1461 1460 1474
2711 12 1473 1460 1474
2712 1 1460 1461 1462
2713 2 1460 1461 1491
2714 1 1462 1461 1491
2715 7 1460 1461 1475
2716 8 1462 1461 1475
2717 7 1475 1461 1491
2718 3 1492 1493 1494
2719 3 1492 1493 1503
2720 4 1494 1493 1503
2721 11 800 801 813
2722 11 800 801 814
2723 11 800 801 815
2724 13 813 801 814
2725 13 813 801 815
2726 13 814 801 815
2727 11 800 802 816
2728 11 800 802 817
2729 11 800 802 818
2730 13 816 802 817
2731 13 816 802 818
2732 13 817 802 818
2733 4 798 804 805
2734 9 798 804 822
2735 9 805 804 822
2736 5 798 799 800
2737 10 798 799 811
2738 10 798 799 812
2739 11 800 799 811
2740 11 800 799 812
2741 13 811 799 812
2742 3 797 798 799
2743 4 797 798 804
2744 3 799 798 804
2745 6 799 800 801
2746 6 799 800 802
2747 6 799 800 803
2748 6 801 800 802
2749 6 801 800 803
2750 6 802 800 803
2751 11 800 803 819
2752 11 800 803 820
2753 11 800 803 821
2754 13 819 803 820
2755 13 819 803 821
2756 13 820 803 821
2757 4 736 742 743
2758 9 736 742 760
2759 9 743 742 760
2760 4 733 743 742
2761 9 733 743 761
2762 9 742 743 761
2763 4 764 774 773
2764 9 764 774 792
2765 9 773 774 792
2766 2 670 700 701
2767 7 670 700 713
2768 7 670 700 714
2769 7 701 700 713
2770 7 701 700 714
2771 12 713 700 714
2772 4 733 734 735
2773 9 733 734 747
2774 9 735 734 747
2775 3 701 702 703
2776 3 701 702 712
2777 4 703 702 712
2778 2 732 762 763
2779 7 732 762 775
2780 7 732 762 776
2781 7 763 762 775
2782 7 763 762 776
2783 12 775 762 776
2784 1 762 763 764
2785 2 762 763 793
2786 1 764 763 793
2787 7 762 763 777
2788 8 764 763 777
2789 7 777 763 793
2790 2 701 731 732
2791 7 701 731 744
2792 7 701 731 745
2793 7 732 731 744
2794 7 732 731 745
2795 12 744 731 745
2796 1 731 732 733
2797 2 731 732 762
2798 1 733 732 762
2799 7 731 732 746
2800 8 733 732 746
2801 7 746 732 762
2802 3 732 733 734
2803 3 732 733 743
2804 4 734 733 743
2805 3 763 764 765
2806 3 763 764 774
2807 4 765 764 774
2808 4 764 765 766
2809 9 764 765 778
2810 9 766 765 778
2811 1 700 701 702
2812 2 700 701 731
2813 1 702 701 731
2814 7 700 701 715
2815 8 702 701 715
2816 7 715 701 731
2817 11 1405 1407 1421
2818 11 1405 1407 1422
2819 11 1405 1407 1423
2820 13 1421 1407 1422
2821 13 1421 1407 1423
2822 13 1422 1407 1423
2823 4 702 703 704
2824 9 702 703 716
2825 9 704 703 716
2826 3 670 671 672
2827 3 670 671 681
2828 4 672 671 681
2829 4 674 680 681
2830 9 674 680 698
2831 9 681 680 698
2832 4 671 681 680
2833 9 671 681 699
2834 9 680 681 699
2835 4 1403 1409 1410
2836 9 1403 1409 1427
2837 9 1410 1409 1427
2838 4 1400 1410 1409
2839 9 1400 1410 1428
2840 9 1409 1410 1428
2841 3 1402 1403 1404
2842 4 1402 1403 1409
2843 3 1404 1403 1409
2844 2 1399 1429 1430
2845 7 1399 1429 1442
2846 7 1399 1429 1443
2847 7 1430 1429 1442
2848 7 1430 1429 1443
2849 12 1442 1429 1443
2850 3 1399 1400 1401
2851 3 1399 1400 1410
2852 4 1401 1400 1410
2853 4 1401 1402 1403
2854 9 1401 1402 1415
2855 9 1403 1402 1415
2856 4 1400 1401 1402
2857 9 1400 1401 1414
2858 9 1402 1401 1414
2859 1 1398 1399 1400
2860 2 1398 1399 1429
2861 1 1400 1399 1429
2862 7 1398 1399 1413
2863 8 1400 1399 1413
2864 7 1413 1399 1429
2865 11 102 105 121
2866 11 102 105 122
2867 11 102 105 123
2868 13 121 105 122
2869 13 121 105 123
2870 13 122 105 123
2871 11 1529 1530 1542
2872 11 1529 1530 1543
2873 11 1529 1530 1544
2874 13 1542 1530 1543
2875 13 1542 1530 1544
2876 13 1543 1530 1544
2877 4 795 805 804
2878 9 795 805 823
2879 9 804 805 823
2880 4 767 773 774
2881 9 767 773 791
2882 9 774 773 791
2883 3 766 767 768
2884 4 766 767 773
2885 3 768 767 773
2886 4 765 766 767
2887 9 765 766 779
2888 9 767 766 779
2889 11 676 678 692
2890 11 676 678 693
2891 11 676 678 694
2892 13 692 678 693
2893 13 692 678 694
2894 13 693 678 694
2895 5 1403 1404 1405
2896 10 1403 1404 1416
2897 10 1403 1404 1417
2898 11 1405 1404 1416
2899 11 1405 1404 1417
2900 13 1416 1404 1417
2901 4 1338 1348 1347
2902 9 1338 1348 1366
2903 9 1347 1348 1366
2904 4 1369 1379 1378
2905 9 1369 1379 1397
2906 9 1378 1379 1397
2907 4 1369 1370 1371
2908 9 1369 1370 1383
2909 9 1371 1370 1383
2910 11 1560 1561 1574
2911 11 1560 1561 1575
2912 11 1560 1561 1576
2913 13 1574 1561 1575
2914 13 1574 1561 1576
2915 13 1575 1561 1576
2916 11 1560 1563 1580
2917 11 1560 1563 1581
2918 11 1560 1563 1582
2919 13 1580 1563 1581
2920 13 1580 1563 1582
2921 13 1581 1563 1582
2922 5 860 861 862
2923 10 860 861 873
2924 10 860 861 874
2925 11 862 861 873
2926 11 862 861 874
2927 13 873 861 874
2928 11 862 863 875
2929 11 862 863 876
2930 11 862 863 877
2931 13 875 863 876
2932 13 875 863 877
2933 13 876 863 877
2934 4 1339 1340 1341
2935 9 1339 1340 1353
2936 9 1341 1340 1353
2937 3 1205 1206 1207
2938 3 1205 1206 1216
2939 4 1207 1206 1216
2940 4 1206 1216 1215
2941 9 1206 1216 1234
2942 9 1215 1216 1234
2943 4 1206 1207 1208
2944 9 1206 1207 1220
2945 9 1208 1207 1220
2946 1 1111 1112 1113
2947 2 1111 1112 1142
2948 1 1113 1112 1142
2949 7 1111 1112 1126
2950 8 1113 1112 1126
2951 7 1126 1112 1142
2952 4 1113 1123 1122
2953 9 1113 1123 1141
2954 9 1122 1123 1141
2955 3 1112 1113 1114
2956 3 1112 1113 1123
2957 4 1114 1113 1123
2958 11 924 927 944
2959 11 924 927 945
2960 11 924 927 946
2961 13 944 927 945
2962 13 944 927 946
2963 13 945 927 946
2964 6 923 924 925
2965 6 923 924 926
2966 6 923 924 927
2967 6 925 924 926
2968 6 925 924 927
2969 6 926 924 927
2970 11 1280 1283 1300
2971 11 1280 1283 1301
2972 11 1280 1283 1302
2973 13 1300 1283 1301
2974 13 1300 1283 1302
2975 13 1301 1283 1302
2976 11 1280 1281 1294
2977 11 1280 1281 1295
2978 11 1280 1281 1296
2979 13 1294 1281 1295
2980 13 1294 1281 1296
2981 13 1295 1281 1296
2982 6 1279 1280 1281
2983 6 1279 1280 1282
2984 6 1279 1280 1283
2985 6 1281 1280 1282
2986 6 1281 1280 1283
2987 6 1282 1280 1283
2988 5 1278 1279 1280
2989 10 1278 1279 1292
2990 10 1278 1279 1293
2991 11 1280 1279 1292
2992 11 1280 1279 1293
2993 13 1292 1279 1293
2994 2 1081 1111 1112
2995 7 1081 1111 1124
2996 7 1081 1111 1125
2997 7 1112 1111 1124
2998 7 1112 1111 1125
2999 12 1124 1111 1125
3000 2 1050 1080 1081
3001 7 1050 1080 1093
3002 7 1050 1080 1094
3003 7 1081 1080 1093
3004 7 1081 1080 1094
3005 12 1093 1080 1094
3006 2 1112 1142 1143
3007 7 1112 1142 1155
3008 7 1112 1142 1156
3009 7 1143 1142 1155
3010 7 1143 1142 1156
3011 12 1155 1142 1156
3012 1 1049 1050 1051
3013 2 1049 1050 1080
3014 1 1051 1050 1080
3015 7 1049 1050 1064
3016 8 1051 1050 1064
3017 7 1064 1050 1080
3018 2 1019 1049 1050
3019 7 1019 1049 1062
3020 7 1019 1049 1063
3021 7 1050 1049 1062
3022 7 1050 1049 1063
3023 12 1062 1049 1063
3024 11 707 709 723
3025 11 707 709 724
3026 11 707 709 725
3027 13 723 709 724
3028 13 723 709 725
3029 13 724 709 725
3030 4 639 649 648
3031 9 639 649 668
3032 9 648 649 668
3033 3 704 705 706
3034 4 704 705 711
3035 3 706 705 711
3036 4 639 640 641
3037 9 639 640 654
3038 9 641 640 654
3039 3 638 639 640
3040 3 638 639 649
3041 4 640 639 649
3042 4 1432 1433 1434
3043 9 1432 1433 1446
3044 9 1434 1433 1446
3045 11 1436 1437 1449
3046 11 1436 1437 1450
3047 11 1436 1437 1451
3048 13 1449 1437 1450
3049 13 1449 1437 1451
3050 13 1450 1437 1451
3051 3 1433 1434 1435
3052 4 1433 1434 1440
3053 3 1435 1434 1440
3054 4 1431 1432 1433
3055 9 1431 1432 1445
3056 9 1433 1432 1445
3057 4 1524 1525 1526
3058 9 1524 1525 1538
3059 9 1526 1525 1538
3060 4 1524 1534 1533
3061 9 1524 1534 1552
3062 9 1533 1534 1552
3063 1 1491 1492 1493
3064 2 1491 1492 1522
3065 1 1493 1492 1522
3066 7 1491 1492 1506
3067 8 1493 1492 1506
3068 7 1506 1492 1522
3069 2 1461 1491 1492
3070 7 1461 1491 1504
3071 7 1461 1491 1505
3072 7 1492 1491 1504
3073 7 1492 1491 1505
3074 12 1504 1491 1505
3075 7 955 968 1267
3076 7 955 968 1268
3077 7 955 968 1269
3078 12 1267 968 1268
3079 12 1267 968 1269
3080 12 1268 968 1269
3081 4 1527 1533 1534
3082 9 1527 1533 1551
3083 9 1534 1533 1551
3084 4 671 672 673
3085 9 671 672 685
3086 9 673 672 685
3087 4 703 704 705
3088 9 703 704 717
3089 9 705 704 717
3090 11 676 677 689
3091 11 676 677 690
3092 11 676 677 691
3093 13 689 677 690
3094 13 689 677 691
3095 13 690 677 691
3096 3 673 674 675
3097 4 673 674 680
3098 3 675 674 680
3099 3 1526 1527 1528
3100 4 1526 1527 1533
3101 3 1528 1527 1533
3102 4 1525 1526 1527
3103 9 1525 1526 1539
3104 9 1527 1526 1539
3105 6 675 676 677
3106 6 675 676 678
3107 6 675 676 679
3108 6 677 676 678
3109 6 677 676 679
3110 6 678 676 679

Dihedrals

1 3 1370 1371 1372 1373
2 3 1370 1371 1372 1378
3 3 1372 1371 1370 1383
4 5 1371 1372 1373 1374
5 3 1371 1372 1378 1379
6 3 1373 1372 1378 1379
7 5 1371 1372 1373 1385
8 5 1371 1372 1373 1386
9 3 1371 1372 1378 1396
10 3 1373 1372 1371 1384
11 3 1373 1372 1378 1396
12 3 1378 1372 1371 1384
13 5 1378 1372 1373 1385
14 5 1378 1372 1373 1386
15 6 1372 1373 1374 1375
16 7 1372 1373 1374 1375
17 6 1372 1373 1374 1376
18 7 1372 1373 1374 1376
19 6 1372 1373 1374 1377
20 7 1372 1373 1374 1377
21 5 1374 1373 1372 1378
22 3 1341 1347 1348 1366
23 3 1365 1347 1348 1366
24 3 1372 1378 1379 1397
25 3 1396 1378 1379 1397
26 4 1559 1560 1561 1574
27 4 1559 1560 1561 1575
28 4 1559 1560 1561 1576
29 4 1559 1560 1562 1577
30 4 1559 1560 1562 1578
31 4 1559 1560 1562 1579
32 4 1559 1560 1563 1580
33 4 1559 1560 1563 1581
34 4 1559 1560 1563 1582
35 4 1561 1560 1559 1572
36 4 1561 1560 1559 1573
37 4 1561 1560 1562 1577
38 4 1561 1560 1562 1578
39 4 1561 1560 1562 1579
40 4 1561 1560 1563 1580
41 4 1561 1560 1563 1581
42 4 1561 1560 1563 1582
43 4 1562 1560 1559 1572
44 4 1562 1560 1559 1573
45 4 1562 1560 1561 1574
46 4 1562 1560 1561 1575
47 4 1562 1560 1561 1576
48 4 1562 1560 1563 1580
49 4 1562 1560 1563 1581
50 4 1562 1560 1563 1582
51 4 1563 1560 1559 1572
52 4 1563 1560 1559 1573
53 4 1563 1560 1561 1574
54 4 1563 1560 1561 1575
55 4 1563 1560 1561 1576
56 4 1563 1560 1562 1577
57 4 1563 1560 1562 1578
58 4 1563 1560 1562 1579
59 6 1558 1559 1560 1561
60 7 1558 1559 1560 1561
61 6 1558 1559 1560 1562
62 7 1558 1559 1560 1562
63 6 1558 1559 1560 1563
64 7 1558 1559 1560 1563
65 5 1560 1559 1558 1564
66 5 1557 1558 1559 1560
67 3 1557 1558 1564 1565
68 3 1559 1558 1564 1565
69 5 1557 1558 1559 1572
70 5 1557 1558 1559 1573
71 3 1557 1558 1564 1583
72 3 1559 1558 1557 1571
73 3 1559 1558 1564 1583
74 3 1564 1558 1557 1571
75 5 1564 1558 1559 1572
76 5 1564 1558 1559 1573
77 3 1558 1564 1565 1584
78 3 1583 1564 1565 1584
79 3 1556 1557 1558 1559
80 3 1556 1557 1558 1564
81 3 1558 1557 1556 1570
82 4 481 482 483 495
83 4 481 482 483 496
84 4 481 482 483 497
85 4 481 482 484 498
86 4 481 482 484 499
87 4 481 482 484 500
88 4 481 482 485 501
89 4 481 482 485 502
90 4 481 482 485 503
91 4 483 482 481 493
92 4 483 482 481 494
93 4 483 482 484 498
94 4 483 482 484 499
95 4 483 482 484 500
96 4 483 482 485 501
97 4 483 482 485 502
98 4 483 482 485 503
99 4 484 482 481 493
100 4 484 482 481 494
101 4 484 482 483 495
102 4 484 482 483 496
103 4 484 482 483 497
104 4 484 482 485 501
105 4 484 482 485 502
106 4 484 482 485 503
107 4 485 482 481 493
108 4 485 482 481 494
109 4 485 482 483 495
110 4 485 482 483 496
111 4 485 482 483 497
112 4 485 482 484 498
113 4 485 482 484 499
114 4 485 482 484 500
115 3 480 486 487 505
116 3 504 486 487 505
117 4 419 420 421 433
118 4 419 420 421 434
119 4 419 420 421 435
120 4 419 420 422 436
121 4 419 420 422 437
122 4 419 420 422 438
123 4 419 420 423 439
124 4 419 420 423 440
125 4 419 420 423 441
126 4 421 420 419 431
127 4 421 420 419 432
128 4 421 420 422 436
129 4 421 420 422 437
130 4 421 420 422 438
131 4 421 420 423 439
132 4 421 420 423 440
133 4 421 420 423 441
134 4 422 420 419 431
135 4 422 420 419 432
136 4 422 420 421 433
137 4 422 420 421 434
138 4 422 420 421 435
139 4 422 420 423 439
140 4 422 420 423 440
141 4 422 420 423 441
142 4 423 420 419 431
143 4 423 420 419 432
144 4 423 420 421 433
145 4 423 420 421 434
146 4 423 420 421 435
147 4 423 420 422 436
148 4 423 420 422 437
149 4 423 420 422 438
150 3 477 487 486 480
151 3 477 487 486 504
152 4 861 862 863 875
153 4 861 862 863 876
154 4 861 862 863 877
155 4 861 862 864 878
156 4 861 862 864 879
157 4 861 862 864 880
158 4 861 862 865 881
159 4 861 862 865 882
160 4 861 862 865 883
161 4 863 862 861 873
162 4 863 862 861 874
163 4 863 862 864 878
164 4 863 862 864 879
165 4 863 862 864 880
166 4 863 862 865 881
167 4 863 862 865 882
168 4 863 862 865 883
169 4 864 862 861 873
170 4 864 862 861 874
171 4 864 862 863 875
172 4 864 862 863 876
173 4 864 862 863 877
174 4 864 862 865 881
175 4 864 862 865 882
176 4 864 862 865 883
177 4 865 862 861 873
178 4 865 862 861 874
179 4 865 862 863 875
180 4 865 862 863 876
181 4 865 862 863 877
182 4 865 862 864 878
183 4 865 862 864 879
184 4 865 862 864 880
185 3 449 455 456 474
186 3 473 455 456 474
187 3 446 456 455 449
188 3 446 456 455 473
189 4 574 575 576 588
190 4 574 575 576 589
191 4 574 575 576 590
192 4 574 575 577 591
193 4 574 575 577 592
194 4 574 575 577 593
195 4 574 575 578 594
196 4 574 575 578 595
197 4 574 575 578 596
198 4 576 575 574 586
199 4 576 575 574 587
200 4 576 575 577 591
201 4 576 575 577 592
202 4 576 575 577 593
203 4 576 575 578 594
204 4 576 575 578 595
205 4 576 575 578 596
206 4 577 575 574 586
207 4 577 575 574 587
208 4 577 575 576 588
209 4 577 575 576 589
210 4 577 575 576 590
211 4 577 575 578 594
212 4 577 575 578 595
213 4 577 575 578 596
214 4 578 575 574 586
215 4 578 575 574 587
216 4 578 575 576 588
217 4 578 575 576 589
218 4 578 575 576 590
219 4 578 575 577 591
220 4 578 575 577 592
221 4 578 575 577 593
222 4 450 451 452 464
223 4 450 451 452 465
224 4 450 451 452 466
225 4 450 451 453 467
226 4 450 451 453 468
227 4 450 451 453 469
228 4 450 451 454 470
229 4 450 451 454 471
230 4 450 451 454 472
231 4 452 451 450 462
232 4 452 451 450 463
233 4 452 451 453 467
234 4 452 451 453 468
235 4 452 451 453 469
236 4 452 451 454 470
237 4 452 451 454 471
238 4 452 451 454 472
239 4 453 451 450 462
240 4 453 451 450 463
241 4 453 451 452 464
242 4 453 451 452 465
243 4 453 451 452 466
244 4 453 451 454 470
245 4 453 451 454 471
246 4 453 451 454 472
247 4 454 451 450 462
248 4 454 451 450 463
249 4 454 451 452 464
250 4 454 451 452 465
251 4 454 451 452 466
252 4 454 451 453 467
253 4 454 451 453 468
254 4 454 451 453 469
255 5 448 449 450 451
256 3 448 449 455 456
257 3 450 449 455 456
258 5 448 449 450 462
259 5 448 449 450 463
260 3 448 449 455 473
261 3 450 449 448 461
262 3 450 449 455 473
263 3 455 449 448 461
264 5 455 449 450 462
265 5 455 449 450 463
266 5 1340 1341 1342 1343
267 3 1340 1341 1347 1348
268 3 1342 1341 1347 1348
269 5 1340 1341 1342 1354
270 5 1340 1341 1342 1355
271 3 1340 1341 1347 1365
272 3 1342 1341 1340 1353
273 3 1342 1341 1347 1365
274 3 1347 1341 1340 1353
275 5 1347 1341 1342 1354
276 5 1347 1341 1342 1355
277 4 1342 1343 1344 1356
278 4 1342 1343 1344 1357
279 4 1342 1343 1344 1358
280 4 1342 1343 1345 1359
281 4 1342 1343 1345 1360
282 4 1342 1343 1345 1361
283 4 1342 1343 1346 1362
284 4 1342 1343 1346 1363
285 4 1342 1343 1346 1364
286 4 1344 1343 1342 1354
287 4 1344 1343 1342 1355
288 4 1344 1343 1345 1359
289 4 1344 1343 1345 1360
290 4 1344 1343 1345 1361
291 4 1344 1343 1346 1362
292 4 1344 1343 1346 1363
293 4 1344 1343 1346 1364
294 4 1345 1343 1342 1354
295 4 1345 1343 1342 1355
296 4 1345 1343 1344 1356
297 4 1345 1343 1344 1357
298 4 1345 1343 1344 1358
299 4 1345 1343 1346 1362
300 4 1345 1343 1346 1363
301 4 1345 1343 1346 1364
302 4 1346 1343 1342 1354
303 4 1346 1343 1342 1355
304 4 1346 1343 1344 1356
305 4 1346 1343 1344 1357
306 4 1346 1343 1344 1358
307 4 1346 1343 1345 1359
308 4 1346 1343 1345 1360
309 4 1346 1343 1345 1361
310 6 1341 1342 1343 1344
311 7 1341 1342 1343 1344
312 6 1341 1342 1343 1345
313 7 1341 1342 1343 1345
314 6 1341 1342 1343 1346
315 7 1341 1342 1343 1346
316 5 1343 1342 1341 1347
317 1 1235 1236 1237 1238
318 1 1235 1236 1237 1247
319 8 1235 1236 1250 1270
320 8 1235 1236 1250 1271
321 8 1235 1236 1250 1272
322 4 1237 1236 1235 1248
323 4 1237 1236 1235 1249
324 4 1237 1236 1250 1270
325 4 1237 1236 1250 1271
326 4 1237 1236 1250 1272
327 10 1251 1236 1250 1270
328 10 1251 1236 1250 1271
329 10 1251 1236 1250 1272
330 4 1205 1235 1236 1237
331 2 1205 1235 1236 1250
332 8 1205 1235 1236 1251
333 8 1248 1235 1236 1250
334 10 1248 1235 1236 1251
335 8 1249 1235 1236 1250
336 10 1249 1235 1236 1251
337 1 1204 1205 1206 1207
338 1 1204 1205 1206 1216
339 2 1204 1205 1235 1236
340 4 1206 1205 1235 1236
341 8 1204 1205 1235 1248
342 8 1204 1205 1235 1249
343 4 1206 1205 1204 1217
344 4 1206 1205 1204 1218
345 4 1206 1205 1235 1248
346 4 1206 1205 1235 1249
347 8 1219 1205 1235 1236
348 10 1219 1205 1235 1248
349 10 1219 1205 1235 1249
350 1 1173 1174 1175 1176
351 1 1173 1174 1175 1185
352 2 1173 1174 1204 1205
353 4 1175 1174 1204 1205
354 8 1173 1174 1204 1217
355 8 1173 1174 1204 1218
356 4 1175 1174 1173 1186
357 4 1175 1174 1173 1187
358 4 1175 1174 1204 1217
359 4 1175 1174 1204 1218
360 8 1188 1174 1204 1205
361 10 1188 1174 1204 1217
362 10 1188 1174 1204 1218
363 4 1174 1204 1205 1206
364 2 1174 1204 1205 1235
365 8 1174 1204 1205 1219
366 10 1217 1204 1205 1219
367 8 1217 1204 1205 1235
368 10 1218 1204 1205 1219
369 8 1218 1204 1205 1235
370 4 1143 1173 1174 1175
371 2 1143 1173 1174 1204
372 8 1143 1173 1174 1188
373 10 1186 1173 1174 1188
374 8 1186 1173 1174 1204
375 10 1187 1173 1174 1188
376 8 1187 1173 1174 1204
377 3 1236 1237 1238 1239
378 3 1236 1237 1247 1246
379 1 1238 1237 1236 1250
380 3 1238 1237 1247 1246
381 1 1247 1237 1236 1250
382 3 1236 1237 1238 1252
383 3 1236 1237 1247 1266
384 9 1238 1237 1236 1251
385 5 1238 1237 1236 1251
386 3 1238 1237 1247 1266
387 9 1247 1237 1236 1251
388 5 1247 1237 1236 1251
389 3 1247 1237 1238 1252
390 3 1237 1247 1246 1240
391 3 1237 1247 1246 1265
392 3 1237 1238 1239 1240
393 3 1239 1238 1237 1247
394 3 1237 1238 1239 1253
395 3 1252 1238 1239 1253
396 3 1175 1185 1184 1178
397 3 1175 1185 1184 1202
398 3 1240 1246 1247 1266
399 3 1265 1246 1247 1266
400 5 1239 1240 1241 1242
401 3 1239 1240 1246 1247
402 3 1241 1240 1246 1247
403 5 1239 1240 1241 1254
404 5 1239 1240 1241 1255
405 3 1239 1240 1246 1265
406 3 1241 1240 1239 1253
407 3 1241 1240 1246 1265
408 3 1246 1240 1239 1253
409 5 1246 1240 1241 1254
410 5 1246 1240 1241 1255
411 6 418 419 420 421
412 7 418 419 420 421
413 6 418 419 420 422
414 7 418 419 420 422
415 6 418 419 420 423
416 7 418 419 420 423
417 5 420 419 418 424
418 3 1082 1092 1091 1085
419 3 1082 1092 1091 1109
420 5 1084 1085 1086 1087
421 3 1084 1085 1091 1092
422 3 1086 1085 1091 1092
423 5 1084 1085 1086 1098
424 5 1084 1085 1086 1099
425 3 1084 1085 1091 1109
426 3 1086 1085 1084 1097
427 3 1086 1085 1091 1109
428 3 1091 1085 1084 1097
429 5 1091 1085 1086 1098
430 5 1091 1085 1086 1099
431 3 1085 1091 1092 1110
432 3 1109 1091 1092 1110
433 3 1238 1239 1240 1241
434 3 1238 1239 1240 1246
435 3 1240 1239 1238 1252
436 6 1085 1086 1087 1088
437 7 1085 1086 1087 1088
438 6 1085 1086 1087 1089
439 7 1085 1086 1087 1089
440 6 1085 1086 1087 1090
441 7 1085 1086 1087 1090
442 5 1087 1086 1085 1091
443 3 416 417 418 419
444 3 416 417 418 424
445 3 418 417 416 429
446 4 1024 1025 1026 1038
447 4 1024 1025 1026 1039
448 4 1024 1025 1026 1040
449 4 1024 1025 1027 1041
450 4 1024 1025 1027 1042
451 4 1024 1025 1027 1043
452 4 1024 1025 1028 1044
453 4 1024 1025 1028 1045
454 4 1024 1025 1028 1046
455 4 1026 1025 1024 1036
456 4 1026 1025 1024 1037
457 4 1026 1025 1027 1041
458 4 1026 1025 1027 1042
459 4 1026 1025 1027 1043
460 4 1026 1025 1028 1044
461 4 1026 1025 1028 1045
462 4 1026 1025 1028 1046
463 4 1027 1025 1024 1036
464 4 1027 1025 1024 1037
465 4 1027 1025 1026 1038
466 4 1027 1025 1026 1039
467 4 1027 1025 1026 1040
468 4 1027 1025 1028 1044
469 4 1027 1025 1028 1045
470 4 1027 1025 1028 1046
471 4 1028 1025 1024 1036
472 4 1028 1025 1024 1037
473 4 1028 1025 1026 1038
474 4 1028 1025 1026 1039
475 4 1028 1025 1026 1040
476 4 1028 1025 1027 1041
477 4 1028 1025 1027 1042
478 4 1028 1025 1027 1043
479 6 1023 1024 1025 1026
480 7 1023 1024 1025 1026
481 6 1023 1024 1025 1027
482 7 1023 1024 1025 1027
483 6 1023 1024 1025 1028
484 7 1023 1024 1025 1028
485 5 1025 1024 1023 1029
486 3 418 424 425 443
487 3 442 424 425 443
488 5 417 418 419 420
489 3 417 418 424 425
490 3 419 418 424 425
491 5 417 418 419 431
492 5 417 418 419 432
493 3 417 418 424 442
494 3 419 418 417 430
495 3 419 418 424 442
496 3 424 418 417 430
497 5 424 418 419 431
498 5 424 418 419 432
499 3 415 425 424 418
500 3 415 425 424 442
501 6 449 450 451 452
502 7 449 450 451 452
503 6 449 450 451 453
504 7 449 450 451 453
505 6 449 450 451 454
506 7 449 450 451 454
507 5 451 450 449 455
508 3 1174 1175 1176 1177
509 3 1174 1175 1185 1184
510 1 1176 1175 1174 1204
511 3 1176 1175 1185 1184
512 1 1185 1175 1174 1204
513 3 1174 1175 1176 1189
514 3 1174 1175 1185 1203
515 9 1176 1175 1174 1188
516 5 1176 1175 1174 1188
517 3 1176 1175 1185 1203
518 9 1185 1175 1174 1188
519 5 1185 1175 1174 1188
520 3 1185 1175 1176 1189
521 1 1142 1143 1144 1145
522 1 1142 1143 1144 1154
523 2 1142 1143 1173 1174
524 4 1144 1143 1173 1174
525 8 1142 1143 1173 1186
526 8 1142 1143 1173 1187
527 4 1144 1143 1142 1155
528 4 1144 1143 1142 1156
529 4 1144 1143 1173 1186
530 4 1144 1143 1173 1187
531 8 1157 1143 1173 1174
532 10 1157 1143 1173 1186
533 10 1157 1143 1173 1187
534 3 1175 1176 1177 1178
535 3 1177 1176 1175 1185
536 3 1175 1176 1177 1190
537 3 1189 1176 1177 1190
538 3 1176 1177 1178 1179
539 3 1176 1177 1178 1184
540 3 1178 1177 1176 1189
541 3 1143 1144 1145 1146
542 3 1143 1144 1154 1153
543 1 1145 1144 1143 1173
544 3 1145 1144 1154 1153
545 1 1154 1144 1143 1173
546 3 1143 1144 1145 1158
547 3 1143 1144 1154 1172
548 9 1145 1144 1143 1157
549 5 1145 1144 1143 1157
550 3 1145 1144 1154 1172
551 9 1154 1144 1143 1157
552 5 1154 1144 1143 1157
553 3 1154 1144 1145 1158
554 3 1144 1145 1146 1147
555 3 1146 1145 1144 1154
556 3 1144 1145 1146 1159
557 3 1158 1145 1146 1159
558 3 1145 1146 1147 1148
559 3 1145 1146 1147 1153
560 3 1147 1146 1145 1158
561 5 1177 1178 1179 1180
562 3 1177 1178 1184 1185
563 3 1179 1178 1184 1185
564 5 1177 1178 1179 1191
565 5 1177 1178 1179 1192
566 3 1177 1178 1184 1202
567 3 1179 1178 1177 1190
568 3 1179 1178 1184 1202
569 3 1184 1178 1177 1190
570 5 1184 1178 1179 1191
571 5 1184 1178 1179 1192
572 3 1178 1184 1185 1203
573 3 1202 1184 1185 1203
574 6 1178 1179 1180 1181
575 7 1178 1179 1180 1181
576 6 1178 1179 1180 1182
577 7 1178 1179 1180 1182
578 6 1178 1179 1180 1183
579 7 1178 1179 1180 1183
580 5 1180 1179 1178 1184
581 3 1081 1082 1083 1084
582 3 1081 1082 1092 1091
583 1 1083 1082 1081 1111
584 3 1083 1082 1092 1091
585 1 1092 1082 1081 1111
586 3 1081 1082 1083 1096
587 3 1081 1082 1092 1110
588 9 1083 1082 1081 1095
589 5 1083 1082 1081 1095
590 3 1083 1082 1092 1110
591 9 1092 1082 1081 1095
592 5 1092 1082 1081 1095
593 3 1092 1082 1083 1096
594 3 1083 1084 1085 1086
595 3 1083 1084 1085 1091
596 3 1085 1084 1083 1096
597 1 1080 1081 1082 1083
598 1 1080 1081 1082 1092
599 2 1080 1081 1111 1112
600 4 1082 1081 1111 1112
601 8 1080 1081 1111 1124
602 8 1080 1081 1111 1125
603 4 1082 1081 1080 1093
604 4 1082 1081 1080 1094
605 4 1082 1081 1111 1124
606 4 1082 1081 1111 1125
607 8 1095 1081 1111 1112
608 10 1095 1081 1111 1124
609 10 1095 1081 1111 1125
610 3 1082 1083 1084 1085
611 3 1084 1083 1082 1092
612 3 1082 1083 1084 1097
613 3 1096 1083 1084 1097
614 3 1144 1154 1153 1147
615 3 1144 1154 1153 1171
616 5 1146 1147 1148 1149
617 3 1146 1147 1153 1154
618 3 1148 1147 1153 1154
619 5 1146 1147 1148 1160
620 5 1146 1147 1148 1161
621 3 1146 1147 1153 1171
622 3 1148 1147 1146 1159
623 3 1148 1147 1153 1171
624 3 1153 1147 1146 1159
625 5 1153 1147 1148 1160
626 5 1153 1147 1148 1161
627 3 1147 1153 1154 1172
628 3 1171 1153 1154 1172
629 6 1147 1148 1149 1150
630 7 1147 1148 1149 1150
631 6 1147 1148 1149 1151
632 7 1147 1148 1149 1151
633 6 1147 1148 1149 1152
634 7 1147 1148 1149 1152
635 5 1149 1148 1147 1153
636 4 1148 1149 1150 1162
637 4 1148 1149 1150 1163
638 4 1148 1149 1150 1164
639 4 1148 1149 1151 1165
640 4 1148 1149 1151 1166
641 4 1148 1149 1151 1167
642 4 1148 1149 1152 1168
643 4 1148 1149 1152 1169
644 4 1148 1149 1152 1170
645 4 1150 1149 1148 1160
646 4 1150 1149 1148 1161
647 4 1150 1149 1151 1165
648 4 1150 1149 1151 1166
649 4 1150 1149 1151 1167
650 4 1150 1149 1152 1168
651 4 1150 1149 1152 1169
652 4 1150 1149 1152 1170
653 4 1151 1149 1148 1160
654 4 1151 1149 1148 1161
655 4 1151 1149 1150 1162
656 4 1151 1149 1150 1163
657 4 1151 1149 1150 1164
658 4 1151 1149 1152 1168
659 4 1151 1149 1152 1169
660 4 1151 1149 1152 1170
661 4 1152 1149 1148 1160
662 4 1152 1149 1148 1161
663 4 1152 1149 1150 1162
664 4 1152 1149 1150 1163
665 4 1152 1149 1150 1164
666 4 1152 1149 1151 1165
667 4 1152 1149 1151 1166
668 4 1152 1149 1151 1167
669 6 992 993 994 995
670 7 992 993 994 995
671 6 992 993 994 996
672 7 992 993 994 996
673 6 992 993 994 997
674 7 992 993 994 997
675 5 994 993 992 998
676 5 991 992 993 994
677 3 991 992 998 999
678 3 993 992 998 999
679 5 991 992 993 1005
680 5 991 992 993 1006
681 3 991 992 998 1016
682 3 993 992 991 1004
683 3 993 992 998 1016
684 3 998 992 991 1004
685 5 998 992 993 1005
686 5 998 992 993 1006
687 5 1022 1023 1024 1025
688 3 1022 1023 1029 1030
689 3 1024 1023 1029 1030
690 5 1022 1023 1024 1036
691 5 1022 1023 1024 1037
692 3 1022 1023 1029 1047
693 3 1024 1023 1022 1035
694 3 1024 1023 1029 1047
695 3 1029 1023 1022 1035
696 5 1029 1023 1024 1036
697 5 1029 1023 1024 1037
698 3 1023 1029 1030 1048
699 3 1047 1029 1030 1048
700 4 988 1018 1019 1020
701 2 988 1018 1019 1049
702 8 988 1018 1019 1033
703 10 1031 1018 1019 1033
704 8 1031 1018 1019 1049
705 10 1032 1018 1019 1033
706 8 1032 1018 1019 1049
707 1 1018 1019 1020 1021
708 1 1018 1019 1020 1030
709 2 1018 1019 1049 1050
710 4 1020 1019 1049 1050
711 8 1018 1019 1049 1062
712 8 1018 1019 1049 1063
713 4 1020 1019 1018 1031
714 4 1020 1019 1018 1032
715 4 1020 1019 1049 1062
716 4 1020 1019 1049 1063
717 8 1033 1019 1049 1050
718 10 1033 1019 1049 1062
719 10 1033 1019 1049 1063
720 3 1020 1030 1029 1023
721 3 1020 1030 1029 1047
722 3 1019 1020 1021 1022
723 3 1019 1020 1030 1029
724 1 1021 1020 1019 1049
725 3 1021 1020 1030 1029
726 1 1030 1020 1019 1049
727 3 1019 1020 1021 1034
728 3 1019 1020 1030 1048
729 9 1021 1020 1019 1033
730 5 1021 1020 1019 1033
731 3 1021 1020 1030 1048
732 9 1030 1020 1019 1033
733 5 1030 1020 1019 1033
734 3 1030 1020 1021 1034
735 1 987 988 989 990
736 1 987 988 989 999
737 2 987 988 1018 1019
738 4 989 988 1018 1019
739 8 987 988 1018 1031
740 8 987 988 1018 1032
741 4 989 988 987 1000
742 4 989 988 987 1001
743 4 989 988 1018 1031
744 4 989 988 1018 1032
745 8 1002 988 1018 1019
746 10 1002 988 1018 1031
747 10 1002 988 1018 1032
748 3 988 989 990 991
749 3 988 989 999 998
750 1 990 989 988 1018
751 3 990 989 999 998
752 1 999 989 988 1018
753 3 988 989 990 1003
754 3 988 989 999 1017
755 9 990 989 988 1002
756 5 990 989 988 1002
757 3 990 989 999 1017
758 9 999 989 988 1002
759 5 999 989 988 1002
760 3 999 989 990 1003
761 3 1020 1021 1022 1023
762 3 1022 1021 1020 1030
763 3 1020 1021 1022 1035
764 3 1034 1021 1022 1035
765 3 1021 1022 1023 1024
766 3 1021 1022 1023 1029
767 3 1023 1022 1021 1034
768 3 989 990 991 992
769 3 991 990 989 999
770 3 989 990 991 1004
771 3 1003 990 991 1004
772 3 990 991 992 993
773 3 990 991 992 998
774 3 992 991 990 1003
775 6 705 706 707 708
776 7 705 706 707 708
777 6 705 706 707 709
778 7 705 706 707 709
779 6 705 706 707 710
780 7 705 706 707 710
781 5 707 706 705 711
782 4 706 707 708 720
783 4 706 707 708 721
784 4 706 707 708 722
785 4 706 707 709 723
786 4 706 707 709 724
787 4 706 707 709 725
788 4 706 707 710 726
789 4 706 707 710 727
790 4 706 707 710 728
791 4 708 707 706 718
792 4 708 707 706 719
793 4 708 707 709 723
794 4 708 707 709 724
795 4 708 707 709 725
796 4 708 707 710 726
797 4 708 707 710 727
798 4 708 707 710 728
799 4 709 707 706 718
800 4 709 707 706 719
801 4 709 707 708 720
802 4 709 707 708 721
803 4 709 707 708 722
804 4 709 707 710 726
805 4 709 707 710 727
806 4 709 707 710 728
807 4 710 707 706 718
808 4 710 707 706 719
809 4 710 707 708 720
810 4 710 707 708 721
811 4 710 707 708 722
812 4 710 707 709 723
813 4 710 707 709 724
814 4 710 707 709 725
815 3 642 648 649 668
816 3 667 648 649 668
817 4 643 644 645 658
818 4 643 644 645 659
819 4 643 644 645 660
820 4 643 644 646 661
821 4 643 644 646 662
822 4 643 644 646 663
823 4 643 644 647 664
824 4 643 644 647 665
825 4 643 644 647 666
826 4 645 644 643 656
827 4 645 644 643 657
828 4 645 644 646 661
829 4 645 644 646 662
830 4 645 644 646 663
831 4 645 644 647 664
832 4 645 644 647 665
833 4 645 644 647 666
834 4 646 644 643 656
835 4 646 644 643 657
836 4 646 644 645 658
837 4 646 644 645 659
838 4 646 644 645 660
839 4 646 644 647 664
840 4 646 644 647 665
841 4 646 644 647 666
842 4 647 644 643 656
843 4 647 644 643 657
844 4 647 644 645 658
845 4 647 644 645 659
846 4 647 644 645 660
847 4 647 644 646 661
848 4 647 644 646 662
849 4 647 644 646 663
850 6 642 643 644 645
851 7 642 643 644 645
852 6 642 643 644 646
853 7 642 643 644 646
854 6 642 643 644 647
855 7 642 643 644 647
856 5 644 643 642 648
857 5 641 642 643 644
858 3 641 642 648 649
859 3 643 642 648 649
860 5 641 642 643 656
861 5 641 642 643 657
862 3 641 642 648 667
863 3 643 642 641 655
864 3 643 642 648 667
865 3 648 642 641 655
866 5 648 642 643 656
867 5 648 642 643 657
868 3 640 641 642 643
869 3 640 641 642 648
870 3 642 641 640 654
871 4 1435 1436 1437 1449
872 4 1435 1436 1437 1450
873 4 1435 1436 1437 1451
874 4 1435 1436 1438 1452
875 4 1435 1436 1438 1453
876 4 1435 1436 1438 1454
877 4 1435 1436 1439 1455
878 4 1435 1436 1439 1456
879 4 1435 1436 1439 1457
880 4 1437 1436 1435 1447
881 4 1437 1436 1435 1448
882 4 1437 1436 1438 1452
883 4 1437 1436 1438 1453
884 4 1437 1436 1438 1454
885 4 1437 1436 1439 1455
886 4 1437 1436 1439 1456
887 4 1437 1436 1439 1457
888 4 1438 1436 1435 1447
889 4 1438 1436 1435 1448
890 4 1438 1436 1437 1449
891 4 1438 1436 1437 1450
892 4 1438 1436 1437 1451
893 4 1438 1436 1439 1455
894 4 1438 1436 1439 1456
895 4 1438 1436 1439 1457
896 4 1439 1436 1435 1447
897 4 1439 1436 1435 1448
898 4 1439 1436 1437 1449
899 4 1439 1436 1437 1450
900 4 1439 1436 1437 1451
901 4 1439 1436 1438 1452
902 4 1439 1436 1438 1453
903 4 1439 1436 1438 1454
904 6 1434 1435 1436 1437
905 7 1434 1435 1436 1437
906 6 1434 1435 1436 1438
907 7 1434 1435 1436 1438
908 6 1434 1435 1436 1439
909 7 1434 1435 1436 1439
910 5 1436 1435 1434 1440
911 3 992 998 999 1017
912 3 1016 998 999 1017
913 4 1492 1522 1523 1524
914 2 1492 1522 1523 1553
915 8 1492 1522 1523 1537
916 10 1535 1522 1523 1537
917 8 1535 1522 1523 1553
918 10 1536 1522 1523 1537
919 8 1536 1522 1523 1553
920 1 1522 1523 1524 1525
921 1 1522 1523 1524 1534
922 2 1522 1523 1553 1554
923 4 1524 1523 1553 1554
924 8 1522 1523 1553 1566
925 8 1522 1523 1553 1567
926 4 1524 1523 1522 1535
927 4 1524 1523 1522 1536
928 4 1524 1523 1553 1566
929 4 1524 1523 1553 1567
930 8 1537 1523 1553 1554
931 10 1537 1523 1553 1566
932 10 1537 1523 1553 1567
933 3 1523 1524 1525 1526
934 3 1523 1524 1534 1533
935 1 1525 1524 1523 1553
936 3 1525 1524 1534 1533
937 1 1534 1524 1523 1553
938 3 1523 1524 1525 1538
939 3 1523 1524 1534 1552
940 9 1525 1524 1523 1537
941 5 1525 1524 1523 1537
942 3 1525 1524 1534 1552
943 9 1534 1524 1523 1537
944 5 1534 1524 1523 1537
945 3 1534 1524 1525 1538
946 4 1523 1553 1554 1555
947 2 1523 1553 1554 1568
948 8 1523 1553 1554 1569
949 8 1566 1553 1554 1568
950 10 1566 1553 1554 1569
951 8 1567 1553 1554 1568
952 10 1567 1553 1554 1569
953 3 1554 1555 1556 1557
954 3 1554 1555 1565 1564
955 1 1556 1555 1554 1568
956 3 1556 1555 1565 1564
957 1 1565 1555 1554 1568
958 3 1554 1555 1556 1570
959 3 1554 1555 1565 1584
960 9 1556 1555 1554 1569
961 5 1556 1555 1554 1569
962 3 1556 1555 1565 1584
963 9 1565 1555 1554 1569
964 5 1565 1555 1554 1569
965 3 1565 1555 1556 1570
966 1 1553 1554 1555 1556
967 1 1553 1554 1555 1565
968 8 1553 1554 1568 1588
969 8 1553 1554 1568 1589
970 8 1553 1554 1568 1590
971 4 1555 1554 1553 1566
972 4 1555 1554 1553 1567
973 4 1555 1554 1568 1588
974 4 1555 1554 1568 1589
975 4 1555 1554 1568 1590
976 10 1569 1554 1568 1588
977 10 1569 1554 1568 1589
978 10 1569 1554 1568 1590
979 4 543 544 545 557
980 4 543 544 545 558
981 4 543 544 545 559
982 4 543 544 546 560
983 4 543 544 546 561
984 4 543 544 546 562
985 4 543 544 547 563
986 4 543 544 547 564
987 4 543 544 547 565
988 4 545 544 543 555
989 4 545 544 543 556
990 4 545 544 546 560
991 4 545 544 546 561
992 4 545 544 546 562
993 4 545 544 547 563
994 4 545 544 547 564
995 4 545 544 547 565
996 4 546 544 543 555
997 4 546 544 543 556
998 4 546 544 545 557
999 4 546 544 545 558
1000 4 546 544 545 559
1001 4 546 544 547 563
1002 4 546 544 547 564
1003 4 546 544 547 565
1004 4 547 544 543 555
1005 4 547 544 543 556
1006 4 547 544 545 557
1007 4 547 544 545 558
1008 4 547 544 545 559
1009 4 547 544 546 560
1010 4 547 544 546 561
1011 4 547 544 546 562
1012 3 989 999 998 992
1013 3 989 999 998 1016
1014 4 956 987 988 989
1015 2 956 987 988 1018
1016 8 956 987 988 1002
1017 10 1000 987 988 1002
1018 8 1000 987 988 1018
1019 10 1001 987 988 1002
1020 8 1001 987 988 1018
1021 4 968 955 956 957
1022 2 968 955 956 987
1023 8 956 955 968 1267
1024 8 956 955 968 1268
1025 8 956 955 968 1269
1026 4 969 955 956 957
1027 4 970 955 956 957
1028 8 968 955 956 971
1029 10 969 955 956 971
1030 8 969 955 956 987
1031 10 969 955 968 1267
1032 10 969 955 968 1268
1033 10 969 955 968 1269
1034 10 970 955 956 971
1035 8 970 955 956 987
1036 10 970 955 968 1267
1037 10 970 955 968 1268
1038 10 970 955 968 1269
1039 1 955 956 957 958
1040 1 955 956 957 967
1041 2 955 956 987 988
1042 4 957 956 987 988
1043 8 955 956 987 1000
1044 8 955 956 987 1001
1045 4 957 956 987 1000
1046 4 957 956 987 1001
1047 8 971 956 987 988
1048 10 971 956 987 1000
1049 10 971 956 987 1001
1050 3 956 957 958 959
1051 3 956 957 967 966
1052 1 958 957 956 987
1053 3 958 957 967 966
1054 1 967 957 956 987
1055 3 956 957 958 972
1056 3 956 957 967 986
1057 9 958 957 956 971
1058 3 958 957 967 986
1059 9 967 957 956 971
1060 5 967 957 956 971
1061 3 967 957 958 972
1062 3 573 579 580 598
1063 3 597 579 580 598
1064 3 570 580 579 573
1065 3 570 580 579 597
1066 3 957 958 959 960
1067 3 959 958 957 967
1068 3 957 958 959 973
1069 3 972 958 959 973
1070 3 957 967 966 960
1071 3 957 967 966 985
1072 3 960 966 967 986
1073 3 985 966 967 986
1074 3 958 959 960 961
1075 3 958 959 960 966
1076 3 960 959 958 972
1077 5 959 960 961 962
1078 3 959 960 966 967
1079 3 961 960 966 967
1080 5 959 960 961 974
1081 5 959 960 961 975
1082 3 959 960 966 985
1083 3 961 960 959 973
1084 3 961 960 966 985
1085 3 966 960 959 973
1086 5 966 960 961 974
1087 5 966 960 961 975
1088 6 960 961 962 963
1089 7 960 961 962 963
1090 6 960 961 962 964
1091 7 960 961 962 964
1092 6 960 961 962 965
1093 7 960 961 962 965
1094 5 962 961 960 966
1095 3 672 673 674 675
1096 3 672 673 674 680
1097 3 674 673 672 685
1098 6 674 675 676 677
1099 7 674 675 676 677
1100 6 674 675 676 678
1101 7 674 675 676 678
1102 6 674 675 676 679
1103 7 674 675 676 679
1104 5 676 675 674 680
1105 4 961 962 963 976
1106 4 961 962 963 977
1107 4 961 962 963 978
1108 4 961 962 964 979
1109 4 961 962 964 980
1110 4 961 962 964 981
1111 4 961 962 965 982
1112 4 961 962 965 983
1113 4 961 962 965 984
1114 4 963 962 961 974
1115 4 963 962 961 975
1116 4 963 962 964 979
1117 4 963 962 964 980
1118 4 963 962 964 981
1119 4 963 962 965 982
1120 4 963 962 965 983
1121 4 963 962 965 984
1122 4 964 962 961 974
1123 4 964 962 961 975
1124 4 964 962 963 976
1125 4 964 962 963 977
1126 4 964 962 963 978
1127 4 964 962 965 982
1128 4 964 962 965 983
1129 4 964 962 965 984
1130 4 965 962 961 974
1131 4 965 962 961 975
1132 4 965 962 963 976
1133 4 965 962 963 977
1134 4 965 962 963 978
1135 4 965 962 964 979
1136 4 965 962 964 980
1137 4 965 962 964 981
1138 4 1373 1374 1375 1387
1139 4 1373 1374 1375 1388
1140 4 1373 1374 1375 1389
1141 4 1373 1374 1376 1390
1142 4 1373 1374 1376 1391
1143 4 1373 1374 1376 1392
1144 4 1373 1374 1377 1393
1145 4 1373 1374 1377 1394
1146 4 1373 1374 1377 1395
1147 4 1375 1374 1373 1385
1148 4 1375 1374 1373 1386
1149 4 1375 1374 1376 1390
1150 4 1375 1374 1376 1391
1151 4 1375 1374 1376 1392
1152 4 1375 1374 1377 1393
1153 4 1375 1374 1377 1394
1154 4 1375 1374 1377 1395
1155 4 1376 1374 1373 1385
1156 4 1376 1374 1373 1386
1157 4 1376 1374 1375 1387
1158 4 1376 1374 1375 1388
1159 4 1376 1374 1375 1389
1160 4 1376 1374 1377 1393
1161 4 1376 1374 1377 1394
1162 4 1376 1374 1377 1395
1163 4 1377 1374 1373 1385
1164 4 1377 1374 1373 1386
1165 4 1377 1374 1375 1387
1166 4 1377 1374 1375 1388
1167 4 1377 1374 1375 1389
1168 4 1377 1374 1376 1390
1169 4 1377 1374 1376 1391
1170 4 1377 1374 1376 1392
1171 6 542 543 544 545
1172 7 542 543 544 545
1173 6 542 543 544 546
1174 7 542 543 544 546
1175 6 542 543 544 547
1176 7 542 543 544 547
1177 5 544 543 542 548
1178 3 1555 1556 1557 1558
1179 3 1557 1556 1555 1565
1180 3 1555 1556 1557 1571
1181 3 1570 1556 1557 1571
1182 3 1555 1565 1564 1558
1183 3 1555 1565 1564 1583
1184 3 540 541 542 543
1185 3 540 541 542 548
1186 3 542 541 540 553
1187 5 572 573 574 575
1188 3 572 573 579 580
1189 3 574 573 579 580
1190 5 572 573 574 586
1191 5 572 573 574 587
1192 3 572 573 579 597
1193 3 574 573 572 585
1194 3 574 573 579 597
1195 3 579 573 572 585
1196 5 579 573 574 586
1197 5 579 573 574 587
1198 6 573 574 575 576
1199 7 573 574 575 576
1200 6 573 574 575 577
1201 7 573 574 575 577
1202 6 573 574 575 578
1203 7 573 574 575 578
1204 5 575 574 573 579
1205 6 480 481 482 483
1206 7 480 481 482 483
1207 6 480 481 482 484
1208 7 480 481 482 484
1209 6 480 481 482 485
1210 7 480 481 482 485
1211 5 482 481 480 486
1212 5 479 480 481 482
1213 3 479 480 486 487
1214 3 481 480 486 487
1215 5 479 480 481 493
1216 5 479 480 481 494
1217 3 479 480 486 504
1218 3 481 480 479 492
1219 3 481 480 486 504
1220 3 486 480 479 492
1221 5 486 480 481 493
1222 5 486 480 481 494
1223 3 478 479 480 481
1224 3 478 479 480 486
1225 3 480 479 478 491
1226 3 508 509 510 511
1227 3 510 509 508 518
1228 3 508 509 510 523
1229 3 522 509 510 523
1230 3 477 478 479 480
1231 3 479 478 477 487
1232 3 477 478 479 492
1233 3 491 478 479 492
1234 3 507 508 509 510
1235 3 507 508 518 517
1236 1 509 508 507 537
1237 3 509 508 518 517
1238 1 518 508 507 537
1239 3 507 508 509 522
1240 3 507 508 518 536
1241 9 509 508 507 521
1242 5 509 508 507 521
1243 3 509 508 518 536
1244 9 518 508 507 521
1245 5 518 508 507 521
1246 3 518 508 509 522
1247 1 506 507 508 509
1248 1 506 507 508 518
1249 2 506 507 537 538
1250 4 508 507 537 538
1251 8 506 507 537 550
1252 8 506 507 537 551
1253 4 508 507 506 519
1254 4 508 507 506 520
1255 4 508 507 537 550
1256 4 508 507 537 551
1257 8 521 507 537 538
1258 10 521 507 537 550
1259 10 521 507 537 551
1260 3 476 477 478 479
1261 3 476 477 487 486
1262 1 478 477 476 506
1263 3 478 477 487 486
1264 1 487 477 476 506
1265 3 476 477 478 491
1266 3 476 477 487 505
1267 9 478 477 476 490
1268 5 478 477 476 490
1269 3 478 477 487 505
1270 9 487 477 476 490
1271 5 487 477 476 490
1272 3 487 477 478 491
1273 3 509 510 511 512
1274 3 509 510 511 517
1275 3 511 510 509 522
1276 3 508 518 517 511
1277 3 508 518 517 535
1278 1 444 445 446 447
1279 1 444 445 446 456
1280 2 444 445 475 476
1281 4 446 445 475 476
1282 8 444 445 475 488
1283 8 444 445 475 489
1284 4 446 445 444 457
1285 4 446 445 444 458
1286 4 446 445 475 488
1287 4 446 445 475 489
1288 8 459 445 475 476
1289 10 459 445 475 488
1290 10 459 445 475 489
1291 3 445 446 447 448
1292 3 445 446 456 455
1293 1 447 446 445 475
1294 3 447 446 456 455
1295 1 456 446 445 475
1296 3 445 446 447 460
1297 3 445 446 456 474
1298 9 447 446 445 459
1299 5 447 446 445 459
1300 3 447 446 456 474
1301 9 456 446 445 459
1302 5 456 446 445 459
1303 3 456 446 447 460
1304 1 475 476 477 478
1305 1 475 476 477 487
1306 2 475 476 506 507
1307 4 477 476 506 507
1308 8 475 476 506 519
1309 8 475 476 506 520
1310 4 477 476 475 488
1311 4 477 476 475 489
1312 4 477 476 506 519
1313 4 477 476 506 520
1314 8 490 476 506 507
1315 10 490 476 506 519
1316 10 490 476 506 520
1317 4 445 475 476 477
1318 2 445 475 476 506
1319 8 445 475 476 490
1320 10 488 475 476 490
1321 8 488 475 476 506
1322 10 489 475 476 490
1323 8 489 475 476 506
1324 4 414 444 445 446
1325 2 414 444 445 475
1326 8 414 444 445 459
1327 10 457 444 445 459
1328 8 457 444 445 475
1329 10 458 444 445 459
1330 8 458 444 445 475
1331 4 476 506 507 508
1332 2 476 506 507 537
1333 8 476 506 507 521
1334 10 519 506 507 521
1335 8 519 506 507 537
1336 10 520 506 507 521
1337 8 520 506 507 537
1338 3 446 447 448 449
1339 3 448 447 446 456
1340 3 446 447 448 461
1341 3 460 447 448 461
1342 3 447 448 449 450
1343 3 447 448 449 455
1344 3 449 448 447 460
1345 4 388 389 390 402
1346 4 388 389 390 403
1347 4 388 389 390 404
1348 4 388 389 391 405
1349 4 388 389 391 406
1350 4 388 389 391 407
1351 4 388 389 392 408
1352 4 388 389 392 409
1353 4 388 389 392 410
1354 4 390 389 388 400
1355 4 390 389 388 401
1356 4 390 389 391 405
1357 4 390 389 391 406
1358 4 390 389 391 407
1359 4 390 389 392 408
1360 4 390 389 392 409
1361 4 390 389 392 410
1362 4 391 389 388 400
1363 4 391 389 388 401
1364 4 391 389 390 402
1365 4 391 389 390 403
1366 4 391 389 390 404
1367 4 391 389 392 408
1368 4 391 389 392 409
1369 4 391 389 392 410
1370 4 392 389 388 400
1371 4 392 389 388 401
1372 4 392 389 390 402
1373 4 392 389 390 403
1374 4 392 389 390 404
1375 4 392 389 391 405
1376 4 392 389 391 406
1377 4 392 389 391 407
1378 4 287 288 289 302
1379 4 287 288 289 303
1380 4 287 288 289 304
1381 4 287 288 290 305
1382 4 287 288 290 306
1383 4 287 288 290 307
1384 4 287 288 291 308
1385 4 287 288 291 309
1386 4 287 288 291 310
1387 4 289 288 287 300
1388 4 289 288 287 301
1389 4 289 288 290 305
1390 4 289 288 290 306
1391 4 289 288 290 307
1392 4 289 288 291 308
1393 4 289 288 291 309
1394 4 289 288 291 310
1395 4 290 288 287 300
1396 4 290 288 287 301
1397 4 290 288 289 302
1398 4 290 288 289 303
1399 4 290 288 289 304
1400 4 290 288 291 308
1401 4 290 288 291 309
1402 4 290 288 291 310
1403 4 291 288 287 300
1404 4 291 288 287 301
1405 4 291 288 289 302
1406 4 291 288 289 303
1407 4 291 288 289 304
1408 4 291 288 290 305
1409 4 291 288 290 306
1410 4 291 288 290 307
1411 4 1241 1242 1243 1256
1412 4 1241 1242 1243 1257
1413 4 1241 1242 1243 1258
1414 4 1241 1242 1244 1259
1415 4 1241 1242 1244 1260
1416 4 1241 1242 1244 1261
1417 4 1241 1242 1245 1262
1418 4 1241 1242 1245 1263
1419 4 1241 1242 1245 1264
1420 4 1243 1242 1241 1254
1421 4 1243 1242 1241 1255
1422 4 1243 1242 1244 1259
1423 4 1243 1242 1244 1260
1424 4 1243 1242 1244 1261
1425 4 1243 1242 1245 1262
1426 4 1243 1242 1245 1263
1427 4 1243 1242 1245 1264
1428 4 1244 1242 1241 1254
1429 4 1244 1242 1241 1255
1430 4 1244 1242 1243 1256
1431 4 1244 1242 1243 1257
1432 4 1244 1242 1243 1258
1433 4 1244 1242 1245 1262
1434 4 1244 1242 1245 1263
1435 4 1244 1242 1245 1264
1436 4 1245 1242 1241 1254
1437 4 1245 1242 1241 1255
1438 4 1245 1242 1243 1256
1439 4 1245 1242 1243 1257
1440 4 1245 1242 1243 1258
1441 4 1245 1242 1244 1259
1442 4 1245 1242 1244 1260
1443 4 1245 1242 1244 1261
1444 6 1240 1241 1242 1243
1445 7 1240 1241 1242 1243
1446 6 1240 1241 1242 1244
1447 7 1240 1241 1242 1244
1448 6 1240 1241 1242 1245
1449 7 1240 1241 1242 1245
1450 5 1242 1241 1240 1246
1451 6 356 357 358 359
1452 7 356 357 358 359
1453 6 356 357 358 360
1454 7 356 357 358 360
1455 6 356 357 358 361
1456 7 356 357 358 361
1457 5 358 357 356 362
1458 5 355 356 357 358
1459 3 355 356 362 363
1460 3 357 356 362 363
1461 5 355 356 357 369
1462 5 355 356 357 370
1463 3 355 356 362 380
1464 3 357 356 355 368
1465 3 357 356 362 380
1466 3 362 356 355 368
1467 5 362 356 357 369
1468 5 362 356 357 370
1469 3 356 362 363 381
1470 3 380 362 363 381
1471 4 357 358 359 371
1472 4 357 358 359 372
1473 4 357 358 359 373
1474 4 357 358 360 374
1475 4 357 358 360 375
1476 4 357 358 360 376
1477 4 357 358 361 377
1478 4 357 358 361 378
1479 4 357 358 361 379
1480 4 359 358 357 369
1481 4 359 358 357 370
1482 4 359 358 360 374
1483 4 359 358 360 375
1484 4 359 358 360 376
1485 4 359 358 361 377
1486 4 359 358 361 378
1487 4 359 358 361 379
1488 4 360 358 357 369
1489 4 360 358 357 370
1490 4 360 358 359 371
1491 4 360 358 359 372
1492 4 360 358 359 373
1493 4 360 358 361 377
1494 4 360 358 361 378
1495 4 360 358 361 379
1496 4 361 358 357 369
1497 4 361 358 357 370
1498 4 361 358 359 371
1499 4 361 358 359 372
1500 4 361 358 359 373
1501 4 361 358 360 374
1502 4 361 358 360 375
1503 4 361 358 360 376
1504 3 353 363 362 356
1505 3 353 363 362 380
1506 3 354 355 356 357
1507 3 354 355 356 362
1508 3 356 355 354 367
1509 4 1086 1087 1088 1100
1510 4 1086 1087 1088 1101
1511 4 1086 1087 1088 1102
1512 4 1086 1087 1089 1103
1513 4 1086 1087 1089 1104
1514 4 1086 1087 1089 1105
1515 4 1086 1087 1090 1106
1516 4 1086 1087 1090 1107
1517 4 1086 1087 1090 1108
1518 4 1088 1087 1086 1098
1519 4 1088 1087 1086 1099
1520 4 1088 1087 1089 1103
1521 4 1088 1087 1089 1104
1522 4 1088 1087 1089 1105
1523 4 1088 1087 1090 1106
1524 4 1088 1087 1090 1107
1525 4 1088 1087 1090 1108
1526 4 1089 1087 1086 1098
1527 4 1089 1087 1086 1099
1528 4 1089 1087 1088 1100
1529 4 1089 1087 1088 1101
1530 4 1089 1087 1088 1102
1531 4 1089 1087 1090 1106
1532 4 1089 1087 1090 1107
1533 4 1089 1087 1090 1108
1534 4 1090 1087 1086 1098
1535 4 1090 1087 1086 1099
1536 4 1090 1087 1088 1100
1537 4 1090 1087 1088 1101
1538 4 1090 1087 1088 1102
1539 4 1090 1087 1089 1103
1540 4 1090 1087 1089 1104
1541 4 1090 1087 1089 1105
1542 3 415 416 417 418
1543 3 417 416 415 425
1544 3 415 416 417 430
1545 3 429 416 417 430
1546 1 413 414 415 416
1547 1 413 414 415 425
1548 2 413 414 444 445
1549 4 415 414 444 445
1550 8 413 414 444 457
1551 8 413 414 444 458
1552 4 415 414 413 426
1553 4 415 414 413 427
1554 4 415 414 444 457
1555 4 415 414 444 458
1556 8 428 414 444 445
1557 10 428 414 444 457
1558 10 428 414 444 458
1559 3 414 415 416 417
1560 3 414 415 425 424
1561 1 416 415 414 444
1562 3 416 415 425 424
1563 1 425 415 414 444
1564 3 414 415 416 429
1565 3 414 415 425 443
1566 9 416 415 414 428
1567 5 416 415 414 428
1568 3 416 415 425 443
1569 9 425 415 414 428
1570 5 425 415 414 428
1571 3 425 415 416 429
1572 4 383 413 414 415
1573 2 383 413 414 444
1574 8 383 413 414 428
1575 10 426 413 414 428
1576 8 426 413 414 444
1577 10 427 413 414 428
1578 8 427 413 414 444
1579 1 382 383 384 385
1580 1 382 383 384 394
1581 2 382 383 413 414
1582 4 384 383 413 414
1583 8 382 383 413 426
1584 8 382 383 413 427
1585 4 384 383 382 395
1586 4 384 383 382 396
1587 4 384 383 413 426
1588 4 384 383 413 427
1589 8 397 383 413 414
1590 10 397 383 413 426
1591 10 397 383 413 427
1592 3 383 384 385 386
1593 3 383 384 394 393
1594 1 385 384 383 413
1595 3 385 384 394 393
1596 1 394 384 383 413
1597 3 383 384 385 398
1598 3 383 384 394 412
1599 9 385 384 383 397
1600 5 385 384 383 397
1601 3 385 384 394 412
1602 9 394 384 383 397
1603 5 394 384 383 397
1604 3 394 384 385 398
1605 3 384 394 393 387
1606 3 384 394 393 411
1607 3 384 385 386 387
1608 3 386 385 384 394
1609 3 384 385 386 399
1610 3 398 385 386 399
1611 4 352 382 383 384
1612 2 352 382 383 413
1613 8 352 382 383 397
1614 10 395 382 383 397
1615 8 395 382 383 413
1616 10 396 382 383 397
1617 8 396 382 383 413
1618 3 353 354 355 356
1619 3 355 354 353 363
1620 3 353 354 355 368
1621 3 367 354 355 368
1622 3 352 353 354 355
1623 3 352 353 363 362
1624 1 354 353 352 382
1625 3 354 353 363 362
1626 1 363 353 352 382
1627 3 352 353 354 367
1628 3 352 353 363 381
1629 9 354 353 352 366
1630 5 354 353 352 366
1631 3 354 353 363 381
1632 9 363 353 352 366
1633 5 363 353 352 366
1634 3 363 353 354 367
1635 3 385 386 387 388
1636 3 385 386 387 393
1637 3 387 386 385 398
1638 3 387 393 394 412
1639 3 411 393 394 412
1640 6 387 388 389 390
1641 7 387 388 389 390
1642 6 387 388 389 391
1643 7 387 388 389 391
1644 6 387 388 389 392
1645 7 387 388 389 392
1646 5 389 388 387 393
1647 5 386 387 388 389
1648 3 386 387 393 394
1649 3 388 387 393 394
1650 5 386 387 388 400
1651 5 386 387 388 401
1652 3 386 387 393 411
1653 3 388 387 386 399
1654 3 388 387 393 411
1655 3 393 387 386 399
1656 5 393 387 388 400
1657 5 393 387 388 401
1658 4 1179 1180 1181 1193
1659 4 1179 1180 1181 1194
1660 4 1179 1180 1181 1195
1661 4 1179 1180 1182 1196
1662 4 1179 1180 1182 1197
1663 4 1179 1180 1182 1198
1664 4 1179 1180 1183 1199
1665 4 1179 1180 1183 1200
1666 4 1179 1180 1183 1201
1667 4 1181 1180 1179 1191
1668 4 1181 1180 1179 1192
1669 4 1181 1180 1182 1196
1670 4 1181 1180 1182 1197
1671 4 1181 1180 1182 1198
1672 4 1181 1180 1183 1199
1673 4 1181 1180 1183 1200
1674 4 1181 1180 1183 1201
1675 4 1182 1180 1179 1191
1676 4 1182 1180 1179 1192
1677 4 1182 1180 1181 1193
1678 4 1182 1180 1181 1194
1679 4 1182 1180 1181 1195
1680 4 1182 1180 1183 1199
1681 4 1182 1180 1183 1200
1682 4 1182 1180 1183 1201
1683 4 1183 1180 1179 1191
1684 4 1183 1180 1179 1192
1685 4 1183 1180 1181 1193
1686 4 1183 1180 1181 1194
1687 4 1183 1180 1181 1195
1688 4 1183 1180 1182 1196
1689 4 1183 1180 1182 1197
1690 4 1183 1180 1182 1198
1691 4 14 1 2 3
1692 2 14 1 2 33
1693 8 2 1 14 313
1694 8 2 1 14 314
1695 8 2 1 14 315
1696 4 15 1 2 3
1697 4 16 1 2 3
1698 8 14 1 2 17
1699 10 15 1 2 17
1700 8 15 1 2 33
1701 10 15 1 14 313
1702 10 15 1 14 314
1703 10 15 1 14 315
1704 10 16 1 2 17
1705 8 16 1 2 33
1706 10 16 1 14 313
1707 10 16 1 14 314
1708 10 16 1 14 315
1709 4 993 994 995 1007
1710 4 993 994 995 1008
1711 4 993 994 995 1009
1712 4 993 994 996 1010
1713 4 993 994 996 1011
1714 4 993 994 996 1012
1715 4 993 994 997 1013
1716 4 993 994 997 1014
1717 4 993 994 997 1015
1718 4 995 994 993 1005
1719 4 995 994 993 1006
1720 4 995 994 996 1010
1721 4 995 994 996 1011
1722 4 995 994 996 1012
1723 4 995 994 997 1013
1724 4 995 994 997 1014
1725 4 995 994 997 1015
1726 4 996 994 993 1005
1727 4 996 994 993 1006
1728 4 996 994 995 1007
1729 4 996 994 995 1008
1730 4 996 994 995 1009
1731 4 996 994 997 1013
1732 4 996 994 997 1014
1733 4 996 994 997 1015
1734 4 997 994 993 1005
1735 4 997 994 993 1006
1736 4 997 994 995 1007
1737 4 997 994 995 1008
1738 4 997 994 995 1009
1739 4 997 994 996 1010
1740 4 997 994 996 1011
1741 4 997 994 996 1012
1742 4 325 326 327 340
1743 4 325 326 327 341
1744 4 325 326 327 342
1745 4 325 326 328 343
1746 4 325 326 328 344
1747 4 325 326 328 345
1748 4 325 326 329 346
1749 4 325 326 329 347
1750 4 325 326 329 348
1751 4 327 326 325 338
1752 4 327 326 325 339
1753 4 327 326 328 343
1754 4 327 326 328 344
1755 4 327 326 328 345
1756 4 327 326 329 346
1757 4 327 326 329 347
1758 4 327 326 329 348
1759 4 328 326 325 338
1760 4 328 326 325 339
1761 4 328 326 327 340
1762 4 328 326 327 341
1763 4 328 326 327 342
1764 4 328 326 329 346
1765 4 328 326 329 347
1766 4 328 326 329 348
1767 4 329 326 325 338
1768 4 329 326 325 339
1769 4 329 326 327 340
1770 4 329 326 327 341
1771 4 329 326 327 342
1772 4 329 326 328 343
1773 4 329 326 328 344
1774 4 329 326 328 345
1775 6 324 325 326 327
1776 7 324 325 326 327
1777 6 324 325 326 328
1778 7 324 325 326 328
1779 6 324 325 326 329
1780 7 324 325 326 329
1781 5 326 325 324 330
1782 5 323 324 325 326
1783 3 323 324 330 331
1784 3 325 324 330 331
1785 5 323 324 325 338
1786 5 323 324 325 339
1787 3 323 324 330 349
1788 3 325 324 323 337
1789 3 325 324 330 349
1790 3 330 324 323 337
1791 5 330 324 325 338
1792 5 330 324 325 339
1793 3 601 602 603 604
1794 3 603 602 601 611
1795 3 601 602 603 617
1796 3 616 602 603 617
1797 3 602 603 604 605
1798 3 602 603 604 610
1799 3 604 603 602 616
1800 5 603 604 605 606
1801 3 603 604 610 611
1802 3 605 604 610 611
1803 5 603 604 605 618
1804 5 603 604 605 619
1805 3 603 604 610 629
1806 3 605 604 603 617
1807 3 605 604 610 629
1808 3 610 604 603 617
1809 5 610 604 605 618
1810 5 610 604 605 619
1811 6 255 256 257 258
1812 7 255 256 257 258
1813 6 255 256 257 259
1814 7 255 256 257 259
1815 6 255 256 257 260
1816 7 255 256 257 260
1817 5 257 256 255 261
1818 4 256 257 258 270
1819 4 256 257 258 271
1820 4 256 257 258 272
1821 4 256 257 259 273
1822 4 256 257 259 274
1823 4 256 257 259 275
1824 4 256 257 260 276
1825 4 256 257 260 277
1826 4 256 257 260 278
1827 4 258 257 256 268
1828 4 258 257 256 269
1829 4 258 257 259 273
1830 4 258 257 259 274
1831 4 258 257 259 275
1832 4 258 257 260 276
1833 4 258 257 260 277
1834 4 258 257 260 278
1835 4 259 257 256 268
1836 4 259 257 256 269
1837 4 259 257 258 270
1838 4 259 257 258 271
1839 4 259 257 258 272
1840 4 259 257 260 276
1841 4 259 257 260 277
1842 4 259 257 260 278
1843 4 260 257 256 268
1844 4 260 257 256 269
1845 4 260 257 258 270
1846 4 260 257 258 271
1847 4 260 257 258 272
1848 4 260 257 259 273
1849 4 260 257 259 274
1850 4 260 257 259 275
1851 5 254 255 256 257
1852 3 254 255 261 262
1853 3 256 255 261 262
1854 5 254 255 256 268
1855 5 254 255 256 269
1856 3 254 255 261 279
1857 3 256 255 254 267
1858 3 256 255 261 279
1859 3 261 255 254 267
1860 5 261 255 256 268
1861 5 261 255 256 269
1862 3 604 610 611 630
1863 3 629 610 611 630
1864 4 605 606 607 620
1865 4 605 606 607 621
1866 4 605 606 607 622
1867 4 605 606 608 623
1868 4 605 606 608 624
1869 4 605 606 608 625
1870 4 605 606 609 626
1871 4 605 606 609 627
1872 4 605 606 609 628
1873 4 607 606 605 618
1874 4 607 606 605 619
1875 4 607 606 608 623
1876 4 607 606 608 624
1877 4 607 606 608 625
1878 4 607 606 609 626
1879 4 607 606 609 627
1880 4 607 606 609 628
1881 4 608 606 605 618
1882 4 608 606 605 619
1883 4 608 606 607 620
1884 4 608 606 607 621
1885 4 608 606 607 622
1886 4 608 606 609 626
1887 4 608 606 609 627
1888 4 608 606 609 628
1889 4 609 606 605 618
1890 4 609 606 605 619
1891 4 609 606 607 620
1892 4 609 606 607 621
1893 4 609 606 607 622
1894 4 609 606 608 623
1895 4 609 606 608 624
1896 4 609 606 608 625
1897 6 604 605 606 607
1898 7 604 605 606 607
1899 6 604 605 606 608
1900 7 604 605 606 608
1901 6 604 605 606 609
1902 7 604 605 606 609
1903 5 606 605 604 610
1904 4 163 164 165 177
1905 4 163 164 165 178
1906 4 163 164 165 179
1907 4 163 164 166 180
1908 4 163 164 166 181
1909 4 163 164 166 182
1910 4 163 164 167 183
1911 4 163 164 167 184
1912 4 163 164 167 185
1913 4 165 164 163 175
1914 4 165 164 163 176
1915 4 165 164 166 180
1916 4 165 164 166 181
1917 4 165 164 166 182
1918 4 165 164 167 183
1919 4 165 164 167 184
1920 4 165 164 167 185
1921 4 166 164 163 175
1922 4 166 164 163 176
1923 4 166 164 165 177
1924 4 166 164 165 178
1925 4 166 164 165 179
1926 4 166 164 167 183
1927 4 166 164 167 184
1928 4 166 164 167 185
1929 4 167 164 163 175
1930 4 167 164 163 176
1931 4 167 164 165 177
1932 4 167 164 165 178
1933 4 167 164 165 179
1934 4 167 164 166 180
1935 4 167 164 166 181
1936 4 167 164 166 182
1937 5 541 542 543 544
1938 3 541 542 548 549
1939 3 543 542 548 549
1940 5 541 542 543 555
1941 5 541 542 543 556
1942 3 541 542 548 566
1943 3 543 542 541 554
1944 3 543 542 548 566
1945 3 548 542 541 554
1946 5 548 542 543 555
1947 5 548 542 543 556
1948 3 542 548 549 567
1949 3 566 548 549 567
1950 6 162 163 164 165
1951 7 162 163 164 165
1952 6 162 163 164 166
1953 7 162 163 164 166
1954 6 162 163 164 167
1955 7 162 163 164 167
1956 5 164 163 162 168
1957 3 160 161 162 163
1958 3 160 161 162 168
1959 3 162 161 160 173
1960 3 539 549 548 542
1961 3 539 549 548 566
1962 5 161 162 163 164
1963 3 161 162 168 169
1964 3 163 162 168 169
1965 5 161 162 163 175
1966 5 161 162 163 176
1967 3 161 162 168 186
1968 3 163 162 161 174
1969 3 163 162 168 186
1970 3 168 162 161 174
1971 5 168 162 163 175
1972 5 168 162 163 176
1973 3 538 539 540 541
1974 3 538 539 549 548
1975 1 540 539 538 568
1976 3 540 539 549 548
1977 1 549 539 538 568
1978 3 538 539 540 553
1979 3 538 539 549 567
1980 9 540 539 538 552
1981 5 540 539 538 552
1982 3 540 539 549 567
1983 9 549 539 538 552
1984 5 549 539 538 552
1985 3 549 539 540 553
1986 3 193 199 200 218
1987 3 217 199 200 218
1988 3 159 160 161 162
1989 3 161 160 159 169
1990 3 159 160 161 174
1991 3 173 160 161 174
1992 3 162 168 169 187
1993 3 186 168 169 187
1994 3 190 200 199 193
1995 3 190 200 199 217
1996 6 193 194 195 196
1997 7 193 194 195 196
1998 6 193 194 195 197
1999 7 193 194 195 197
2000 6 193 194 195 198
2001 7 193 194 195 198
2002 5 195 194 193 199
2003 5 192 193 194 195
2004 3 192 193 199 200
2005 3 194 193 199 200
2006 5 192 193 194 206
2007 5 192 193 194 207
2008 3 192 193 199 217
2009 3 194 193 192 205
2010 3 194 193 199 217
2011 3 199 193 192 205
2012 5 199 193 194 206
2013 5 199 193 194 207
2014 3 600 601 602 603
2015 3 600 601 611 610
2016 1 602 601 600 614
2017 3 602 601 611 610
2018 1 611 601 600 614
2019 3 600 601 602 616
2020 3 600 601 611 630
2021 9 602 601 600 615
2022 5 602 601 600 615
2023 3 602 601 611 630
2024 9 611 601 600 615
2025 5 611 601 600 615
2026 3 611 601 602 616
2027 3 253 254 255 256
2028 3 253 254 255 261
2029 3 255 254 253 266
2030 3 601 611 610 604
2031 3 601 611 610 629
2032 1 599 600 601 602
2033 1 599 600 601 611
2034 8 599 600 614 634
2035 8 599 600 614 635
2036 8 599 600 614 636
2037 4 601 600 599 612
2038 4 601 600 599 613
2039 4 601 600 614 634
2040 4 601 600 614 635
2041 4 601 600 614 636
2042 10 615 600 614 634
2043 10 615 600 614 635
2044 10 615 600 614 636
2045 3 569 570 571 572
2046 3 569 570 580 579
2047 1 571 570 569 599
2048 3 571 570 580 579
2049 1 580 570 569 599
2050 3 569 570 571 584
2051 3 569 570 580 598
2052 9 571 570 569 583
2053 5 571 570 569 583
2054 3 571 570 580 598
2055 9 580 570 569 583
2056 5 580 570 569 583
2057 3 580 570 571 584
2058 1 568 569 570 571
2059 1 568 569 570 580
2060 2 568 569 599 600
2061 4 570 569 599 600
2062 8 568 569 599 612
2063 8 568 569 599 613
2064 4 570 569 568 581
2065 4 570 569 568 582
2066 4 570 569 599 612
2067 4 570 569 599 613
2068 8 583 569 599 600
2069 10 583 569 599 612
2070 10 583 569 599 613
2071 4 569 599 600 601
2072 2 569 599 600 614
2073 8 569 599 600 615
2074 8 612 599 600 614
2075 10 612 599 600 615
2076 8 613 599 600 614
2077 10 613 599 600 615
2078 1 537 538 539 540
2079 1 537 538 539 549
2080 2 537 538 568 569
2081 4 539 538 568 569
2082 8 537 538 568 581
2083 8 537 538 568 582
2084 4 539 538 537 550
2085 4 539 538 537 551
2086 4 539 538 568 581
2087 4 539 538 568 582
2088 8 552 538 568 569
2089 10 552 538 568 581
2090 10 552 538 568 582
2091 4 538 568 569 570
2092 2 538 568 569 599
2093 8 538 568 569 583
2094 10 581 568 569 583
2095 8 581 568 569 599
2096 10 582 568 569 583
2097 8 582 568 569 599
2098 3 570 571 572 573
2099 3 572 571 570 580
2100 3 570 571 572 585
2101 3 584 571 572 585
2102 3 571 572 573 574
2103 3 571 572 573 579
2104 3 573 572 571 584
2105 3 252 253 254 255
2106 3 254 253 252 262
2107 3 252 253 254 267
2108 3 266 253 254 267
2109 3 284 285 286 287
2110 3 284 285 286 292
2111 3 286 285 284 298
2112 3 283 284 285 286
2113 3 285 284 283 293
2114 3 283 284 285 299
2115 3 298 284 285 299
2116 3 282 283 284 285
2117 3 282 283 293 292
2118 1 284 283 282 296
2119 3 284 283 293 292
2120 1 293 283 282 296
2121 3 282 283 284 298
2122 3 282 283 293 312
2123 9 284 283 282 297
2124 5 284 283 282 297
2125 3 284 283 293 312
2126 9 293 283 282 297
2127 5 293 283 282 297
2128 3 293 283 284 298
2129 4 194 195 196 208
2130 4 194 195 196 209
2131 4 194 195 196 210
2132 4 194 195 197 211
2133 4 194 195 197 212
2134 4 194 195 197 213
2135 4 194 195 198 214
2136 4 194 195 198 215
2137 4 194 195 198 216
2138 4 196 195 194 206
2139 4 196 195 194 207
2140 4 196 195 197 211
2141 4 196 195 197 212
2142 4 196 195 197 213
2143 4 196 195 198 214
2144 4 196 195 198 215
2145 4 196 195 198 216
2146 4 197 195 194 206
2147 4 197 195 194 207
2148 4 197 195 196 208
2149 4 197 195 196 209
2150 4 197 195 196 210
2151 4 197 195 198 214
2152 4 197 195 198 215
2153 4 197 195 198 216
2154 4 198 195 194 206
2155 4 198 195 194 207
2156 4 198 195 196 208
2157 4 198 195 196 209
2158 4 198 195 196 210
2159 4 198 195 197 211
2160 4 198 195 197 212
2161 4 198 195 197 213
2162 3 539 540 541 542
2163 3 541 540 539 549
2164 3 539 540 541 554
2165 3 553 540 541 554
2166 4 507 537 538 539
2167 2 507 537 538 568
2168 8 507 537 538 552
2169 10 550 537 538 552
2170 8 550 537 538 568
2171 10 551 537 538 552
2172 8 551 537 538 568
2173 3 286 292 293 312
2174 3 311 292 293 312
2175 6 286 287 288 289
2176 7 286 287 288 289
2177 6 286 287 288 290
2178 7 286 287 288 290
2179 6 286 287 288 291
2180 7 286 287 288 291
2181 5 288 287 286 292
2182 5 285 286 287 288
2183 3 285 286 292 293
2184 3 287 286 292 293
2185 5 285 286 287 300
2186 5 285 286 287 301
2187 3 285 286 292 311
2188 3 287 286 285 299
2189 3 287 286 292 311
2190 3 292 286 285 299
2191 5 292 286 287 300
2192 5 292 286 287 301
2193 3 283 293 292 286
2194 3 283 293 292 311
2195 4 7 8 9 22
2196 4 7 8 9 23
2197 4 7 8 9 24
2198 4 7 8 10 25
2199 4 7 8 10 26
2200 4 7 8 10 27
2201 4 7 8 11 28
2202 4 7 8 11 29
2203 4 7 8 11 30
2204 4 9 8 7 20
2205 4 9 8 7 21
2206 4 9 8 10 25
2207 4 9 8 10 26
2208 4 9 8 10 27
2209 4 9 8 11 28
2210 4 9 8 11 29
2211 4 9 8 11 30
2212 4 10 8 7 20
2213 4 10 8 7 21
2214 4 10 8 9 22
2215 4 10 8 9 23
2216 4 10 8 9 24
2217 4 10 8 11 28
2218 4 10 8 11 29
2219 4 10 8 11 30
2220 4 11 8 7 20
2221 4 11 8 7 21
2222 4 11 8 9 22
2223 4 11 8 9 23
2224 4 11 8 9 24
2225 4 11 8 10 25
2226 4 11 8 10 26
2227 4 11 8 10 27
2228 5 510 511 512 513
2229 3 510 511 517 518
2230 3 512 511 517 518
2231 5 510 511 512 524
2232 5 510 511 512 525
2233 3 510 511 517 535
2234 3 512 511 510 523
2235 3 512 511 517 535
2236 3 517 511 510 523
2237 5 517 511 512 524
2238 5 517 511 512 525
2239 6 511 512 513 514
2240 7 511 512 513 514
2241 6 511 512 513 515
2242 7 511 512 513 515
2243 6 511 512 513 516
2244 7 511 512 513 516
2245 5 513 512 511 517
2246 3 511 517 518 536
2247 3 535 517 518 536
2248 4 512 513 514 526
2249 4 512 513 514 527
2250 4 512 513 514 528
2251 4 512 513 515 529
2252 4 512 513 515 530
2253 4 512 513 515 531
2254 4 512 513 516 532
2255 4 512 513 516 533
2256 4 512 513 516 534
2257 4 514 513 512 524
2258 4 514 513 512 525
2259 4 514 513 515 529
2260 4 514 513 515 530
2261 4 514 513 515 531
2262 4 514 513 516 532
2263 4 514 513 516 533
2264 4 514 513 516 534
2265 4 515 513 512 524
2266 4 515 513 512 525
2267 4 515 513 514 526
2268 4 515 513 514 527
2269 4 515 513 514 528
2270 4 515 513 516 532
2271 4 515 513 516 533
2272 4 515 513 516 534
2273 4 516 513 512 524
2274 4 516 513 512 525
2275 4 516 513 514 526
2276 4 516 513 514 527
2277 4 516 513 514 528
2278 4 516 513 515 529
2279 4 516 513 515 530
2280 4 516 513 515 531
2281 3 224 230 231 249
2282 3 248 230 231 249
2283 4 225 226 227 239
2284 4 225 226 227 240
2285 4 225 226 227 241
2286 4 225 226 228 242
2287 4 225 226 228 243
2288 4 225 226 228 244
2289 4 225 226 229 245
2290 4 225 226 229 246
2291 4 225 226 229 247
2292 4 227 226 225 237
2293 4 227 226 225 238
2294 4 227 226 228 242
2295 4 227 226 228 243
2296 4 227 226 228 244
2297 4 227 226 229 245
2298 4 227 226 229 246
2299 4 227 226 229 247
2300 4 228 226 225 237
2301 4 228 226 225 238
2302 4 228 226 227 239
2303 4 228 226 227 240
2304 4 228 226 227 241
2305 4 228 226 229 245
2306 4 228 226 229 246
2307 4 228 226 229 247
2308 4 229 226 225 237
2309 4 229 226 225 238
2310 4 229 226 227 239
2311 4 229 226 227 240
2312 4 229 226 227 241
2313 4 229 226 228 242
2314 4 229 226 228 243
2315 4 229 226 228 244
2316 5 223 224 225 226
2317 3 223 224 230 231
2318 3 225 224 230 231
2319 5 223 224 225 237
2320 5 223 224 225 238
2321 3 223 224 230 248
2322 3 225 224 223 236
2323 3 225 224 230 248
2324 3 230 224 223 236
2325 5 230 224 225 237
2326 5 230 224 225 238
2327 6 224 225 226 227
2328 7 224 225 226 227
2329 6 224 225 226 228
2330 7 224 225 226 228
2331 6 224 225 226 229
2332 7 224 225 226 229
2333 5 226 225 224 230
2334 3 826 827 828 829
2335 3 828 827 826 836
2336 3 826 827 828 841
2337 3 840 827 828 841
2338 3 825 826 827 828
2339 3 825 826 836 835
2340 1 827 826 825 855
2341 3 827 826 836 835
2342 1 836 826 825 855
2343 3 825 826 827 840
2344 3 825 826 836 854
2345 9 827 826 825 839
2346 5 827 826 825 839
2347 3 827 826 836 854
2348 9 836 826 825 839
2349 5 836 826 825 839
2350 3 836 826 827 840
2351 3 222 223 224 225
2352 3 222 223 224 230
2353 3 224 223 222 235
2354 3 827 828 829 830
2355 3 827 828 829 835
2356 3 829 828 827 840
2357 1 824 825 826 827
2358 1 824 825 826 836
2359 2 824 825 855 856
2360 4 826 825 855 856
2361 8 824 825 855 868
2362 8 824 825 855 869
2363 4 826 825 824 837
2364 4 826 825 824 838
2365 4 826 825 855 868
2366 4 826 825 855 869
2367 8 839 825 855 856
2368 10 839 825 855 868
2369 10 839 825 855 869
2370 4 794 824 825 826
2371 2 794 824 825 855
2372 8 794 824 825 839
2373 10 837 824 825 839
2374 8 837 824 825 855
2375 10 838 824 825 839
2376 8 838 824 825 855
2377 3 221 231 230 224
2378 3 221 231 230 248
2379 5 828 829 830 831
2380 3 828 829 835 836
2381 3 830 829 835 836
2382 5 828 829 830 842
2383 5 828 829 830 843
2384 3 828 829 835 853
2385 3 830 829 828 841
2386 3 830 829 835 853
2387 3 835 829 828 841
2388 5 835 829 830 842
2389 5 835 829 830 843
2390 3 829 835 836 854
2391 3 853 835 836 854
2392 3 826 836 835 829
2393 3 826 836 835 853
2394 6 829 830 831 832
2395 7 829 830 831 832
2396 6 829 830 831 833
2397 7 829 830 831 833
2398 6 829 830 831 834
2399 7 829 830 831 834
2400 5 831 830 829 835
2401 6 1310 1311 1312 1313
2402 7 1310 1311 1312 1313
2403 6 1310 1311 1312 1314
2404 7 1310 1311 1312 1314
2405 6 1310 1311 1312 1315
2406 7 1310 1311 1312 1315
2407 5 1312 1311 1310 1316
2408 4 1311 1312 1313 1325
2409 4 1311 1312 1313 1326
2410 4 1311 1312 1313 1327
2411 4 1311 1312 1314 1328
2412 4 1311 1312 1314 1329
2413 4 1311 1312 1314 1330
2414 4 1311 1312 1315 1331
2415 4 1311 1312 1315 1332
2416 4 1311 1312 1315 1333
2417 4 1313 1312 1311 1323
2418 4 1313 1312 1311 1324
2419 4 1313 1312 1314 1328
2420 4 1313 1312 1314 1329
2421 4 1313 1312 1314 1330
2422 4 1313 1312 1315 1331
2423 4 1313 1312 1315 1332
2424 4 1313 1312 1315 1333
2425 4 1314 1312 1311 1323
2426 4 1314 1312 1311 1324
2427 4 1314 1312 1313 1325
2428 4 1314 1312 1313 1326
2429 4 1314 1312 1313 1327
2430 4 1314 1312 1315 1331
2431 4 1314 1312 1315 1332
2432 4 1314 1312 1315 1333
2433 4 1315 1312 1311 1323
2434 4 1315 1312 1311 1324
2435 4 1315 1312 1313 1325
2436 4 1315 1312 1313 1326
2437 4 1315 1312 1313 1327
2438 4 1315 1312 1314 1328
2439 4 1315 1312 1314 1329
2440 4 1315 1312 1314 1330
2441 3 1310 1316 1317 1335
2442 3 1334 1316 1317 1335
2443 3 2 3 4 5
2444 3 2 3 13 12
2445 1 4 3 2 33
2446 3 4 3 13 12
2447 1 13 3 2 33
2448 3 2 3 4 18
2449 3 2 3 13 32
2450 9 4 3 2 17
2451 3 4 3 13 32
2452 9 13 3 2 17
2453 5 13 3 2 17
2454 3 13 3 4 18
2455 3 3 4 5 6
2456 3 5 4 3 13
2457 3 3 4 5 19
2458 3 18 4 5 19
2459 3 6 12 13 32
2460 3 31 12 13 32
2461 3 3 13 12 6
2462 3 3 13 12 31
2463 3 4 5 6 7
2464 3 4 5 6 12
2465 3 6 5 4 18
2466 5 5 6 7 8
2467 3 5 6 12 13
2468 3 7 6 12 13
2469 5 5 6 7 20
2470 5 5 6 7 21
2471 3 5 6 12 31
2472 3 7 6 5 19
2473 3 7 6 12 31
2474 3 12 6 5 19
2475 5 12 6 7 20
2476 5 12 6 7 21
2477 6 6 7 8 9
2478 7 6 7 8 9
2479 6 6 7 8 10
2480 7 6 7 8 10
2481 6 6 7 8 11
2482 7 6 7 8 11
2483 5 8 7 6 12
2484 3 36 37 38 39
2485 3 36 37 38 44
2486 3 38 37 36 49
2487 3 324 330 331 350
2488 3 349 330 331 350
2489 3 321 331 330 324
2490 3 321 331 330 349
2491 3 320 321 322 323
2492 3 320 321 331 330
2493 1 322 321 320 351
2494 3 322 321 331 330
2495 1 331 321 320 351
2496 3 320 321 322 336
2497 3 320 321 331 350
2498 9 322 321 320 335
2499 3 322 321 331 350
2500 9 331 321 320 335
2501 5 331 321 320 335
2502 3 331 321 322 336
2503 5 37 38 39 40
2504 3 37 38 44 45
2505 3 39 38 44 45
2506 5 37 38 39 51
2507 5 37 38 39 52
2508 3 37 38 44 62
2509 3 39 38 37 50
2510 3 39 38 44 62
2511 3 44 38 37 50
2512 5 44 38 39 51
2513 5 44 38 39 52
2514 4 39 40 41 53
2515 4 39 40 41 54
2516 4 39 40 41 55
2517 4 39 40 42 56
2518 4 39 40 42 57
2519 4 39 40 42 58
2520 4 39 40 43 59
2521 4 39 40 43 60
2522 4 39 40 43 61
2523 4 41 40 39 51
2524 4 41 40 39 52
2525 4 41 40 42 56
2526 4 41 40 42 57
2527 4 41 40 42 58
2528 4 41 40 43 59
2529 4 41 40 43 60
2530 4 41 40 43 61
2531 4 42 40 39 51
2532 4 42 40 39 52
2533 4 42 40 41 53
2534 4 42 40 41 54
2535 4 42 40 41 55
2536 4 42 40 43 59
2537 4 42 40 43 60
2538 4 42 40 43 61
2539 4 43 40 39 51
2540 4 43 40 39 52
2541 4 43 40 41 53
2542 4 43 40 41 54
2543 4 43 40 41 55
2544 4 43 40 42 56
2545 4 43 40 42 57
2546 4 43 40 42 58
2547 6 38 39 40 41
2548 7 38 39 40 41
2549 6 38 39 40 42
2550 7 38 39 40 42
2551 6 38 39 40 43
2552 7 38 39 40 43
2553 5 40 39 38 44
2554 1 351 352 353 354
2555 1 351 352 353 363
2556 2 351 352 382 383
2557 4 353 352 382 383
2558 8 351 352 382 395
2559 8 351 352 382 396
2560 4 353 352 351 364
2561 4 353 352 351 365
2562 4 353 352 382 395
2563 4 353 352 382 396
2564 8 366 352 382 383
2565 10 366 352 382 395
2566 10 366 352 382 396
2567 4 320 351 352 353
2568 2 320 351 352 382
2569 8 320 351 352 366
2570 10 364 351 352 366
2571 8 364 351 352 382
2572 10 365 351 352 366
2573 8 365 351 352 382
2574 1 319 320 321 322
2575 1 319 320 321 331
2576 2 319 320 351 352
2577 4 321 320 351 352
2578 8 319 320 351 364
2579 8 319 320 351 365
2580 4 321 320 351 364
2581 4 321 320 351 365
2582 8 335 320 351 352
2583 10 335 320 351 364
2584 10 335 320 351 365
2585 4 332 319 320 321
2586 2 332 319 320 351
2587 8 320 319 332 631
2588 8 320 319 332 632
2589 8 320 319 332 633
2590 4 333 319 320 321
2591 4 334 319 320 321
2592 8 332 319 320 335
2593 10 333 319 320 335
2594 8 333 319 320 351
2595 10 333 319 332 631
2596 10 333 319 332 632
2597 10 333 319 332 633
2598 10 334 319 320 335
2599 8 334 319 320 351
2600 10 334 319 332 631
2601 10 334 319 332 632
2602 10 334 319 332 633
2603 3 888 889 890 891
2604 3 890 889 888 898
2605 3 888 889 890 903
2606 3 902 889 890 903
2607 3 889 890 891 892
2608 3 889 890 891 897
2609 3 891 890 889 902
2610 4 830 831 832 844
2611 4 830 831 832 845
2612 4 830 831 832 846
2613 4 830 831 833 847
2614 4 830 831 833 848
2615 4 830 831 833 849
2616 4 830 831 834 850
2617 4 830 831 834 851
2618 4 830 831 834 852
2619 4 832 831 830 842
2620 4 832 831 830 843
2621 4 832 831 833 847
2622 4 832 831 833 848
2623 4 832 831 833 849
2624 4 832 831 834 850
2625 4 832 831 834 851
2626 4 832 831 834 852
2627 4 833 831 830 842
2628 4 833 831 830 843
2629 4 833 831 832 844
2630 4 833 831 832 845
2631 4 833 831 832 846
2632 4 833 831 834 850
2633 4 833 831 834 851
2634 4 833 831 834 852
2635 4 834 831 830 842
2636 4 834 831 830 843
2637 4 834 831 832 844
2638 4 834 831 832 845
2639 4 834 831 832 846
2640 4 834 831 833 847
2641 4 834 831 833 848
2642 4 834 831 833 849
2643 1 1 2 3 4
2644 1 1 2 3 13
2645 2 1 2 33 34
2646 4 3 2 33 34
2647 8 1 2 33 46
2648 8 1 2 33 47
2649 4 3 2 33 46
2650 4 3 2 33 47
2651 8 17 2 33 34
2652 10 17 2 33 46
2653 10 17 2 33 47
2654 4 2 33 34 35
2655 2 2 33 34 64
2656 8 2 33 34 48
2657 10 46 33 34 48
2658 8 46 33 34 64
2659 10 47 33 34 48
2660 8 47 33 34 64
2661 1 33 34 35 36
2662 1 33 34 35 45
2663 2 33 34 64 65
2664 4 35 34 64 65
2665 8 33 34 64 77
2666 8 33 34 64 78
2667 4 35 34 33 46
2668 4 35 34 33 47
2669 4 35 34 64 77
2670 4 35 34 64 78
2671 8 48 34 64 65
2672 10 48 34 64 77
2673 10 48 34 64 78
2674 3 65 66 67 68
2675 3 65 66 76 75
2676 1 67 66 65 95
2677 3 67 66 76 75
2678 1 76 66 65 95
2679 3 65 66 67 80
2680 3 65 66 76 94
2681 9 67 66 65 79
2682 5 67 66 65 79
2683 3 67 66 76 94
2684 9 76 66 65 79
2685 5 76 66 65 79
2686 3 76 66 67 80
2687 4 34 64 65 66
2688 2 34 64 65 95
2689 8 34 64 65 79
2690 10 77 64 65 79
2691 8 77 64 65 95
2692 10 78 64 65 79
2693 8 78 64 65 95
2694 3 34 35 36 37
2695 3 34 35 45 44
2696 1 36 35 34 64
2697 3 36 35 45 44
2698 1 45 35 34 64
2699 3 34 35 36 49
2700 3 34 35 45 63
2701 9 36 35 34 48
2702 5 36 35 34 48
2703 3 36 35 45 63
2704 9 45 35 34 48
2705 5 45 35 34 48
2706 3 45 35 36 49
2707 3 35 36 37 38
2708 3 37 36 35 45
2709 3 35 36 37 50
2710 3 49 36 37 50
2711 1 64 65 66 67
2712 1 64 65 66 76
2713 2 64 65 95 96
2714 4 66 65 95 96
2715 8 64 65 95 108
2716 8 64 65 95 109
2717 4 66 65 64 77
2718 4 66 65 64 78
2719 4 66 65 95 108
2720 4 66 65 95 109
2721 8 79 65 95 96
2722 10 79 65 95 108
2723 10 79 65 95 109
2724 3 321 322 323 324
2725 3 323 322 321 331
2726 3 321 322 323 337
2727 3 336 322 323 337
2728 3 322 323 324 325
2729 3 322 323 324 330
2730 3 324 323 322 336
2731 4 65 95 96 97
2732 2 65 95 96 126
2733 8 65 95 96 110
2734 10 108 95 96 110
2735 8 108 95 96 126
2736 10 109 95 96 110
2737 8 109 95 96 126
2738 4 127 157 158 159
2739 2 127 157 158 188
2740 8 127 157 158 172
2741 10 170 157 158 172
2742 8 170 157 158 188
2743 10 171 157 158 172
2744 8 171 157 158 188
2745 3 35 45 44 38
2746 3 35 45 44 62
2747 1 126 127 128 129
2748 1 126 127 128 138
2749 2 126 127 157 158
2750 4 128 127 157 158
2751 8 126 127 157 170
2752 8 126 127 157 171
2753 4 128 127 126 139
2754 4 128 127 126 140
2755 4 128 127 157 170
2756 4 128 127 157 171
2757 8 141 127 157 158
2758 10 141 127 157 170
2759 10 141 127 157 171
2760 1 95 96 97 98
2761 1 95 96 97 107
2762 2 95 96 126 127
2763 4 97 96 126 127
2764 8 95 96 126 139
2765 8 95 96 126 140
2766 4 97 96 95 108
2767 4 97 96 95 109
2768 4 97 96 126 139
2769 4 97 96 126 140
2770 8 110 96 126 127
2771 10 110 96 126 139
2772 10 110 96 126 140
2773 4 96 126 127 128
2774 2 96 126 127 157
2775 8 96 126 127 141
2776 10 139 126 127 141
2777 8 139 126 127 157
2778 10 140 126 127 141
2779 8 140 126 127 157
2780 3 38 44 45 63
2781 3 62 44 45 63
2782 3 128 129 130 131
2783 3 130 129 128 138
2784 3 128 129 130 143
2785 3 142 129 130 143
2786 3 127 128 129 130
2787 3 127 128 138 137
2788 1 129 128 127 157
2789 3 129 128 138 137
2790 1 138 128 127 157
2791 3 127 128 129 142
2792 3 127 128 138 156
2793 9 129 128 127 141
2794 5 129 128 127 141
2795 3 129 128 138 156
2796 9 138 128 127 141
2797 5 138 128 127 141
2798 3 138 128 129 142
2799 3 129 130 131 132
2800 3 129 130 131 137
2801 3 131 130 129 142
2802 5 130 131 132 133
2803 3 130 131 137 138
2804 3 132 131 137 138
2805 5 130 131 132 144
2806 5 130 131 132 145
2807 3 130 131 137 155
2808 3 132 131 130 143
2809 3 132 131 137 155
2810 3 137 131 130 143
2811 5 137 131 132 144
2812 5 137 131 132 145
2813 6 131 132 133 134
2814 7 131 132 133 134
2815 6 131 132 133 135
2816 7 131 132 133 135
2817 6 131 132 133 136
2818 7 131 132 133 136
2819 5 133 132 131 137
2820 4 132 133 134 146
2821 4 132 133 134 147
2822 4 132 133 134 148
2823 4 132 133 135 149
2824 4 132 133 135 150
2825 4 132 133 135 151
2826 4 132 133 136 152
2827 4 132 133 136 153
2828 4 132 133 136 154
2829 4 134 133 132 144
2830 4 134 133 132 145
2831 4 134 133 135 149
2832 4 134 133 135 150
2833 4 134 133 135 151
2834 4 134 133 136 152
2835 4 134 133 136 153
2836 4 134 133 136 154
2837 4 135 133 132 144
2838 4 135 133 132 145
2839 4 135 133 134 146
2840 4 135 133 134 147
2841 4 135 133 134 148
2842 4 135 133 136 152
2843 4 135 133 136 153
2844 4 135 133 136 154
2845 4 136 133 132 144
2846 4 136 133 132 145
2847 4 136 133 134 146
2848 4 136 133 134 147
2849 4 136 133 134 148
2850 4 136 133 135 149
2851 4 136 133 135 150
2852 4 136 133 135 151
2853 3 131 137 138 156
2854 3 155 137 138 156
2855 3 128 138 137 131
2856 3 128 138 137 155
2857 4 1055 1056 1057 1069
2858 4 1055 1056 1057 1070
2859 4 1055 1056 1057 1071
2860 4 1055 1056 1058 1072
2861 4 1055 1056 1058 1073
2862 4 1055 1056 1058 1074
2863 4 1055 1056 1059 1075
2864 4 1055 1056 1059 1076
2865 4 1055 1056 1059 1077
2866 4 1057 1056 1055 1067
2867 4 1057 1056 1055 1068
2868 4 1057 1056 1058 1072
2869 4 1057 1056 1058 1073
2870 4 1057 1056 1058 1074
2871 4 1057 1056 1059 1075
2872 4 1057 1056 1059 1076
2873 4 1057 1056 1059 1077
2874 4 1058 1056 1055 1067
2875 4 1058 1056 1055 1068
2876 4 1058 1056 1057 1069
2877 4 1058 1056 1057 1070
2878 4 1058 1056 1057 1071
2879 4 1058 1056 1059 1075
2880 4 1058 1056 1059 1076
2881 4 1058 1056 1059 1077
2882 4 1059 1056 1055 1067
2883 4 1059 1056 1055 1068
2884 4 1059 1056 1057 1069
2885 4 1059 1056 1057 1070
2886 4 1059 1056 1057 1071
2887 4 1059 1056 1058 1072
2888 4 1059 1056 1058 1073
2889 4 1059 1056 1058 1074
2890 3 66 67 68 69
2891 3 68 67 66 76
2892 3 66 67 68 81
2893 3 80 67 68 81
2894 3 66 76 75 69
2895 3 66 76 75 93
2896 3 67 68 69 70
2897 3 67 68 69 75
2898 3 69 68 67 80
2899 6 69 70 71 72
2900 7 69 70 71 72
2901 6 69 70 71 73
2902 7 69 70 71 73
2903 6 69 70 71 74
2904 7 69 70 71 74
2905 5 71 70 69 75
2906 3 69 75 76 94
2907 3 93 75 76 94
2908 4 70 71 72 84
2909 4 70 71 72 85
2910 4 70 71 72 86
2911 4 70 71 73 87
2912 4 70 71 73 88
2913 4 70 71 73 89
2914 4 70 71 74 90
2915 4 70 71 74 91
2916 4 70 71 74 92
2917 4 72 71 70 82
2918 4 72 71 70 83
2919 4 72 71 73 87
2920 4 72 71 73 88
2921 4 72 71 73 89
2922 4 72 71 74 90
2923 4 72 71 74 91
2924 4 72 71 74 92
2925 4 73 71 70 82
2926 4 73 71 70 83
2927 4 73 71 72 84
2928 4 73 71 72 85
2929 4 73 71 72 86
2930 4 73 71 74 90
2931 4 73 71 74 91
2932 4 73 71 74 92
2933 4 74 71 70 82
2934 4 74 71 70 83
2935 4 74 71 72 84
2936 4 74 71 72 85
2937 4 74 71 72 86
2938 4 74 71 73 87
2939 4 74 71 73 88
2940 4 74 71 73 89
2941 5 68 69 70 71
2942 3 68 69 75 76
2943 3 70 69 75 76
2944 5 68 69 70 82
2945 5 68 69 70 83
2946 3 68 69 75 93
2947 3 70 69 68 81
2948 3 70 69 75 93
2949 3 75 69 68 81
2950 5 75 69 70 82
2951 5 75 69 70 83
2952 3 158 159 160 161
2953 3 158 159 169 168
2954 1 160 159 158 188
2955 3 160 159 169 168
2956 1 169 159 158 188
2957 3 158 159 160 173
2958 3 158 159 169 187
2959 9 160 159 158 172
2960 5 160 159 158 172
2961 3 160 159 169 187
2962 9 169 159 158 172
2963 5 169 159 158 172
2964 3 169 159 160 173
2965 3 159 169 168 162
2966 3 159 169 168 186
2967 3 191 192 193 194
2968 3 191 192 193 199
2969 3 193 192 191 204
2970 3 190 191 192 193
2971 3 192 191 190 200
2972 3 190 191 192 205
2973 3 204 191 192 205
2974 1 157 158 159 160
2975 1 157 158 159 169
2976 2 157 158 188 189
2977 4 159 158 188 189
2978 8 157 158 188 201
2979 8 157 158 188 202
2980 4 159 158 157 170
2981 4 159 158 157 171
2982 4 159 158 188 201
2983 4 159 158 188 202
2984 8 172 158 188 189
2985 10 172 158 188 201
2986 10 172 158 188 202
2987 3 189 190 191 192
2988 3 189 190 200 199
2989 1 191 190 189 219
2990 3 191 190 200 199
2991 1 200 190 189 219
2992 3 189 190 191 204
2993 3 189 190 200 218
2994 9 191 190 189 203
2995 5 191 190 189 203
2996 3 191 190 200 218
2997 9 200 190 189 203
2998 5 200 190 189 203
2999 3 200 190 191 204
3000 3 97 98 99 100
3001 3 99 98 97 107
3002 3 97 98 99 112
3003 3 111 98 99 112
3004 3 96 97 98 99
3005 3 96 97 107 106
3006 1 98 97 96 126
3007 3 98 97 107 106
3008 1 107 97 96 126
3009 3 96 97 98 111
3010 3 96 97 107 125
3011 9 98 97 96 110
3012 5 98 97 96 110
3013 3 98 97 107 125
3014 9 107 97 96 110
3015 5 107 97 96 110
3016 3 107 97 98 111
3017 3 98 99 100 101
3018 3 98 99 100 106
3019 3 100 99 98 111
3020 3 97 107 106 100
3021 3 97 107 106 124
3022 4 158 188 189 190
3023 2 158 188 189 219
3024 8 158 188 189 203
3025 10 201 188 189 203
3026 8 201 188 189 219
3027 10 202 188 189 203
3028 8 202 188 189 219
3029 5 99 100 101 102
3030 3 99 100 106 107
3031 3 101 100 106 107
3032 5 99 100 101 113
3033 5 99 100 101 114
3034 3 99 100 106 124
3035 3 101 100 99 112
3036 3 101 100 106 124
3037 3 106 100 99 112
3038 5 106 100 101 113
3039 5 106 100 101 114
3040 4 101 102 103 115
3041 4 101 102 103 116
3042 4 101 102 103 117
3043 4 101 102 104 118
3044 4 101 102 104 119
3045 4 101 102 104 120
3046 4 101 102 105 121
3047 4 101 102 105 122
3048 4 101 102 105 123
3049 4 103 102 101 113
3050 4 103 102 101 114
3051 4 103 102 104 118
3052 4 103 102 104 119
3053 4 103 102 104 120
3054 4 103 102 105 121
3055 4 103 102 105 122
3056 4 103 102 105 123
3057 4 104 102 101 113
3058 4 104 102 101 114
3059 4 104 102 103 115
3060 4 104 102 103 116
3061 4 104 102 103 117
3062 4 104 102 105 121
3063 4 104 102 105 122
3064 4 104 102 105 123
3065 4 105 102 101 113
3066 4 105 102 101 114
3067 4 105 102 103 115
3068 4 105 102 103 116
3069 4 105 102 103 117
3070 4 105 102 104 118
3071 4 105 102 104 119
3072 4 105 102 104 120
3073 3 100 106 107 125
3074 3 124 106 107 125
3075 1 188 189 190 191
3076 1 188 189 190 200
3077 2 188 189 219 220
3078 4 190 189 219 220
3079 8 188 189 219 232
3080 8 188 189 219 233
3081 4 190 189 188 201
3082 4 190 189 188 202
3083 4 190 189 219 232
3084 4 190 189 219 233
3085 8 203 189 219 220
3086 10 203 189 219 232
3087 10 203 189 219 233
3088 3 255 261 262 280
3089 3 279 261 262 280
3090 4 189 219 220 221
3091 2 189 219 220 250
3092 8 189 219 220 234
3093 10 232 219 220 234
3094 8 232 219 220 250
3095 10 233 219 220 234
3096 8 233 219 220 250
3097 4 220 250 251 252
3098 2 220 250 251 281
3099 8 220 250 251 265
3100 10 263 250 251 265
3101 8 263 250 251 281
3102 10 264 250 251 265
3103 8 264 250 251 281
3104 3 252 262 261 255
3105 3 252 262 261 279
3106 1 219 220 221 222
3107 1 219 220 221 231
3108 2 219 220 250 251
3109 4 221 220 250 251
3110 8 219 220 250 263
3111 8 219 220 250 264
3112 4 221 220 219 232
3113 4 221 220 219 233
3114 4 221 220 250 263
3115 4 221 220 250 264
3116 8 234 220 250 251
3117 10 234 220 250 263
3118 10 234 220 250 264
3119 3 251 252 253 254
3120 3 251 252 262 261
3121 1 253 252 251 281
3122 3 253 252 262 261
3123 1 262 252 251 281
3124 3 251 252 253 266
3125 3 251 252 262 280
3126 9 253 252 251 265
3127 5 253 252 251 265
3128 3 253 252 262 280
3129 9 262 252 251 265
3130 5 262 252 251 265
3131 3 262 252 253 266
3132 1 250 251 252 253
3133 1 250 251 252 262
3134 2 250 251 281 282
3135 4 252 251 281 282
3136 8 250 251 281 294
3137 8 250 251 281 295
3138 4 252 251 250 263
3139 4 252 251 250 264
3140 4 252 251 281 294
3141 4 252 251 281 295
3142 8 265 251 281 282
3143 10 265 251 281 294
3144 10 265 251 281 295
3145 3 795 796 797 798
3146 3 797 796 795 805
3147 3 795 796 797 810
3148 3 809 796 797 810
3149 3 796 797 798 799
3150 3 796 797 798 804
3151 3 798 797 796 809
3152 3 794 795 796 797
3153 3 794 795 805 804
3154 1 796 795 794 824
3155 3 796 795 805 804
3156 1 805 795 794 824
3157 3 794 795 796 809
3158 3 794 795 805 823
3159 9 796 795 794 808
3160 5 796 795 794 808
3161 3 796 795 805 823
3162 9 805 795 794 808
3163 5 805 795 794 808
3164 3 805 795 796 809
3165 4 251 281 282 283
3166 2 251 281 282 296
3167 8 251 281 282 297
3168 8 294 281 282 296
3169 10 294 281 282 297
3170 8 295 281 282 296
3171 10 295 281 282 297
3172 1 281 282 283 284
3173 1 281 282 283 293
3174 8 281 282 296 316
3175 8 281 282 296 317
3176 8 281 282 296 318
3177 4 283 282 281 294
3178 4 283 282 281 295
3179 4 283 282 296 316
3180 4 283 282 296 317
3181 4 283 282 296 318
3182 10 297 282 296 316
3183 10 297 282 296 317
3184 10 297 282 296 318
3185 4 763 793 794 795
3186 2 763 793 794 824
3187 8 763 793 794 808
3188 10 806 793 794 808
3189 8 806 793 794 824
3190 10 807 793 794 808
3191 8 807 793 794 824
3192 4 1404 1405 1406 1418
3193 4 1404 1405 1406 1419
3194 4 1404 1405 1406 1420
3195 4 1404 1405 1407 1421
3196 4 1404 1405 1407 1422
3197 4 1404 1405 1407 1423
3198 4 1404 1405 1408 1424
3199 4 1404 1405 1408 1425
3200 4 1404 1405 1408 1426
3201 4 1406 1405 1404 1416
3202 4 1406 1405 1404 1417
3203 4 1406 1405 1407 1421
3204 4 1406 1405 1407 1422
3205 4 1406 1405 1407 1423
3206 4 1406 1405 1408 1424
3207 4 1406 1405 1408 1425
3208 4 1406 1405 1408 1426
3209 4 1407 1405 1404 1416
3210 4 1407 1405 1404 1417
3211 4 1407 1405 1406 1418
3212 4 1407 1405 1406 1419
3213 4 1407 1405 1406 1420
3214 4 1407 1405 1408 1424
3215 4 1407 1405 1408 1425
3216 4 1407 1405 1408 1426
3217 4 1408 1405 1404 1416
3218 4 1408 1405 1404 1417
3219 4 1408 1405 1406 1418
3220 4 1408 1405 1406 1419
3221 4 1408 1405 1406 1420
3222 4 1408 1405 1407 1421
3223 4 1408 1405 1407 1422
3224 4 1408 1405 1407 1423
3225 3 220 221 222 223
3226 3 220 221 231 230
3227 1 222 221 220 250
3228 3 222 221 231 230
3229 1 231 221 220 250
3230 3 220 221 222 235
3231 3 220 221 231 249
3232 9 222 221 220 234
3233 5 222 221 220 234
3234 3 222 221 231 249
3235 9 231 221 220 234
3236 5 231 221 220 234
3237 3 231 221 222 235
3238 3 221 222 223 224
3239 3 223 222 221 231
3240 3 221 222 223 236
3241 3 235 222 223 236
3242 1 793 794 795 796
3243 1 793 794 795 805
3244 2 793 794 824 825
3245 4 795 794 824 825
3246 8 793 794 824 837
3247 8 793 794 824 838
3248 4 795 794 793 806
3249 4 795 794 793 807
3250 4 795 794 824 837
3251 4 795 794 824 838
3252 8 808 794 824 825
3253 10 808 794 824 837
3254 10 808 794 824 838
3255 4 1306 1336 1337 1338
3256 2 1306 1336 1337 1367
3257 8 1306 1336 1337 1351
3258 10 1349 1336 1337 1351
3259 8 1349 1336 1337 1367
3260 10 1350 1336 1337 1351
3261 8 1350 1336 1337 1367
3262 1 1336 1337 1338 1339
3263 1 1336 1337 1338 1348
3264 2 1336 1337 1367 1368
3265 4 1338 1337 1367 1368
3266 8 1336 1337 1367 1380
3267 8 1336 1337 1367 1381
3268 4 1338 1337 1336 1349
3269 4 1338 1337 1336 1350
3270 4 1338 1337 1367 1380
3271 4 1338 1337 1367 1381
3272 8 1351 1337 1367 1368
3273 10 1351 1337 1367 1380
3274 10 1351 1337 1367 1381
3275 4 1368 1398 1399 1400
3276 2 1368 1398 1399 1429
3277 8 1368 1398 1399 1413
3278 10 1411 1398 1399 1413
3279 8 1411 1398 1399 1429
3280 10 1412 1398 1399 1413
3281 8 1412 1398 1399 1429
3282 4 1337 1367 1368 1369
3283 2 1337 1367 1368 1398
3284 8 1337 1367 1368 1382
3285 10 1380 1367 1368 1382
3286 8 1380 1367 1368 1398
3287 10 1381 1367 1368 1382
3288 8 1381 1367 1368 1398
3289 1 1367 1368 1369 1370
3290 1 1367 1368 1369 1379
3291 2 1367 1368 1398 1399
3292 4 1369 1368 1398 1399
3293 8 1367 1368 1398 1411
3294 8 1367 1368 1398 1412
3295 4 1369 1368 1367 1380
3296 4 1369 1368 1367 1381
3297 4 1369 1368 1398 1411
3298 4 1369 1368 1398 1412
3299 8 1382 1368 1398 1399
3300 10 1382 1368 1398 1411
3301 10 1382 1368 1398 1412
3302 3 1368 1369 1370 1371
3303 3 1368 1369 1379 1378
3304 1 1370 1369 1368 1398
3305 3 1370 1369 1379 1378
3306 1 1379 1369 1368 1398
3307 3 1368 1369 1370 1383
3308 3 1368 1369 1379 1397
3309 9 1370 1369 1368 1382
3310 5 1370 1369 1368 1382
3311 3 1370 1369 1379 1397
3312 9 1379 1369 1368 1382
3313 5 1379 1369 1368 1382
3314 3 1379 1369 1370 1383
3315 3 1337 1338 1339 1340
3316 3 1337 1338 1348 1347
3317 1 1339 1338 1337 1367
3318 3 1339 1338 1348 1347
3319 1 1348 1338 1337 1367
3320 3 1337 1338 1339 1352
3321 3 1337 1338 1348 1366
3322 9 1339 1338 1337 1351
3323 5 1339 1338 1337 1351
3324 3 1339 1338 1348 1366
3325 9 1348 1338 1337 1351
3326 5 1348 1338 1337 1351
3327 3 1348 1338 1339 1352
3328 4 1528 1529 1530 1542
3329 4 1528 1529 1530 1543
3330 4 1528 1529 1530 1544
3331 4 1528 1529 1531 1545
3332 4 1528 1529 1531 1546
3333 4 1528 1529 1531 1547
3334 4 1528 1529 1532 1548
3335 4 1528 1529 1532 1549
3336 4 1528 1529 1532 1550
3337 4 1530 1529 1528 1540
3338 4 1530 1529 1528 1541
3339 4 1530 1529 1531 1545
3340 4 1530 1529 1531 1546
3341 4 1530 1529 1531 1547
3342 4 1530 1529 1532 1548
3343 4 1530 1529 1532 1549
3344 4 1530 1529 1532 1550
3345 4 1531 1529 1528 1540
3346 4 1531 1529 1528 1541
3347 4 1531 1529 1530 1542
3348 4 1531 1529 1530 1543
3349 4 1531 1529 1530 1544
3350 4 1531 1529 1532 1548
3351 4 1531 1529 1532 1549
3352 4 1531 1529 1532 1550
3353 4 1532 1529 1528 1540
3354 4 1532 1529 1528 1541
3355 4 1532 1529 1530 1542
3356 4 1532 1529 1530 1543
3357 4 1532 1529 1530 1544
3358 4 1532 1529 1531 1545
3359 4 1532 1529 1531 1546
3360 4 1532 1529 1531 1547
3361 1 917 918 919 920
3362 1 917 918 919 929
3363 8 917 918 932 952
3364 8 917 918 932 953
3365 8 917 918 932 954
3366 4 919 918 917 930
3367 4 919 918 917 931
3368 4 919 918 932 952
3369 4 919 918 932 953
3370 4 919 918 932 954
3371 10 933 918 932 952
3372 10 933 918 932 953
3373 10 933 918 932 954
3374 3 919 920 921 922
3375 3 921 920 919 929
3376 3 919 920 921 935
3377 3 934 920 921 935
3378 6 1527 1528 1529 1530
3379 7 1527 1528 1529 1530
3380 6 1527 1528 1529 1531
3381 7 1527 1528 1529 1531
3382 6 1527 1528 1529 1532
3383 7 1527 1528 1529 1532
3384 5 1529 1528 1527 1533
3385 4 887 917 918 919
3386 2 887 917 918 932
3387 8 887 917 918 933
3388 8 930 917 918 932
3389 10 930 917 918 933
3390 8 931 917 918 932
3391 10 931 917 918 933
3392 4 856 886 887 888
3393 2 856 886 887 917
3394 8 856 886 887 901
3395 10 899 886 887 901
3396 8 899 886 887 917
3397 10 900 886 887 901
3398 8 900 886 887 917
3399 1 886 887 888 889
3400 1 886 887 888 898
3401 2 886 887 917 918
3402 4 888 887 917 918
3403 8 886 887 917 930
3404 8 886 887 917 931
3405 4 888 887 886 899
3406 4 888 887 886 900
3407 4 888 887 917 930
3408 4 888 887 917 931
3409 8 901 887 917 918
3410 10 901 887 917 930
3411 10 901 887 917 931
3412 1 855 856 857 858
3413 1 855 856 857 867
3414 2 855 856 886 887
3415 4 857 856 886 887
3416 8 855 856 886 899
3417 8 855 856 886 900
3418 4 857 856 855 868
3419 4 857 856 855 869
3420 4 857 856 886 899
3421 4 857 856 886 900
3422 8 870 856 886 887
3423 10 870 856 886 899
3424 10 870 856 886 900
3425 3 856 857 858 859
3426 3 856 857 867 866
3427 1 858 857 856 886
3428 3 858 857 867 866
3429 1 867 857 856 886
3430 3 856 857 858 871
3431 3 856 857 867 885
3432 9 858 857 856 870
3433 5 858 857 856 870
3434 3 858 857 867 885
3435 9 867 857 856 870
3436 5 867 857 856 870
3437 3 867 857 858 871
3438 4 825 855 856 857
3439 2 825 855 856 886
3440 8 825 855 856 870
3441 10 868 855 856 870
3442 8 868 855 856 886
3443 10 869 855 856 870
3444 8 869 855 856 886
3445 3 857 867 866 860
3446 3 857 867 866 884
3447 3 857 858 859 860
3448 3 859 858 857 867
3449 3 857 858 859 872
3450 3 871 858 859 872
3451 3 860 866 867 885
3452 3 884 866 867 885
3453 3 858 859 860 861
3454 3 858 859 860 866
3455 3 860 859 858 871
3456 5 859 860 861 862
3457 3 859 860 866 867
3458 3 861 860 866 867
3459 5 859 860 861 873
3460 5 859 860 861 874
3461 3 859 860 866 884
3462 3 861 860 859 872
3463 3 861 860 866 884
3464 3 866 860 859 872
3465 5 866 860 861 873
3466 5 866 860 861 874
3467 3 887 888 889 890
3468 3 887 888 898 897
3469 1 889 888 887 917
3470 3 889 888 898 897
3471 1 898 888 887 917
3472 3 887 888 889 902
3473 3 887 888 898 916
3474 9 889 888 887 901
3475 5 889 888 887 901
3476 3 889 888 898 916
3477 9 898 888 887 901
3478 5 898 888 887 901
3479 3 898 888 889 902
3480 3 1308 1309 1310 1311
3481 3 1308 1309 1310 1316
3482 3 1310 1309 1308 1321
3483 5 1309 1310 1311 1312
3484 3 1309 1310 1316 1317
3485 3 1311 1310 1316 1317
3486 5 1309 1310 1311 1323
3487 5 1309 1310 1311 1324
3488 3 1309 1310 1316 1334
3489 3 1311 1310 1309 1322
3490 3 1311 1310 1316 1334
3491 3 1316 1310 1309 1322
3492 5 1316 1310 1311 1323
3493 5 1316 1310 1311 1324
3494 4 768 769 770 782
3495 4 768 769 770 783
3496 4 768 769 770 784
3497 4 768 769 771 785
3498 4 768 769 771 786
3499 4 768 769 771 787
3500 4 768 769 772 788
3501 4 768 769 772 789
3502 4 768 769 772 790
3503 4 770 769 768 780
3504 4 770 769 768 781
3505 4 770 769 771 785
3506 4 770 769 771 786
3507 4 770 769 771 787
3508 4 770 769 772 788
3509 4 770 769 772 789
3510 4 770 769 772 790
3511 4 771 769 768 780
3512 4 771 769 768 781
3513 4 771 769 770 782
3514 4 771 769 770 783
3515 4 771 769 770 784
3516 4 771 769 772 788
3517 4 771 769 772 789
3518 4 771 769 772 790
3519 4 772 769 768 780
3520 4 772 769 768 781
3521 4 772 769 770 782
3522 4 772 769 770 783
3523 4 772 769 770 784
3524 4 772 769 771 785
3525 4 772 769 771 786
3526 4 772 769 771 787
3527 3 1307 1308 1309 1310
3528 3 1309 1308 1307 1317
3529 3 1307 1308 1309 1322
3530 3 1321 1308 1309 1322
3531 6 767 768 769 770
3532 7 767 768 769 770
3533 6 767 768 769 771
3534 7 767 768 769 771
3535 6 767 768 769 772
3536 7 767 768 769 772
3537 5 769 768 767 773
3538 3 1338 1339 1340 1341
3539 3 1340 1339 1338 1348
3540 3 1338 1339 1340 1353
3541 3 1352 1339 1340 1353
3542 3 1307 1317 1316 1310
3543 3 1307 1317 1316 1334
3544 3 1306 1307 1308 1309
3545 3 1306 1307 1317 1316
3546 1 1308 1307 1306 1336
3547 3 1308 1307 1317 1316
3548 1 1317 1307 1306 1336
3549 3 1306 1307 1308 1321
3550 3 1306 1307 1317 1335
3551 9 1308 1307 1306 1320
3552 5 1308 1307 1306 1320
3553 3 1308 1307 1317 1335
3554 9 1317 1307 1306 1320
3555 5 1317 1307 1306 1320
3556 3 1317 1307 1308 1321
3557 1 1305 1306 1307 1308
3558 1 1305 1306 1307 1317
3559 2 1305 1306 1336 1337
3560 4 1307 1306 1336 1337
3561 8 1305 1306 1336 1349
3562 8 1305 1306 1336 1350
3563 4 1307 1306 1305 1318
3564 4 1307 1306 1305 1319
3565 4 1307 1306 1336 1349
3566 4 1307 1306 1336 1350
3567 8 1320 1306 1336 1337
3568 10 1320 1306 1336 1349
3569 10 1320 1306 1336 1350
3570 6 1209 1210 1211 1212
3571 7 1209 1210 1211 1212
3572 6 1209 1210 1211 1213
3573 7 1209 1210 1211 1213
3574 6 1209 1210 1211 1214
3575 7 1209 1210 1211 1214
3576 5 1211 1210 1209 1215
3577 4 1274 1305 1306 1307
3578 2 1274 1305 1306 1336
3579 8 1274 1305 1306 1320
3580 10 1318 1305 1306 1320
3581 8 1318 1305 1306 1336
3582 10 1319 1305 1306 1320
3583 8 1319 1305 1306 1336
3584 5 1208 1209 1210 1211
3585 3 1208 1209 1215 1216
3586 3 1210 1209 1215 1216
3587 5 1208 1209 1210 1222
3588 5 1208 1209 1210 1223
3589 3 1208 1209 1215 1233
3590 3 1210 1209 1208 1221
3591 3 1210 1209 1215 1233
3592 3 1215 1209 1208 1221
3593 5 1215 1209 1210 1222
3594 5 1215 1209 1210 1223
3595 3 1207 1208 1209 1210
3596 3 1207 1208 1209 1215
3597 3 1209 1208 1207 1220
3598 3 1209 1215 1216 1234
3599 3 1233 1215 1216 1234
3600 3 920 921 922 923
3601 3 920 921 922 928
3602 3 922 921 920 934
3603 4 1117 1118 1119 1131
3604 4 1117 1118 1119 1132
3605 4 1117 1118 1119 1133
3606 4 1117 1118 1120 1134
3607 4 1117 1118 1120 1135
3608 4 1117 1118 1120 1136
3609 4 1117 1118 1121 1137
3610 4 1117 1118 1121 1138
3611 4 1117 1118 1121 1139
3612 4 1119 1118 1117 1129
3613 4 1119 1118 1117 1130
3614 4 1119 1118 1120 1134
3615 4 1119 1118 1120 1135
3616 4 1119 1118 1120 1136
3617 4 1119 1118 1121 1137
3618 4 1119 1118 1121 1138
3619 4 1119 1118 1121 1139
3620 4 1120 1118 1117 1129
3621 4 1120 1118 1117 1130
3622 4 1120 1118 1119 1131
3623 4 1120 1118 1119 1132
3624 4 1120 1118 1119 1133
3625 4 1120 1118 1121 1137
3626 4 1120 1118 1121 1138
3627 4 1120 1118 1121 1139
3628 4 1121 1118 1117 1129
3629 4 1121 1118 1117 1130
3630 4 1121 1118 1119 1131
3631 4 1121 1118 1119 1132
3632 4 1121 1118 1119 1133
3633 4 1121 1118 1120 1134
3634 4 1121 1118 1120 1135
3635 4 1121 1118 1120 1136
3636 6 1116 1117 1118 1119
3637 7 1116 1117 1118 1119
3638 6 1116 1117 1118 1120
3639 7 1116 1117 1118 1120
3640 6 1116 1117 1118 1121
3641 7 1116 1117 1118 1121
3642 5 1118 1117 1116 1122
3643 3 1114 1115 1116 1117
3644 3 1114 1115 1116 1122
3645 3 1116 1115 1114 1127
3646 5 1115 1116 1117 1118
3647 3 1115 1116 1122 1123
3648 3 1117 1116 1122 1123
3649 5 1115 1116 1117 1129
3650 5 1115 1116 1117 1130
3651 3 1115 1116 1122 1140
3652 3 1117 1116 1115 1128
3653 3 1117 1116 1122 1140
3654 3 1122 1116 1115 1128
3655 5 1122 1116 1117 1129
3656 5 1122 1116 1117 1130
3657 3 1113 1114 1115 1116
3658 3 1115 1114 1113 1123
3659 3 1113 1114 1115 1128
3660 3 1127 1114 1115 1128
3661 3 918 919 920 921
3662 3 918 919 929 928
3663 1 920 919 918 932
3664 3 920 919 929 928
3665 1 929 919 918 932
3666 3 918 919 920 934
3667 3 918 919 929 948
3668 9 920 919 918 933
3669 5 920 919 918 933
3670 3 920 919 929 948
3671 9 929 919 918 933
3672 5 929 919 918 933
3673 3 929 919 920 934
3674 3 919 929 928 922
3675 3 919 929 928 947
3676 3 922 928 929 948
3677 3 947 928 929 948
3678 3 1116 1122 1123 1141
3679 3 1140 1122 1123 1141
3680 3 888 898 897 891
3681 3 888 898 897 915
3682 6 1054 1055 1056 1057
3683 7 1054 1055 1056 1057
3684 6 1054 1055 1056 1058
3685 7 1054 1055 1056 1058
3686 6 1054 1055 1056 1059
3687 7 1054 1055 1056 1059
3688 5 1056 1055 1054 1060
3689 3 891 897 898 916
3690 3 915 897 898 916
3691 5 890 891 892 893
3692 3 890 891 897 898
3693 3 892 891 897 898
3694 5 890 891 892 904
3695 5 890 891 892 905
3696 3 890 891 897 915
3697 3 892 891 890 903
3698 3 892 891 897 915
3699 3 897 891 890 903
3700 5 897 891 892 904
3701 5 897 891 892 905
3702 6 891 892 893 894
3703 7 891 892 893 894
3704 6 891 892 893 895
3705 7 891 892 893 895
3706 6 891 892 893 896
3707 7 891 892 893 896
3708 5 893 892 891 897
3709 5 921 922 923 924
3710 3 921 922 928 929
3711 3 923 922 928 929
3712 5 921 922 923 936
3713 5 921 922 923 937
3714 3 921 922 928 947
3715 3 923 922 921 935
3716 3 923 922 928 947
3717 3 928 922 921 935
3718 5 928 922 923 936
3719 5 928 922 923 937
3720 6 922 923 924 925
3721 7 922 923 924 925
3722 6 922 923 924 926
3723 7 922 923 924 926
3724 6 922 923 924 927
3725 7 922 923 924 927
3726 5 924 923 922 928
3727 3 1054 1060 1061 1079
3728 3 1078 1060 1061 1079
3729 4 892 893 894 906
3730 4 892 893 894 907
3731 4 892 893 894 908
3732 4 892 893 895 909
3733 4 892 893 895 910
3734 4 892 893 895 911
3735 4 892 893 896 912
3736 4 892 893 896 913
3737 4 892 893 896 914
3738 4 894 893 892 904
3739 4 894 893 892 905
3740 4 894 893 895 909
3741 4 894 893 895 910
3742 4 894 893 895 911
3743 4 894 893 896 912
3744 4 894 893 896 913
3745 4 894 893 896 914
3746 4 895 893 892 904
3747 4 895 893 892 905
3748 4 895 893 894 906
3749 4 895 893 894 907
3750 4 895 893 894 908
3751 4 895 893 896 912
3752 4 895 893 896 913
3753 4 895 893 896 914
3754 4 896 893 892 904
3755 4 896 893 892 905
3756 4 896 893 894 906
3757 4 896 893 894 907
3758 4 896 893 894 908
3759 4 896 893 895 909
3760 4 896 893 895 910
3761 4 896 893 895 911
3762 3 1275 1285 1284 1278
3763 3 1275 1285 1284 1303
3764 3 1278 1284 1285 1304
3765 3 1303 1284 1285 1304
3766 3 1274 1275 1276 1277
3767 3 1274 1275 1285 1284
3768 1 1276 1275 1274 1305
3769 3 1276 1275 1285 1284
3770 1 1285 1275 1274 1305
3771 3 1274 1275 1276 1290
3772 3 1274 1275 1285 1304
3773 9 1276 1275 1274 1289
3774 3 1276 1275 1285 1304
3775 9 1285 1275 1274 1289
3776 5 1285 1275 1274 1289
3777 3 1285 1275 1276 1290
3778 3 1275 1276 1277 1278
3779 3 1277 1276 1275 1285
3780 3 1275 1276 1277 1291
3781 3 1290 1276 1277 1291
3782 5 1277 1278 1279 1280
3783 3 1277 1278 1284 1285
3784 3 1279 1278 1284 1285
3785 5 1277 1278 1279 1292
3786 5 1277 1278 1279 1293
3787 3 1277 1278 1284 1303
3788 3 1279 1278 1277 1291
3789 3 1279 1278 1284 1303
3790 3 1284 1278 1277 1291
3791 5 1284 1278 1279 1292
3792 5 1284 1278 1279 1293
3793 3 1276 1277 1278 1279
3794 3 1276 1277 1278 1284
3795 3 1278 1277 1276 1290
3796 4 1286 1273 1274 1275
3797 2 1286 1273 1274 1305
3798 8 1274 1273 1286 1585
3799 8 1274 1273 1286 1586
3800 8 1274 1273 1286 1587
3801 4 1287 1273 1274 1275
3802 4 1288 1273 1274 1275
3803 8 1286 1273 1274 1289
3804 10 1287 1273 1274 1289
3805 8 1287 1273 1274 1305
3806 10 1287 1273 1286 1585
3807 10 1287 1273 1286 1586
3808 10 1287 1273 1286 1587
3809 10 1288 1273 1274 1289
3810 8 1288 1273 1274 1305
3811 10 1288 1273 1286 1585
3812 10 1288 1273 1286 1586
3813 10 1288 1273 1286 1587
3814 1 1273 1274 1275 1276
3815 1 1273 1274 1275 1285
3816 2 1273 1274 1305 1306
3817 4 1275 1274 1305 1306
3818 8 1273 1274 1305 1318
3819 8 1273 1274 1305 1319
3820 4 1275 1274 1305 1318
3821 4 1275 1274 1305 1319
3822 8 1289 1274 1305 1306
3823 10 1289 1274 1305 1318
3824 10 1289 1274 1305 1319
3825 6 1465 1466 1467 1468
3826 7 1465 1466 1467 1468
3827 6 1465 1466 1467 1469
3828 7 1465 1466 1467 1469
3829 6 1465 1466 1467 1470
3830 7 1465 1466 1467 1470
3831 5 1467 1466 1465 1471
3832 4 1210 1211 1212 1224
3833 4 1210 1211 1212 1225
3834 4 1210 1211 1212 1226
3835 4 1210 1211 1213 1227
3836 4 1210 1211 1213 1228
3837 4 1210 1211 1213 1229
3838 4 1210 1211 1214 1230
3839 4 1210 1211 1214 1231
3840 4 1210 1211 1214 1232
3841 4 1212 1211 1210 1222
3842 4 1212 1211 1210 1223
3843 4 1212 1211 1213 1227
3844 4 1212 1211 1213 1228
3845 4 1212 1211 1213 1229
3846 4 1212 1211 1214 1230
3847 4 1212 1211 1214 1231
3848 4 1212 1211 1214 1232
3849 4 1213 1211 1210 1222
3850 4 1213 1211 1210 1223
3851 4 1213 1211 1212 1224
3852 4 1213 1211 1212 1225
3853 4 1213 1211 1212 1226
3854 4 1213 1211 1214 1230
3855 4 1213 1211 1214 1231
3856 4 1213 1211 1214 1232
3857 4 1214 1211 1210 1222
3858 4 1214 1211 1210 1223
3859 4 1214 1211 1212 1224
3860 4 1214 1211 1212 1225
3861 4 1214 1211 1212 1226
3862 4 1214 1211 1213 1227
3863 4 1214 1211 1213 1228
3864 4 1214 1211 1213 1229
3865 4 1466 1467 1468 1480
3866 4 1466 1467 1468 1481
3867 4 1466 1467 1468 1482
3868 4 1466 1467 1469 1483
3869 4 1466 1467 1469 1484
3870 4 1466 1467 1469 1485
3871 4 1466 1467 1470 1486
3872 4 1466 1467 1470 1487
3873 4 1466 1467 1470 1488
3874 4 1468 1467 1466 1478
3875 4 1468 1467 1466 1479
3876 4 1468 1467 1469 1483
3877 4 1468 1467 1469 1484
3878 4 1468 1467 1469 1485
3879 4 1468 1467 1470 1486
3880 4 1468 1467 1470 1487
3881 4 1468 1467 1470 1488
3882 4 1469 1467 1466 1478
3883 4 1469 1467 1466 1479
3884 4 1469 1467 1468 1480
3885 4 1469 1467 1468 1481
3886 4 1469 1467 1468 1482
3887 4 1469 1467 1470 1486
3888 4 1469 1467 1470 1487
3889 4 1469 1467 1470 1488
3890 4 1470 1467 1466 1478
3891 4 1470 1467 1466 1479
3892 4 1470 1467 1468 1480
3893 4 1470 1467 1468 1481
3894 4 1470 1467 1468 1482
3895 4 1470 1467 1469 1483
3896 4 1470 1467 1469 1484
3897 4 1470 1467 1469 1485
3898 4 1497 1498 1499 1511
3899 4 1497 1498 1499 1512
3900 4 1497 1498 1499 1513
3901 4 1497 1498 1500 1514
3902 4 1497 1498 1500 1515
3903 4 1497 1498 1500 1516
3904 4 1497 1498 1501 1517
3905 4 1497 1498 1501 1518
3906 4 1497 1498 1501 1519
3907 4 1499 1498 1497 1509
3908 4 1499 1498 1497 1510
3909 4 1499 1498 1500 1514
3910 4 1499 1498 1500 1515
3911 4 1499 1498 1500 1516
3912 4 1499 1498 1501 1517
3913 4 1499 1498 1501 1518
3914 4 1499 1498 1501 1519
3915 4 1500 1498 1497 1509
3916 4 1500 1498 1497 1510
3917 4 1500 1498 1499 1511
3918 4 1500 1498 1499 1512
3919 4 1500 1498 1499 1513
3920 4 1500 1498 1501 1517
3921 4 1500 1498 1501 1518
3922 4 1500 1498 1501 1519
3923 4 1501 1498 1497 1509
3924 4 1501 1498 1497 1510
3925 4 1501 1498 1499 1511
3926 4 1501 1498 1499 1512
3927 4 1501 1498 1499 1513
3928 4 1501 1498 1500 1514
3929 4 1501 1498 1500 1515
3930 4 1501 1498 1500 1516
3931 6 1496 1497 1498 1499
3932 7 1496 1497 1498 1499
3933 6 1496 1497 1498 1500
3934 7 1496 1497 1498 1500
3935 6 1496 1497 1498 1501
3936 7 1496 1497 1498 1501
3937 5 1498 1497 1496 1502
3938 5 1495 1496 1497 1498
3939 3 1495 1496 1502 1503
3940 3 1497 1496 1502 1503
3941 5 1495 1496 1497 1509
3942 5 1495 1496 1497 1510
3943 3 1495 1496 1502 1520
3944 3 1497 1496 1495 1508
3945 3 1497 1496 1502 1520
3946 3 1502 1496 1495 1508
3947 5 1502 1496 1497 1509
3948 5 1502 1496 1497 1510
3949 3 1494 1495 1496 1497
3950 3 1494 1495 1496 1502
3951 3 1496 1495 1494 1507
3952 3 1493 1494 1495 1496
3953 3 1495 1494 1493 1503
3954 3 1493 1494 1495 1508
3955 3 1507 1494 1495 1508
3956 3 1496 1502 1503 1521
3957 3 1520 1502 1503 1521
3958 3 1052 1053 1054 1055
3959 3 1052 1053 1054 1060
3960 3 1054 1053 1052 1065
3961 3 1051 1052 1053 1054
3962 3 1053 1052 1051 1061
3963 3 1051 1052 1053 1066
3964 3 1065 1052 1053 1066
3965 3 1493 1503 1502 1496
3966 3 1493 1503 1502 1520
3967 5 1053 1054 1055 1056
3968 3 1053 1054 1060 1061
3969 3 1055 1054 1060 1061
3970 5 1053 1054 1055 1067
3971 5 1053 1054 1055 1068
3972 3 1053 1054 1060 1078
3973 3 1055 1054 1053 1066
3974 3 1055 1054 1060 1078
3975 3 1060 1054 1053 1066
3976 5 1060 1054 1055 1067
3977 5 1060 1054 1055 1068
3978 4 737 738 739 751
3979 4 737 738 739 752
3980 4 737 738 739 753
3981 4 737 738 740 754
3982 4 737 738 740 755
3983 4 737 738 740 756
3984 4 737 738 741 757
3985 4 737 738 741 758
3986 4 737 738 741 759
3987 4 739 738 737 749
3988 4 739 738 737 750
3989 4 739 738 740 754
3990 4 739 738 740 755
3991 4 739 738 740 756
3992 4 739 738 741 757
3993 4 739 738 741 758
3994 4 739 738 741 759
3995 4 740 738 737 749
3996 4 740 738 737 750
3997 4 740 738 739 751
3998 4 740 738 739 752
3999 4 740 738 739 753
4000 4 740 738 741 757
4001 4 740 738 741 758
4002 4 740 738 741 759
4003 4 741 738 737 749
4004 4 741 738 737 750
4005 4 741 738 739 751
4006 4 741 738 739 752
4007 4 741 738 739 753
4008 4 741 738 740 754
4009 4 741 738 740 755
4010 4 741 738 740 756
4011 5 735 736 737 738
4012 3 735 736 742 743
4013 3 737 736 742 743
4014 5 735 736 737 749
4015 5 735 736 737 750
4016 3 735 736 742 760
4017 3 737 736 735 748
4018 3 737 736 742 760
4019 3 742 736 735 748
4020 5 742 736 737 749
4021 5 742 736 737 750
4022 3 734 735 736 737
4023 3 734 735 736 742
4024 3 736 735 734 747
4025 6 736 737 738 739
4026 7 736 737 738 739
4027 6 736 737 738 740
4028 7 736 737 738 740
4029 6 736 737 738 741
4030 7 736 737 738 741
4031 5 738 737 736 742
4032 3 1051 1061 1060 1054
4033 3 1051 1061 1060 1078
4034 3 1050 1051 1052 1053
4035 3 1050 1051 1061 1060
4036 1 1052 1051 1050 1080
4037 3 1052 1051 1061 1060
4038 1 1061 1051 1050 1080
4039 3 1050 1051 1052 1065
4040 3 1050 1051 1061 1079
4041 9 1052 1051 1050 1064
4042 5 1052 1051 1050 1064
4043 3 1052 1051 1061 1079
4044 9 1061 1051 1050 1064
4045 5 1061 1051 1050 1064
4046 3 1061 1051 1052 1065
4047 3 702 712 711 705
4048 3 702 712 711 729
4049 4 650 637 638 639
4050 2 650 637 638 669
4051 8 638 637 650 949
4052 8 638 637 650 950
4053 8 638 637 650 951
4054 4 651 637 638 639
4055 4 652 637 638 639
4056 8 650 637 638 653
4057 10 651 637 638 653
4058 8 651 637 638 669
4059 10 651 637 650 949
4060 10 651 637 650 950
4061 10 651 637 650 951
4062 10 652 637 638 653
4063 8 652 637 638 669
4064 10 652 637 650 949
4065 10 652 637 650 950
4066 10 652 637 650 951
4067 1 669 670 671 672
4068 1 669 670 671 681
4069 2 669 670 700 701
4070 4 671 670 700 701
4071 8 669 670 700 713
4072 8 669 670 700 714
4073 4 671 670 669 682
4074 4 671 670 669 683
4075 4 671 670 700 713
4076 4 671 670 700 714
4077 8 684 670 700 701
4078 10 684 670 700 713
4079 10 684 670 700 714
4080 3 705 711 712 730
4081 3 729 711 712 730
4082 4 638 669 670 671
4083 2 638 669 670 700
4084 8 638 669 670 684
4085 10 682 669 670 684
4086 8 682 669 670 700
4087 10 683 669 670 684
4088 8 683 669 670 700
4089 1 637 638 639 640
4090 1 637 638 639 649
4091 2 637 638 669 670
4092 4 639 638 669 670
4093 8 637 638 669 682
4094 8 637 638 669 683
4095 4 639 638 669 682
4096 4 639 638 669 683
4097 8 653 638 669 670
4098 10 653 638 669 682
4099 10 653 638 669 683
4100 5 1464 1465 1466 1467
4101 3 1464 1465 1471 1472
4102 3 1466 1465 1471 1472
4103 5 1464 1465 1466 1478
4104 5 1464 1465 1466 1479
4105 3 1464 1465 1471 1489
4106 3 1466 1465 1464 1477
4107 3 1466 1465 1471 1489
4108 3 1471 1465 1464 1477
4109 5 1471 1465 1466 1478
4110 5 1471 1465 1466 1479
4111 3 1463 1464 1465 1466
4112 3 1463 1464 1465 1471
4113 3 1465 1464 1463 1476
4114 3 1431 1441 1440 1434
4115 3 1431 1441 1440 1458
4116 3 1430 1431 1432 1433
4117 3 1430 1431 1441 1440
4118 1 1432 1431 1430 1460
4119 3 1432 1431 1441 1440
4120 1 1441 1431 1430 1460
4121 3 1430 1431 1432 1445
4122 3 1430 1431 1441 1459
4123 9 1432 1431 1430 1444
4124 5 1432 1431 1430 1444
4125 3 1432 1431 1441 1459
4126 9 1441 1431 1430 1444
4127 5 1441 1431 1430 1444
4128 3 1441 1431 1432 1445
4129 3 1462 1463 1464 1465
4130 3 1464 1463 1462 1472
4131 3 1462 1463 1464 1477
4132 3 1476 1463 1464 1477
4133 3 1465 1471 1472 1490
4134 3 1489 1471 1472 1490
4135 1 1429 1430 1431 1432
4136 1 1429 1430 1431 1441
4137 2 1429 1430 1460 1461
4138 4 1431 1430 1460 1461
4139 8 1429 1430 1460 1473
4140 8 1429 1430 1460 1474
4141 4 1431 1430 1429 1442
4142 4 1431 1430 1429 1443
4143 4 1431 1430 1460 1473
4144 4 1431 1430 1460 1474
4145 8 1444 1430 1460 1461
4146 10 1444 1430 1460 1473
4147 10 1444 1430 1460 1474
4148 3 1434 1440 1441 1459
4149 3 1458 1440 1441 1459
4150 6 100 101 102 103
4151 7 100 101 102 103
4152 6 100 101 102 104
4153 7 100 101 102 104
4154 6 100 101 102 105
4155 7 100 101 102 105
4156 5 102 101 100 106
4157 3 1462 1472 1471 1465
4158 3 1462 1472 1471 1489
4159 3 1461 1462 1463 1464
4160 3 1461 1462 1472 1471
4161 1 1463 1462 1461 1491
4162 3 1463 1462 1472 1471
4163 1 1472 1462 1461 1491
4164 3 1461 1462 1463 1476
4165 3 1461 1462 1472 1490
4166 9 1463 1462 1461 1475
4167 5 1463 1462 1461 1475
4168 3 1463 1462 1472 1490
4169 9 1472 1462 1461 1475
4170 5 1472 1462 1461 1475
4171 3 1472 1462 1463 1476
4172 4 1430 1460 1461 1462
4173 2 1430 1460 1461 1491
4174 8 1430 1460 1461 1475
4175 10 1473 1460 1461 1475
4176 8 1473 1460 1461 1491
4177 10 1474 1460 1461 1475
4178 8 1474 1460 1461 1491
4179 1 1460 1461 1462 1463
4180 1 1460 1461 1462 1472
4181 2 1460 1461 1491 1492
4182 4 1462 1461 1491 1492
4183 8 1460 1461 1491 1504
4184 8 1460 1461 1491 1505
4185 4 1462 1461 1460 1473
4186 4 1462 1461 1460 1474
4187 4 1462 1461 1491 1504
4188 4 1462 1461 1491 1505
4189 8 1475 1461 1491 1492
4190 10 1475 1461 1491 1504
4191 10 1475 1461 1491 1505
4192 3 1492 1493 1494 1495
4193 3 1492 1493 1503 1502
4194 1 1494 1493 1492 1522
4195 3 1494 1493 1503 1502
4196 1 1503 1493 1492 1522
4197 3 1492 1493 1494 1507
4198 3 1492 1493 1503 1521
4199 9 1494 1493 1492 1506
4200 5 1494 1493 1492 1506
4201 3 1494 1493 1503 1521
4202 9 1503 1493 1492 1506
4203 5 1503 1493 1492 1506
4204 3 1503 1493 1494 1507
4205 3 798 804 805 823
4206 3 822 804 805 823
4207 6 798 799 800 801
4208 7 798 799 800 801
4209 6 798 799 800 802
4210 7 798 799 800 802
4211 6 798 799 800 803
4212 7 798 799 800 803
4213 5 800 799 798 804
4214 5 797 798 799 800
4215 3 797 798 804 805
4216 3 799 798 804 805
4217 5 797 798 799 811
4218 5 797 798 799 812
4219 3 797 798 804 822
4220 3 799 798 797 810
4221 3 799 798 804 822
4222 3 804 798 797 810
4223 5 804 798 799 811
4224 5 804 798 799 812
4225 4 799 800 801 813
4226 4 799 800 801 814
4227 4 799 800 801 815
4228 4 799 800 802 816
4229 4 799 800 802 817
4230 4 799 800 802 818
4231 4 799 800 803 819
4232 4 799 800 803 820
4233 4 799 800 803 821
4234 4 801 800 799 811
4235 4 801 800 799 812
4236 4 801 800 802 816
4237 4 801 800 802 817
4238 4 801 800 802 818
4239 4 801 800 803 819
4240 4 801 800 803 820
4241 4 801 800 803 821
4242 4 802 800 799 811
4243 4 802 800 799 812
4244 4 802 800 801 813
4245 4 802 800 801 814
4246 4 802 800 801 815
4247 4 802 800 803 819
4248 4 802 800 803 820
4249 4 802 800 803 821
4250 4 803 800 799 811
4251 4 803 800 799 812
4252 4 803 800 801 813
4253 4 803 800 801 814
4254 4 803 800 801 815
4255 4 803 800 802 816
4256 4 803 800 802 817
4257 4 803 800 802 818
4258 3 736 742 743 761
4259 3 760 742 743 761
4260 3 733 743 742 736
4261 3 733 743 742 760
4262 3 764 774 773 767
4263 3 764 774 773 791
4264 4 670 700 701 702
4265 2 670 700 701 731
4266 8 670 700 701 715
4267 10 713 700 701 715
4268 8 713 700 701 731
4269 10 714 700 701 715
4270 8 714 700 701 731
4271 3 733 734 735 736
4272 3 735 734 733 743
4273 3 733 734 735 748
4274 3 747 734 735 748
4275 3 701 702 703 704
4276 3 701 702 712 711
4277 1 703 702 701 731
4278 3 703 702 712 711
4279 1 712 702 701 731
4280 3 701 702 703 716
4281 3 701 702 712 730
4282 9 703 702 701 715
4283 5 703 702 701 715
4284 3 703 702 712 730
4285 9 712 702 701 715
4286 5 712 702 701 715
4287 3 712 702 703 716
4288 4 732 762 763 764
4289 2 732 762 763 793
4290 8 732 762 763 777
4291 10 775 762 763 777
4292 8 775 762 763 793
4293 10 776 762 763 777
4294 8 776 762 763 793
4295 1 762 763 764 765
4296 1 762 763 764 774
4297 2 762 763 793 794
4298 4 764 763 793 794
4299 8 762 763 793 806
4300 8 762 763 793 807
4301 4 764 763 762 775
4302 4 764 763 762 776
4303 4 764 763 793 806
4304 4 764 763 793 807
4305 8 777 763 793 794
4306 10 777 763 793 806
4307 10 777 763 793 807
4308 4 701 731 732 733
4309 2 701 731 732 762
4310 8 701 731 732 746
4311 10 744 731 732 746
4312 8 744 731 732 762
4313 10 745 731 732 746
4314 8 745 731 732 762
4315 1 731 732 733 734
4316 1 731 732 733 743
4317 2 731 732 762 763
4318 4 733 732 762 763
4319 8 731 732 762 775
4320 8 731 732 762 776
4321 4 733 732 731 744
4322 4 733 732 731 745
4323 4 733 732 762 775
4324 4 733 732 762 776
4325 8 746 732 762 763
4326 10 746 732 762 775
4327 10 746 732 762 776
4328 3 732 733 734 735
4329 3 732 733 743 742
4330 1 734 733 732 762
4331 3 734 733 743 742
4332 1 743 733 732 762
4333 3 732 733 734 747
4334 3 732 733 743 761
4335 9 734 733 732 746
4336 5 734 733 732 746
4337 3 734 733 743 761
4338 9 743 733 732 746
4339 5 743 733 732 746
4340 3 743 733 734 747
4341 3 763 764 765 766
4342 3 763 764 774 773
4343 1 765 764 763 793
4344 3 765 764 774 773
4345 1 774 764 763 793
4346 3 763 764 765 778
4347 3 763 764 774 792
4348 9 765 764 763 777
4349 5 765 764 763 777
4350 3 765 764 774 792
4351 9 774 764 763 777
4352 5 774 764 763 777
4353 3 774 764 765 778
4354 3 764 765 766 767
4355 3 766 765 764 774
4356 3 764 765 766 779
4357 3 778 765 766 779
4358 1 700 701 702 703
4359 1 700 701 702 712
4360 2 700 701 731 732
4361 4 702 701 731 732
4362 8 700 701 731 744
4363 8 700 701 731 745
4364 4 702 701 700 713
4365 4 702 701 700 714
4366 4 702 701 731 744
4367 4 702 701 731 745
4368 8 715 701 731 732
4369 10 715 701 731 744
4370 10 715 701 731 745
4371 3 702 703 704 705
4372 3 704 703 702 712
4373 3 702 703 704 717
4374 3 716 703 704 717
4375 3 670 671 672 673
4376 3 670 671 681 680
4377 1 672 671 670 700
4378 3 672 671 681 680
4379 1 681 671 670 700
4380 3 670 671 672 685
4381 3 670 671 681 699
4382 9 672 671 670 684
4383 5 672 671 670 684
4384 3 672 671 681 699
4385 9 681 671 670 684
4386 5 681 671 670 684
4387 3 681 671 672 685
4388 3 674 680 681 699
4389 3 698 680 681 699
4390 3 671 681 680 674
4391 3 671 681 680 698
4392 3 1403 1409 1410 1428
4393 3 1427 1409 1410 1428
4394 3 1400 1410 1409 1403
4395 3 1400 1410 1409 1427
4396 5 1402 1403 1404 1405
4397 3 1402 1403 1409 1410
4398 3 1404 1403 1409 1410
4399 5 1402 1403 1404 1416
4400 5 1402 1403 1404 1417
4401 3 1402 1403 1409 1427
4402 3 1404 1403 1402 1415
4403 3 1404 1403 1409 1427
4404 3 1409 1403 1402 1415
4405 5 1409 1403 1404 1416
4406 5 1409 1403 1404 1417
4407 4 1399 1429 1430 1431
4408 2 1399 1429 1430 1460
4409 8 1399 1429 1430 1444
4410 10 1442 1429 1430 1444
4411 8 1442 1429 1430 1460
4412 10 1443 1429 1430 1444
4413 8 1443 1429 1430 1460
4414 3 1399 1400 1401 1402
4415 3 1399 1400 1410 1409
4416 1 1401 1400 1399 1429
4417 3 1401 1400 1410 1409
4418 1 1410 1400 1399 1429
4419 3 1399 1400 1401 1414
4420 3 1399 1400 1410 1428
4421 9 1401 1400 1399 1413
4422 5 1401 1400 1399 1413
4423 3 1401 1400 1410 1428
4424 9 1410 1400 1399 1413
4425 5 1410 1400 1399 1413
4426 3 1410 1400 1401 1414
4427 3 1401 1402 1403 1404
4428 3 1401 1402 1403 1409
4429 3 1403 1402 1401 1414
4430 3 1400 1401 1402 1403
4431 3 1402 1401 1400 1410
4432 3 1400 1401 1402 1415
4433 3 1414 1401 1402 1415
4434 1 1398 1399 1400 1401
4435 1 1398 1399 1400 1410
4436 2 1398 1399 1429 1430
4437 4 1400 1399 1429 1430
4438 8 1398 1399 1429 1442
4439 8 1398 1399 1429 1443
4440 4 1400 1399 1398 1411
4441 4 1400 1399 1398 1412
4442 4 1400 1399 1429 1442
4443 4 1400 1399 1429 1443
4444 8 1413 1399 1429 1430
4445 10 1413 1399 1429 1442
4446 10 1413 1399 1429 1443
4447 3 795 805 804 798
4448 3 795 805 804 822
4449 3 767 773 774 792
4450 3 791 773 774 792
4451 5 766 767 768 769
4452 3 766 767 773 774
4453 3 768 767 773 774
4454 5 766 767 768 780
4455 5 766 767 768 781
4456 3 766 767 773 791
4457 3 768 767 766 779
4458 3 768 767 773 791
4459 3 773 767 766 779
4460 5 773 767 768 780
4461 5 773 767 768 781
4462 3 765 766 767 768
4463 3 765 766 767 773
4464 3 767 766 765 778
4465 6 1403 1404 1405 1406
4466 7 1403 1404 1405 1406
4467 6 1403 1404 1405 1407
4468 7 1403 1404 1405 1407
4469 6 1403 1404 1405 1408
4470 7 1403 1404 1405 1408
4471 5 1405 1404 1403 1409
4472 3 1338 1348 1347 1341
4473 3 1338 1348 1347 1365
4474 3 1369 1379 1378 1372
4475 3 1369 1379 1378 1396
4476 3 1369 1370 1371 1372
4477 3 1371 1370 1369 1379
4478 3 1369 1370 1371 1384
4479 3 1383 1370 1371 1384
4480 6 860 861 862 863
4481 7 860 861 862 863
4482 6 860 861 862 864
4483 7 860 861 862 864
4484 6 860 861 862 865
4485 7 860 861 862 865
4486 5 862 861 860 866
4487 3 1339 1340 1341 1342
4488 3 1339 1340 1341 1347
4489 3 1341 1340 1339 1352
4490 3 1205 1206 1207 1208
4491 3 1205 1206 1216 1215
4492 1 1207 1206 1205 1235
4493 3 1207 1206 1216 1215
4494 1 1216 1206 1205 1235
4495 3 1205 1206 1207 1220
4496 3 1205 1206 1216 1234
4497 9 1207 1206 1205 1219
4498 5 1207 1206 1205 1219
4499 3 1207 1206 1216 1234
4500 9 1216 1206 1205 1219
4501 5 1216 1206 1205 1219
4502 3 1216 1206 1207 1220
4503 3 1206 1216 1215 1209
4504 3 1206 1216 1215 1233
4505 3 1206 1207 1208 1209
4506 3 1208 1207 1206 1216
4507 3 1206 1207 1208 1221
4508 3 1220 1207 1208 1221
4509 1 1111 1112 1113 1114
4510 1 1111 1112 1113 1123
4511 2 1111 1112 1142 1143
4512 4 1113 1112 1142 1143
4513 8 1111 1112 1142 1155
4514 8 1111 1112 1142 1156
4515 4 1113 1112 1111 1124
4516 4 1113 1112 1111 1125
4517 4 1113 1112 1142 1155
4518 4 1113 1112 1142 1156
4519 8 1126 1112 1142 1143
4520 10 1126 1112 1142 1155
4521 10 1126 1112 1142 1156
4522 3 1113 1123 1122 1116
4523 3 1113 1123 1122 1140
4524 3 1112 1113 1114 1115
4525 3 1112 1113 1123 1122
4526 1 1114 1113 1112 1142
4527 3 1114 1113 1123 1122
4528 1 1123 1113 1112 1142
4529 3 1112 1113 1114 1127
4530 3 1112 1113 1123 1141
4531 9 1114 1113 1112 1126
4532 5 1114 1113 1112 1126
4533 3 1114 1113 1123 1141
4534 9 1123 1113 1112 1126
4535 5 1123 1113 1112 1126
4536 3 1123 1113 1114 1127
4537 4 923 924 925 938
4538 4 923 924 925 939
4539 4 923 924 925 940
4540 4 923 924 926 941
4541 4 923 924 926 942
4542 4 923 924 926 943
4543 4 923 924 927 944
4544 4 923 924 927 945
4545 4 923 924 927 946
4546 4 925 924 923 936
4547 4 925 924 923 937
4548 4 925 924 926 941
4549 4 925 924 926 942
4550 4 925 924 926 943
4551 4 925 924 927 944
4552 4 925 924 927 945
4553 4 925 924 927 946
4554 4 926 924 923 936
4555 4 926 924 923 937
4556 4 926 924 925 938
4557 4 926 924 925 939
4558 4 926 924 925 940
4559 4 926 924 927 944
4560 4 926 924 927 945
4561 4 926 924 927 946
4562 4 927 924 923 936
4563 4 927 924 923 937
4564 4 927 924 925 938
4565 4 927 924 925 939
4566 4 927 924 925 940
4567 4 927 924 926 941
4568 4 927 924 926 942
4569 4 927 924 926 943
4570 4 1279 1280 1281 1294
4571 4 1279 1280 1281 1295
4572 4 1279 1280 1281 1296
4573 4 1279 1280 1282 1297
4574 4 1279 1280 1282 1298
4575 4 1279 1280 1282 1299
4576 4 1279 1280 1283 1300
4577 4 1279 1280 1283 1301
4578 4 1279 1280 1283 1302
4579 4 1281 1280 1279 1292
4580 4 1281 1280 1279 1293
4581 4 1281 1280 1282 1297
4582 4 1281 1280 1282 1298
4583 4 1281 1280 1282 1299
4584 4 1281 1280 1283 1300
4585 4 1281 1280 1283 1301
4586 4 1281 1280 1283 1302
4587 4 1282 1280 1279 1292
4588 4 1282 1280 1279 1293
4589 4 1282 1280 1281 1294
4590 4 1282 1280 1281 1295
4591 4 1282 1280 1281 1296
4592 4 1282 1280 1283 1300
4593 4 1282 1280 1283 1301
4594 4 1282 1280 1283 1302
4595 4 1283 1280 1279 1292
4596 4 1283 1280 1279 1293
4597 4 1283 1280 1281 1294
4598 4 1283 1280 1281 1295
4599 4 1283 1280 1281 1296
4600 4 1283 1280 1282 1297
4601 4 1283 1280 1282 1298
4602 4 1283 1280 1282 1299
4603 6 1278 1279 1280 1281
4604 7 1278 1279 1280 1281
4605 6 1278 1279 1280 1282
4606 7 1278 1279 1280 1282
4607 6 1278 1279 1280 1283
4608 7 1278 1279 1280 1283
4609 5 1280 1279 1278 1284
4610 4 1081 1111 1112 1113
4611 2 1081 1111 1112 1142
4612 8 1081 1111 1112 1126
4613 10 1124 1111 1112 1126
4614 8 1124 1111 1112 1142
4615 10 1125 1111 1112 1126
4616 8 1125 1111 1112 1142
4617 4 1050 1080 1081 1082
4618 2 1050 1080 1081 1111
4619 8 1050 1080 1081 1095
4620 10 1093 1080 1081 1095
4621 8 1093 1080 1081 1111
4622 10 1094 1080 1081 1095
4623 8 1094 1080 1081 1111
4624 4 1112 1142 1143 1144
4625 2 1112 1142 1143 1173
4626 8 1112 1142 1143 1157
4627 10 1155 1142 1143 1157
4628 8 1155 1142 1143 1173
4629 10 1156 1142 1143 1157
4630 8 1156 1142 1143 1173
4631 1 1049 1050 1051 1052
4632 1 1049 1050 1051 1061
4633 2 1049 1050 1080 1081
4634 4 1051 1050 1080 1081
4635 8 1049 1050 1080 1093
4636 8 1049 1050 1080 1094
4637 4 1051 1050 1049 1062
4638 4 1051 1050 1049 1063
4639 4 1051 1050 1080 1093
4640 4 1051 1050 1080 1094
4641 8 1064 1050 1080 1081
4642 10 1064 1050 1080 1093
4643 10 1064 1050 1080 1094
4644 4 1019 1049 1050 1051
4645 2 1019 1049 1050 1080
4646 8 1019 1049 1050 1064
4647 10 1062 1049 1050 1064
4648 8 1062 1049 1050 1080
4649 10 1063 1049 1050 1064
4650 8 1063 1049 1050 1080
4651 3 639 649 648 642
4652 3 639 649 648 667
4653 5 704 705 706 707
4654 3 704 705 711 712
4655 3 706 705 711 712
4656 5 704 705 706 718
4657 5 704 705 706 719
4658 3 704 705 711 729
4659 3 706 705 704 717
4660 3 706 705 711 729
4661 3 711 705 704 717
4662 5 711 705 706 718
4663 5 711 705 706 719
4664 3 639 640 641 642
4665 3 641 640 639 649
4666 3 639 640 641 655
4667 3 654 640 641 655
4668 3 638 639 640 641
4669 3 638 639 649 648
4670 1 640 639 638 669
4671 3 640 639 649 648
4672 1 649 639 638 669
4673 3 638 639 640 654
4674 3 638 639 649 668
4675 9 640 639 638 653
4676 3 640 639 649 668
4677 9 649 639 638 653
4678 5 649 639 638 653
4679 3 649 639 640 654
4680 3 1432 1433 1434 1435
4681 3 1432 1433 1434 1440
4682 3 1434 1433 1432 1445
4683 5 1433 1434 1435 1436
4684 3 1433 1434 1440 1441
4685 3 1435 1434 1440 1441
4686 5 1433 1434 1435 1447
4687 5 1433 1434 1435 1448
4688 3 1433 1434 1440 1458
4689 3 1435 1434 1433 1446
4690 3 1435 1434 1440 1458
4691 3 1440 1434 1433 1446
4692 5 1440 1434 1435 1447
4693 5 1440 1434 1435 1448
4694 3 1431 1432 1433 1434
4695 3 1433 1432 1431 1441
4696 3 1431 1432 1433 1446
4697 3 1445 1432 1433 1446
4698 3 1524 1525 1526 1527
4699 3 1526 1525 1524 1534
4700 3 1524 1525 1526 1539
4701 3 1538 1525 1526 1539
4702 3 1524 1534 1533 1527
4703 3 1524 1534 1533 1551
4704 1 1491 1492 1493 1494
4705 1 1491 1492 1493 1503
4706 2 1491 1492 1522 1523
4707 4 1493 1492 1522 1523
4708 8 1491 1492 1522 1535
4709 8 1491 1492 1522 1536
4710 4 1493 1492 1491 1504
4711 4 1493 1492 1491 1505
4712 4 1493 1492 1522 1535
4713 4 1493 1492 1522 1536
4714 8 1506 1492 1522 1523
4715 10 1506 1492 1522 1535
4716 10 1506 1492 1522 1536
4717 4 1461 1491 1492 1493
4718 2 1461 1491 1492 1522
4719 8 1461 1491 1492 1506
4720 10 1504 1491 1492 1506
4721 8 1504 1491 1492 1522
4722 10 1505 1491 1492 1506
4723 8 1505 1491 1492 1522
4724 3 1527 1533 1534 1552
4725 3 1551 1533 1534 1552
4726 3 671 672 673 674
4727 3 673 672 671 681
4728 3 671 672 673 686
4729 3 685 672 673 686
4730 3 703 704 705 706
4731 3 703 704 705 711
4732 3 705 704 703 716
4733 5 673 674 675 676
4734 3 673 674 680 681
4735 3 675 674 680 681
4736 5 673 674 675 687
4737 5 673 674 675 688
4738 3 673 674 680 698
4739 3 675 674 673 686
4740 3 675 674 680 698
4741 3 680 674 673 686
4742 5 680 674 675 687
4743 5 680 674 675 688
4744 5 1526 1527 1528 1529
4745 3 1526 1527 1533 1534
4746 3 1528 1527 1533 1534
4747 5 1526 1527 1528 1540
4748 5 1526 1527 1528 1541
4749 3 1526 1527 1533 1551
4750 3 1528 1527 1526 1539
4751 3 1528 1527 1533 1551
4752 3 1533 1527 1526 1539
4753 5 1533 1527 1528 1540
4754 5 1533 1527 1528 1541
4755 3 1525 1526 1527 1528
4756 3 1525 1526 1527 1533
4757 3 1527 1526 1525 1538
4758 4 675 676 677 689
4759 4 675 676 677 690
4760 4 675 676 677 691
4761 4 675 676 678 692
4762 4 675 676 678 693
4763 4 675 676 678 694
4764 4 675 676 679 695
4765 4 675 676 679 696
4766 4 675 676 679 697
4767 4 677 676 675 687
4768 4 677 676 675 688
4769 4 677 676 678 692
4770 4 677 676 678 693
4771 4 677 676 678 694
4772 4 677 676 679 695
4773 4 677 676 679 696
4774 4 677 676 679 697
4775 4 678 676 675 687
4776 4 678 676 675 688
4777 4 678 676 677 689
4778 4 678 676 677 690
4779 4 678 676 677 691
4780 4 678 676 679 695
4781 4 678 676 679 696
4782 4 678 676 679 697
4783 4 679 676 675 687
4784 4 679 676 675 688
4785 4 679 676 677 689
4786 4 679 676 677 690
4787 4 679 676 677 691
4788 4 679 676 678 692
4789 4 679 676 678 693
4790 4 679 676 678 694

Impropers

1 1 1373 1371 1372 1378
2 1 1369 1371 1370 1383
3 1 1370 1372 1371 1384
4 1 1338 1347 1348 1366
5 1 1369 1378 1379 1397
6 1 1556 1558 1557 1571
7 1 1555 1564 1565 1584
8 1 1559 1557 1558 1564
9 1 1555 1557 1556 1570
10 1 477 486 487 505
11 1 480 487 486 504
12 1 446 455 456 474
13 1 449 456 455 473
14 1 447 449 448 461
15 1 1339 1341 1340 1353
16 1 1240 1247 1246 1265
17 1 1236 1238 1237 1247
18 1 1178 1185 1184 1202
19 1 1237 1246 1247 1266
20 1 1238 1240 1239 1253
21 1 1085 1092 1091 1109
22 1 1083 1085 1084 1097
23 1 1082 1091 1092 1110
24 1 1241 1239 1240 1246
25 1 1237 1239 1238 1252
26 1 419 417 418 424
27 1 415 417 416 429
28 1 415 424 425 443
29 1 416 418 417 430
30 1 418 425 424 442
31 1 1174 1176 1175 1185
32 1 1179 1177 1178 1184
33 1 1175 1177 1176 1189
34 1 1143 1145 1144 1154
35 1 1148 1146 1147 1153
36 1 1144 1146 1145 1158
37 1 1176 1178 1177 1190
38 1 1175 1184 1185 1203
39 1 1086 1084 1085 1091
40 1 1082 1084 1083 1096
41 1 1081 1083 1082 1092
42 1 1147 1154 1153 1171
43 1 1145 1147 1146 1159
44 1 1144 1153 1154 1172
45 1 990 992 991 1004
46 1 1021 1023 1022 1035
47 1 1020 1029 1030 1048
48 1 1023 1030 1029 1047
49 1 1019 1021 1020 1030
50 1 1024 1022 1023 1029
51 1 1020 1022 1021 1034
52 1 988 990 989 999
53 1 993 991 992 998
54 1 989 991 990 1003
55 1 639 648 649 668
56 1 640 642 641 655
57 1 643 641 642 648
58 1 639 641 640 654
59 1 989 998 999 1017
60 1 992 999 998 1016
61 1 570 579 580 598
62 1 573 580 579 597
63 1 958 967 957 956
64 1 960 967 966 985
65 1 957 966 967 986
66 1 961 959 960 966
67 1 957 959 958 972
68 1 958 960 959 973
69 1 675 673 674 680
70 1 671 673 672 685
71 1 1554 1556 1555 1565
72 1 1558 1565 1564 1583
73 1 543 541 542 548
74 1 539 541 540 553
75 1 571 573 572 585
76 1 478 480 479 492
77 1 481 479 480 486
78 1 477 479 478 491
79 1 507 509 508 518
80 1 476 478 477 487
81 1 512 510 511 517
82 1 508 510 509 522
83 1 511 518 517 535
84 1 445 447 446 456
85 1 450 448 449 455
86 1 446 448 447 460
87 1 354 356 355 368
88 1 353 362 363 381
89 1 356 363 362 380
90 1 357 355 356 362
91 1 353 355 354 367
92 1 414 416 415 425
93 1 387 394 393 411
94 1 383 385 384 394
95 1 352 354 353 363
96 1 388 386 387 393
97 1 384 386 385 398
98 1 384 393 394 412
99 1 385 387 386 399
100 1 322 324 323 337
101 1 600 602 601 611
102 1 605 603 604 610
103 1 601 603 602 616
104 1 602 604 603 617
105 1 253 255 254 267
106 1 601 610 611 630
107 1 540 542 541 554
108 1 539 548 549 567
109 1 163 161 162 168
110 1 159 161 160 173
111 1 542 549 548 566
112 1 160 162 161 174
113 1 190 199 200 218
114 1 158 160 159 169
115 1 159 168 169 187
116 1 193 200 199 217
117 1 191 193 192 205
118 1 256 254 255 261
119 1 252 254 253 266
120 1 604 611 610 629
121 1 569 571 570 580
122 1 574 572 573 579
123 1 570 572 571 584
124 1 251 253 252 262
125 1 287 285 286 292
126 1 283 285 284 298
127 1 282 284 283 293
128 1 538 540 539 549
129 1 283 292 293 312
130 1 284 286 285 299
131 1 286 293 292 311
132 1 509 511 510 523
133 1 508 517 518 536
134 1 221 230 231 249
135 1 222 224 223 236
136 1 825 827 826 836
137 1 225 223 224 230
138 1 221 223 222 235
139 1 830 828 829 835
140 1 826 828 827 840
141 1 224 231 230 248
142 1 827 829 828 841
143 1 826 835 836 854
144 1 829 836 835 853
145 1 1307 1316 1317 1335
146 1 3 12 13 32
147 1 4 13 3 2
148 1 6 13 12 31
149 1 7 5 6 12
150 1 3 5 4 18
151 1 4 6 5 19
152 1 39 37 38 44
153 1 35 37 36 49
154 1 321 330 331 350
155 1 322 331 321 320
156 1 324 331 330 349
157 1 36 38 37 50
158 1 887 889 888 898
159 1 892 890 891 897
160 1 888 890 889 902
161 1 34 36 35 45
162 1 325 323 324 330
163 1 321 323 322 336
164 1 38 45 44 62
165 1 35 44 45 63
166 1 127 129 128 138
167 1 132 130 131 137
168 1 128 130 129 142
169 1 129 131 130 143
170 1 128 137 138 156
171 1 131 138 137 155
172 1 65 67 66 76
173 1 69 76 75 93
174 1 70 68 69 75
175 1 66 68 67 80
176 1 66 75 76 94
177 1 67 69 68 81
178 1 162 169 168 186
179 1 194 192 193 199
180 1 190 192 191 204
181 1 189 191 190 200
182 1 96 98 97 107
183 1 101 99 100 106
184 1 97 99 98 111
185 1 100 107 106 124
186 1 98 100 99 112
187 1 97 106 107 125
188 1 252 261 262 280
189 1 255 262 261 279
190 1 794 796 795 805
191 1 799 797 798 804
192 1 795 797 796 809
193 1 220 222 221 231
194 1 918 920 919 929
195 1 860 867 866 884
196 1 856 858 857 867
197 1 857 866 867 885
198 1 861 859 860 866
199 1 857 859 858 871
200 1 858 860 859 872
201 1 1311 1309 1310 1316
202 1 1307 1309 1308 1321
203 1 1308 1310 1309 1322
204 1 1306 1308 1307 1317
205 1 1337 1339 1338 1348
206 1 1310 1317 1316 1334
207 1 1207 1209 1208 1221
208 1 1210 1208 1209 1215
209 1 1206 1208 1207 1220
210 1 1206 1215 1216 1234
211 1 923 921 922 928
212 1 919 921 920 934
213 1 1117 1115 1116 1122
214 1 1113 1115 1114 1127
215 1 1114 1116 1115 1128
216 1 1112 1114 1113 1123
217 1 922 929 928 947
218 1 919 928 929 948
219 1 1113 1122 1123 1141
220 1 891 898 897 915
221 1 888 897 898 916
222 1 889 891 890 903
223 1 920 922 921 935
224 1 1051 1060 1061 1079
225 1 1276 1285 1275 1274
226 1 1278 1285 1284 1303
227 1 1275 1284 1285 1304
228 1 1276 1278 1277 1291
229 1 1279 1277 1278 1284
230 1 1275 1277 1276 1290
231 1 1494 1496 1495 1508
232 1 1497 1495 1496 1502
233 1 1493 1495 1494 1507
234 1 1492 1494 1493 1503
235 1 1493 1502 1503 1521
236 1 1055 1053 1054 1060
237 1 1051 1053 1052 1065
238 1 1050 1052 1051 1061
239 1 1496 1503 1502 1520
240 1 1052 1054 1053 1066
241 1 734 736 735 748
242 1 737 735 736 742
243 1 733 735 734 747
244 1 1054 1061 1060 1078
245 1 705 712 711 729
246 1 702 711 712 730
247 1 1463 1465 1464 1477
248 1 1466 1464 1465 1471
249 1 1462 1464 1463 1476
250 1 1434 1441 1440 1458
251 1 1461 1463 1462 1472
252 1 1462 1471 1472 1490
253 1 1431 1440 1441 1459
254 1 1465 1472 1471 1489
255 1 795 804 805 823
256 1 796 798 797 810
257 1 733 742 743 761
258 1 736 743 742 760
259 1 767 774 773 791
260 1 732 734 733 743
261 1 763 765 764 774
262 1 701 703 702 712
263 1 671 680 681 699
264 1 674 681 680 698
265 1 1400 1409 1410 1428
266 1 1403 1410 1409 1427
267 1 1401 1403 1402 1415
268 1 1404 1402 1403 1409
269 1 1400 1402 1401 1414
270 1 1399 1401 1400 1410
271 1 798 805 804 822
272 1 764 773 774 792
273 1 765 767 766 779
274 1 768 766 767 773
275 1 764 766 765 778
276 1 1341 1348 1347 1365
277 1 1372 1379 1378 1396
278 1 1368 1370 1369 1379
279 1 1342 1340 1341 1347
280 1 1338 1340 1339 1352
281 1 1209 1216 1215 1233
282 1 1205 1207 1206 1216
283 1 1116 1123 1122 1140
284 1 640 649 639 638
285 1 642 649 648 667
286 1 703 705 704 717
287 1 1435 1433 1434 1440
288 1 1431 1433 1432 1445
289 1 1432 1434 1433 1446
290 1 1430 1432 1431 1441
291 1 1523 1525 1524 1534
292 1 1527 1534 1533 1551
293 1 1524 1533 1534 1552
294 1 670 672 671 681
295 1 706 704 705 711
296 1 702 704 703 716
297 1 672 674 673 686
298 1 1525 1527 1526 1539
299 1 1528 1526 1527 1533
300 1 1524 1526 1525 1538
