LAMMPS (22 Jul 2025 - Update 1)
OMP_NUM_THREADS environment is not set. Defaulting to 1 thread.
  using 1 OpenMP thread(s) per MPI task
package gpu 1 neigh no
# Im-PEEK: 2 chains x 5 units
# generated by aemwater -- do not edit; edit the template instead

units           real
atom_style      full
boundary        p p p

pair_style      lj/cut/coul/long 10.0 10.0
# GAFF2 is a Lorentz-Berthelot force field. The LAMMPS default for lj/cut is
# GEOMETRIC mixing, which silently changes every cross interaction.
pair_modify     mix arithmetic tail yes
kspace_style    pppm 0.0001
bond_style      harmonic
angle_style     harmonic
dihedral_style  charmm
improper_style  cvff
# Amber 1-4 scaling: LJ/2 and Coulomb/1.2. Applied here, so every CHARMM
# dihedral weight in the data file is 0.
special_bonds   lj 0.0 0.0 0.5 coul 0.0 0.0 0.8333333333

read_data       min.data
Reading data file ...
  orthogonal box = (0 0 0) to (40.714705 40.714705 40.714705)
  1 by 2 by 2 MPI processor grid
  reading atoms ...
  516 atoms
  reading velocities ...
  516 velocities
  scanning bonds ...
  3 = max bonds/atom
  scanning angles ...
  6 = max angles/atom
  scanning dihedrals ...
  17 = max dihedrals/atom
  scanning impropers ...
  2 = max impropers/atom
  orthogonal box = (0 0 0) to (40.714705 40.714705 40.714705)
  1 by 2 by 2 MPI processor grid
  reading bonds ...
  544 bonds
  reading angles ...
  884 angles
  reading dihedrals ...
  1280 dihedrals
  reading impropers ...
  240 impropers
Finding 1-2 1-3 1-4 neighbors ...
  special bond factors lj:    0        0        0.5     
  special bond factors coul:  0        0        0.8333333333
     4 = max # of 1-2 neighbors
     7 = max # of 1-3 neighbors
    14 = max # of 1-4 neighbors
    16 = max # of special neighbors
  special bonds CPU = 0.000 seconds
  read_data CPU = 0.030 seconds
neighbor        2.0 bin
neigh_modify    delay 0 every 1 check yes
# The ghost-atom cutoff defaults to the pair cutoff + skin. Bonded partners must
# also be within it, and a stretched bond in a freshly packed cell can exceed it,
# which LAMMPS reports as a communication-cutoff warning before losing atoms.
comm_modify     cutoff 12.0

# Molecule IDs are assigned by the data writer in packing order: polymer chains
# first, then counterions, then any water added later. `<>` is LAMMPS's inclusive
# range operator.
group           polymer molecule <> 1 2
496 atoms in group polymer
group           ions molecule <> 3 12
20 atoms in group ions

thermo          500
thermo_style    custom step temp press vol density etotal ke pe ebond eangle edihed evdwl ecoul elong
thermo_modify   flush yes


timestep        1.0
velocity        all create 300.0 20260817 mom yes rot yes dist gaussian

# ============================================================================
# 21-step compression/decompression equilibration
# Larsen, Lin & Colina, Macromolecules 44 (2011) 6944; the equilibration stage
# of Polymatic (Abbott, Hart & Colina, Theor. Chem. Acc. 132 (2013) 1334).
#
# Seven cycles of (NVT hot / NVT cold / NPT cold), with the pressure ramped up
# to 50000 atm over cycles 1-3 and released
# back to 1.0 atm over cycles 4-7.
#
# The decompression half is the point. A single hot squeeze followed by one
# release plateaus ~18% below the experimental density for this chemistry and
# is still drifting upward when it stops; the leftover volume is void space,
# which the water-uptake loop then fills instead of swelling the cell. Being
# over-compressed and let out in stages, with a hot NVT relaxation between each
# stage, is what collapses those voids rather than freezing them in.
#
# Total: 1560 ps at a 1.0 fs timestep.
# ============================================================================
dump            traj all custom 1000 dry.lammpstrj id mol type q x y z
dump_modify     traj sort id
# -- step  1/21: NVT 600 K -- cycle 1: relax hot at the packing volume
fix             eq1 all nvt temp 600.0 600.0 100.0
run             50000

CITE-CITE-CITE-CITE-CITE-CITE-CITE-CITE-CITE-CITE-CITE-CITE-CITE

Your simulation uses code contributions which should be cited:

- GPU package (short-range, long-range and three-body potentials): doi:10.1016/j.cpc.2010.12.021, doi:10.1016/j.cpc.2011.10.012, doi:10.1016/j.cpc.2013.08.002, doi:10.1016/j.commatsci.2014.10.068, doi:10.1016/j.cpc.2016.10.020, doi:10.3233/APC200086

@Article{Brown11,
 author = {W. M. Brown and P. Wang and S. J. Plimpton and A. N. Tharrington},
 title = {Implementing Molecular Dynamics on Hybrid High Performance Computers---Short Range Forces},
 journal = {Comput.\ Phys.\ Commun.},
 year =    2011,
 volume =  182,
 pages =   {898--911},
 doi =     {10.1016/j.cpc.2010.12.021}
}

@Article{Brown12,
 author = {W. M. Brown and A. Kohlmeyer and S. J. Plimpton and A. N. Tharrington},
 title = {Implementing Molecular Dynamics on Hybrid High Performance Computers - Particle-Particle Particle-Mesh},
 journal = {Comput.\ Phys.\ Commun.},
 year =    2012,
 volume =  183,
 doi =     {10.1016/j.cpc.2011.10.012},
 pages =   {449--459}
}

@Article{Brown13,
 author = {W. M. Brown and Y. Masako},
 title = {Implementing Molecular Dynamics on Hybrid High Performance Computers---Three-Body Potentials},
 journal = {Comput.\ Phys.\ Commun.},
 year =    2013,
 volume =  184,
 pages =   {2785--2793},
 doi =     {10.1016/j.cpc.2013.08.002},
}

@Article{Trung15,
 author = {T. D. Nguyen and S. J. Plimpton},
 title = {Accelerating Dissipative Particle Dynamics Simulations for Soft Matter Systems},
 journal = {Comput.\ Mater.\ Sci.},
 year =    2015,
 doi =     {10.1016/j.commatsci.2014.10.068},
 volume =  100,
 pages =   {173--180}
}

@Article{Trung17,
 author = {T. D. Nguyen},
 title = {{GPU}-Accelerated {T}ersoff Potentials for Massively Parallel
    Molecular Dynamics Simulations},
 journal = {Comput.\ Phys.\ Commun.},
 year =    2017,
 doi =     {10.1016/j.cpc.2016.10.020},
 volume =  212,
 pages =   {113--122}
}

@inproceedings{Nikolskiy19,
 author = {V. Nikolskiy and V. Stegailov},
 title = {{GPU} Acceleration of Four-Site Water Models in {LAMMPS}},
 booktitle = {Proceedings of the International Conference on Parallel
    Computing (ParCo 2019), Prague, Czech Republic},
 doi =     {10.3233/APC200086},
 year =    2019
}

CITE-CITE-CITE-CITE-CITE-CITE-CITE-CITE-CITE-CITE-CITE-CITE-CITE

PPPM initialization ...
  using 12-bit tables for long-range coulomb
  G vector (1/distance) = 0.21284521
  grid = 12 12 12
  stencil order = 5
  estimated absolute RMS force accuracy = 0.018861073
  estimated relative force accuracy = 5.6799561e-05
  using double precision KISS FFT
  3d grid and FFT values/proc = 2057 432
Generated 105 of 105 mixed pair_coeff terms from arithmetic mixing rule
Neighbor list info ...
  update: every = 1 steps, delay = 0 steps, check = yes
  max neighbors/atom: 2000, page size: 100000
  master list distance cutoff = 12
  ghost atom cutoff = 12
  binsize = 6, bins = 7 7 7
  1 neighbor lists, perpetual/occasional/extra = 1 0 0
  (1) pair lj/cut/coul/long/gpu, perpetual
      attributes: full, newton on
      pair build: full/bin
      stencil: full/bin/3d
      bin: standard
Per MPI rank memory allocation (min/avg/max) = 16.01 | 16.01 | 16.02 Mbytes
   Step          Temp          Press          Volume        Density         TotEng         KinEng         PotEng         E_bond        E_angle        E_dihed         E_vdwl         E_coul         E_long    
         0   300            288.84835      67492.245      0.099996349   -283.26761      460.53515     -743.80276      10.883553      56.554172      149.1912       49.391771      317.24636     -1328.142     
       500   432.10973     -36.950682      67492.245      0.099996349    549.23785      663.33906     -114.10121      255.47116      229.7777       272.19063      68.423512      365.93189     -1322.966     
      1000   575.95417      1.6998181      67492.245      0.099996349    921.80471      884.15714      37.64757       319.43105      287.3334       280.3535       79.010886      374.65636     -1319.5909    
      1500   608.82008     -326.121        67492.245      0.099996349    985.48302      934.61016      50.872861      293.70976      301.34338      326.09541      69.002009      382.52698     -1340.1931    
      2000   616.44806     -242.66423      67492.245      0.099996349    1054.6509      946.32         108.33089      335.76473      373.3343       329.75547      62.422025      335.64656     -1350.6593    
      2500   594.06665      113.62793      67492.245      0.099996349    963.38598      911.96192      51.424058      292.84279      325.08405      336.68781      78.151608      337.31085     -1345.1224    
      3000   576.25131     -782.11846      67492.245      0.099996349    911.25131      884.61328      26.638024      327.7895       297.6387       355.50871      48.751832      321.85401     -1350.9111    
      3500   564.88321      264.59028      67492.245      0.099996349    901.3296       867.16192      34.167676      325.07506      305.37029      350.20075      84.633667      293.01127     -1355.3505    
      4000   624.47787     -743.9562       67492.245      0.099996349    981.34472      958.6467       22.698021      347.93237      297.73904      346.92707      47.473096      311.84231     -1350.5799    
      4500   571.11369      131.3894       67492.245      0.099996349    904.01506      876.72644      27.288626      302.89805      351.50263      344.29637      55.756562      306.70256     -1355.3619    
      5000   601.05729     -7.7337995      67492.245      0.099996349    923.39338      922.69337      0.70000415     310.81743      331.66052      335.87594      72.101998      279.86478     -1355.6907    
      5500   609.73136     -61.189771      67492.245      0.099996349    955.58273      936.00909      19.573637      337.29329      312.69102      347.61057      51.477041      296.04826     -1352.0389    
      6000   587.82112      240.58644      67492.245      0.099996349    920.74268      902.3743       18.368377      321.93954      371.74083      325.81586      50.163983      280.00283     -1355.3906    
      6500   560.39595     -366.68643      67492.245      0.099996349    870.88307      860.27344      10.609631      332.52873      322.17919      339.66738      42.428723      297.99356     -1349.4387    
      7000   579.08289      159.49959      67492.245      0.099996349    863.70107      888.96009     -25.25902       304.48971      315.22143      344.03573      64.385823      276.6411      -1353.5831    
      7500   561.64505      75.402499      67492.245      0.099996349    913.05697      862.19097      50.866003      324.65676      362.46335      335.83904      38.184956      323.22088     -1356.5103    
      8000   591.45821     -204.58087      67492.245      0.099996349    974.81513      907.95765      66.857474      330.9451       368.78612      326.97974      53.705773      322.12208     -1358.2448    
      8500   628.98831     -777.6367       67492.245      0.099996349    1013.5627      965.57075      47.991987      353.80322      332.90569      358.72955      29.741885      308.07709     -1357.507     
      9000   644.8212       356.12499      67492.245      0.099996349    992.20651      989.8761       2.3304116      327.2185       355.88031      328.8889       43.816064      275.79627     -1355.8534    
      9500   680.80001     -6998.9394      67492.245      0.099996349    10506.07       1045.1078      9460.9622      340.20646      391.04086      378.48318      55.86995       358.83358      7904.3344    
     10000   575.94722      322.36884      67492.245      0.099996349    1035.365       884.14647      151.21852      246.57737      281.06656      379.51597      26.35986       459.19125     -1262.125     
     10500   748.77833     -4144.2323      67492.245      0.099996349    6518.5233      1149.4625      5369.0608      252.94044      299.12125      375.78006      35.113515      516.06942      3861.6636    
     11000   584.56394      124.09304      67492.245      0.099996349    904.57549      897.37414      7.2013502      180.50039      223.20525      300.1414       57.321776      506.68952     -1279.1966    
     11500   591.67614      242.20296      67492.245      0.099996349    1156.8094      908.29221      248.51717      198.93974      298.49122      371.84642      58.460838      529.50082     -1242.0457    
     12000   599.42266     -342.14629      67492.245      0.099996349    1108.4363      920.18401      188.25233      228.70972      284.27292      342.46964      58.946529      501.90018     -1250.1241    
     12500   619.74034     -155.59404      67492.245      0.099996349    1102.4101      951.37404      151.03604      254.564        313.39212      335.67192      58.257567      430.3004      -1264.1062    
     13000   615.19844      253.92789      67492.245      0.099996349    1087.142       944.40169      142.74027      235.6479       308.09108      405.21064      73.369497      378.47051     -1294.2517    
     13500   572.34291      69.51568       67492.245      0.099996349    970.17815      878.61343      91.564724      247.29512      317.71325      357.56551      45.759178      402.54047     -1302.3647    
     14000   610.67145     -154.6228       67492.245      0.099996349    999.83516      937.45224      62.382922      270.67329      307.27379      377.33461      45.255892      368.50383     -1332.3775    
     14500   628.99944     -45.773471      67492.245      0.099996349    1076.7577      965.58785      111.16981      310.72359      311.92954      374.31366      60.285046      368.44289     -1340.5886    
     15000   612.91529      510.77307      67492.245      0.099996349    1026.53        940.89678      85.633228      268.15201      335.78378      358.12991      74.17426       364.85942     -1336.0718    
     15500   610.69882      56.746831      67492.245      0.099996349    985.12496      937.49425      47.630715      274.47437      344.36468      338.69467      59.949927      344.4465      -1340.9982    
     16000   614.02772     -63.10263       67492.245      0.099996349    924.62253      942.6045      -17.981965      262.41312      328.27418      331.87604      67.395551      316.0368      -1344.2119    
     16500   645.64732      18.153783      67492.245      0.099996349    1054.2187      991.14429      63.074398      286.61354      375.56216      352.19517      41.330132      325.81799     -1343.0396    
     17000   631.59917     -323.92888      67492.245      0.099996349    1008.5433      969.57873      38.96461       290.44858      347.71021      363.49381      39.201096      322.83798     -1349.4597    
     17500   613.02324      324.4958       67492.245      0.099996349    984.96638      941.0625       43.903885      258.61001      344.45169      354.56111      69.907922      340.82346     -1349.1828    
     18000   568.84663     -379.75232      67492.245      0.099996349    925.27726      873.24624      52.031021      301.3278       349.16794      355.22966      59.807544      309.63396     -1350.2892    
     18500   635.0717       665.66534      67492.245      0.099996349    935.55679      974.90947     -39.352685      282.26202      334.94683      327.69573      51.806227      296.196       -1352.3587    
     19000   644.99087      12.856616      67492.245      0.099996349    992.75055      990.13656      2.6139883      288.32673      312.97168      360.53015      46.068201      320.71621     -1351.2869    
     19500   641.02663     -89.99034       67492.245      0.099996349    994.89961      984.05099      10.848615      316.67923      347.29874      323.25953      52.158266      295.9551      -1348.0526    
     20000   590.8325      -509.76905      67492.245      0.099996349    923.47297      906.99712      16.475845      305.31312      341.1233       369.18713      14.062326      313.17364     -1349.6237    
     20500   585.82261      569.94952      67492.245      0.099996349    930.393        899.30635      31.086644      337.64395      347.57775      355.04328      38.648072      281.39529     -1353.6423    
     21000   632.85621      244.01174      67492.245      0.099996349    958.84119      971.50844     -12.667254      314.04432      308.82234      356.49635      44.487521      289.93219     -1350.9742    
     21500   630.88269     -341.88717      67492.245      0.099996349    963.39627      968.47885     -5.0825794      327.5469       337.98966      323.60564      48.763569      289.31323     -1354.0515    
     22000   581.83772      56.337506      67492.245      0.099996349    887.75045      893.18908     -5.4386342      307.411        329.43522      351.13964      25.759535      308.02919     -1357.2354    
     22500   637.90483      51.144784      67492.245      0.099996349    1007.3103      979.25866      28.051645      357.61514      339.63565      326.7322       44.407844      288.64841     -1359.0303    
     23000   571.41071      408.15224      67492.245      0.099996349    910.8296       877.1824       33.647199      339.5302       356.64559      319.01224      11.157017      338.47484     -1350.9881    
     23500   558.01501      315.86702      67492.245      0.099996349    903.06568      856.61843      46.447253      342.26463      344.59875      350.29711      48.518684      289.5426      -1353.3685    
     24000   596.15125      267.42687      67492.245      0.099996349    927.93559      915.16202      12.773561      329.24102      323.28508      339.94067      36.760214      317.59255     -1357.6897    
     24500   572.42105     -110.48732      67492.245      0.099996349    860.17008      878.73338     -18.5633        356.96418      312.61734      321.74963      33.950807      295.0604      -1359.5556    
     25000   584.66979     -323.62971      67492.245      0.099996349    879.9155       897.53664     -17.62114       360.77914      315.93617      323.10423      40.431406      280.06999     -1358.6009    
     25500   581.3641       169.56968      67492.245      0.099996349    876.81293      892.46202     -15.649086      341.29942      329.4189       336.16553      67.40939       242.9413      -1358.9898    
     26000   590.89009     -488.24814      67492.245      0.099996349    922.08501      907.08552      14.99949       350.69981      353.98846      342.0109      -1.850161       295.16258     -1349.0967    
     26500   588.38844      89.202902      67492.245      0.099996349    965.26943      903.2452       62.024235      367.5328       363.35211      356.78009      44.055703      262.77382     -1356.7894    
     27000   638.43456      651.32622      67492.245      0.099996349    961.73343      980.07186     -18.338428      328.45232      350.9285       331.94409      25.812546      277.48239     -1355.5583    
     27500   625.15268      283.16727      67492.245      0.099996349    965.59826      959.68262      5.915639       332.81314      357.18084      337.35681      14.08481       301.40063     -1357.5319    
     28000   612.0987      -620.24786      67492.245      0.099996349    947.47052      939.64322      7.8272984      360.48147      350.2353       318.26715      16.127907      297.00319     -1354.9254    
     28500   634.09674      47.704511      67492.245      0.099996349    860.66608      973.4128      -112.74672      292.13701      346.27119      311.72952      13.712022      262.5124      -1357.6903    
     29000   617.33731     -42.436778      67492.245      0.099996349    929.88316      947.68511     -17.801944      335.33055      348.52771      345.19172      5.2630001      278.52535     -1358.6065    
     29500   631.80152     -19.067165      67492.245      0.099996349    879.21405      969.88936     -90.675312      273.82433      336.61675      337.62785      37.750267      254.3572      -1358.1166    
     30000   560.34654      115.19084      67492.245      0.099996349    766.58179      860.1976      -93.615809      331.29074      321.79914      300.4882       7.1477175      275.45695     -1356.9559    
     30500   631.44217     -133.3358       67492.245      0.099996349    836.85066      969.33772     -132.48706      322.67245      324.62948      315.24554      6.572168       237.11466     -1359.9422    
     31000   635.28876      336.94694      67492.245      0.099996349    886.25743      975.24268     -88.985255      316.8749       314.31458      325.50041      11.547739      278.70991     -1358.8856    
     31500   576.84443      313.599        67492.245      0.099996349    838.04606      885.52379     -47.477726      329.27088      362.60807      305.0347       21.826203      271.64446     -1358.7531    
     32000   589.9185       94.55099       67492.245      0.099996349    869.27802      905.59402     -36.316002      354.41333      345.856        324.07367      20.046082      255.01554     -1359.2664    
     32500   628.30489      174.12034      67492.245      0.099996349    925.88982      964.52163     -38.631805      352.09244      330.93272      340.66847      14.139028      260.91393     -1361.5314    
     33000   566.44709     -530.70594      67492.245      0.099996349    770.73757      869.56266     -98.825087      319.66964      338.61609      312.7534       0.84975174     274.37326     -1364.0088    
     33500   576.71328     -190.25681      67492.245      0.099996349    820.54256      885.32246     -64.779904      322.83262      350.05883      310.47918      8.1597447      282.51447     -1361.0654    
     34000   602.15639     -34.282267      67492.245      0.099996349    1080.3322      924.38062      155.95161      236.28108      306.7963       393.77964      27.010445      449.37482     -1284.2286    
     34500   669.31097     -497.93347      67492.245      0.099996349    1096.9652      1027.4708      69.494442      244.04251      319.39339      338.27972      46.089368      405.71904     -1305.0568    
     35000   646.38966     -118.93924      67492.245      0.099996349    1019.2515      992.28388      26.967604      271.66751      308.04051      337.11497      38.039244      369.24444     -1322.6093    
     35500   675.97475     -591.13272      67492.245      0.099996349    988.49522      1037.7004     -49.205224      258.60319      302.95975      323.94307      20.022155      356.60092     -1330.582     
     36000   615.90846     -41.412672      67492.245      0.099996349    982.67688      945.49166      37.185223      272.13013      334.11119      343.18722      42.973317      371.15997     -1348.7825    
     36500   583.61148      43.423068      67492.245      0.099996349    926.89808      895.91201      30.986073      297.93209      294.06087      374.54317      30.149981      350.27672     -1345.8608    
     37000   585.49271     -62.203741      67492.245      0.099996349    881.20829      898.79991     -17.59162       296.66877      326.71044      326.99479      43.525588      319.39665     -1352.3075    
     37500   602.60464      9.5246264      67492.245      0.099996349    944.22911      925.06873      19.16038       286.64348      321.52998      347.34356      51.556196      331.74226     -1345.3948    
     38000   623.32049     -119.85442      67492.245      0.099996349    927.75812      956.87        -29.111872      304.21405      302.05049      325.32807      46.689545      313.58724     -1346.2645    
     38500   609.77734     -47.5884        67492.245      0.099996349    1058.7884      936.07967      122.70877      315.22886      359.77781      400.05846      41.898894      331.44656     -1349.1348    
     39000   606.17005     -575.93873      67492.245      0.099996349    964.12605      930.54206      33.583997      291.38045      338.67198      366.43523      36.100663      323.59726     -1345.8121    
     39500   560.59066      470.93928      67492.245      0.099996349    894.41512      860.57235      33.842772      254.96007      368.45921      353.96115      39.270349      340.64125     -1344.262     
     40000   588.04972      241.63954      67492.245      0.099996349    913.00098      902.72522      10.275756      270.33659      324.19797      357.54776      57.57203       323.26289     -1349.783     
     40500   618.6114      -566.61201      67492.245      0.099996349    926.51498      949.64098     -23.125999      307.71707      342.49505      303.63423      33.319179      323.46619     -1352.1245    
     41000   606.89886     -164.38375      67492.245      0.099996349    1021.7713      931.66086      90.110485      315.76782      364.07936      337.66718      36.121142      350.71826     -1350.2017    
     41500   598.75068     -43.903523      67492.245      0.099996349    963.81333      919.15246      44.660871      312.99971      340.47026      361.10715      39.170065      322.13595     -1353.8839    
     42000   594.05035     -241.61556      67492.245      0.099996349    970.96633      911.9369       59.029433      331.67262      382.9574       332.81108      35.708848      308.55024     -1352.3569    
     42500   608.95275     -379.01066      67492.245      0.099996349    938.94045      934.81382      4.1266279      335.32587      334.79155      343.91273      15.118508      307.17313     -1357.0335    
     43000   548.59924     -457.45086      67492.245      0.099996349    860.83131      842.16412      18.667192      327.6598       357.98737      327.16733      32.001178      306.20881     -1354.3919    
     43500   576.59128     -266.30714      67492.245      0.099996349    871.23006      885.13517     -13.905109      303.49415      338.57669      341.28817      26.536988      303.6576      -1351.6319    
     44000   624.0746      -167.2535       67492.245      0.099996349    1004.1527      958.02764      46.125027      314.49563      338.67418      388.17295      49.818307      282.87284     -1356.6914    
     44500   592.6024      -31.048785      67492.245      0.099996349    870.11218      909.71412     -39.601937      307.53707      319.46478      346.84241      25.963924      293.34146     -1355.0932    
     45000   584.09663      325.4933       67492.245      0.099996349    848.3664       896.65676     -48.290362      312.11715      305.39351      331.68134      39.504391      304.02635     -1361.8155    
     45500   592.89186     -197.9433       67492.245      0.099996349    814.84462      910.15848     -95.313855      300.23747      336.98784      296.12279      30.108743      287.46761     -1364.1506    
     46000   607.63642      57.402951      67492.245      0.099996349    836.73309      932.79311     -96.06002       315.57617      306.48189      334.62012      13.379268      274.82826     -1361.4877    
     46500   575.91698     -204.542        67492.245      0.099996349    848.52772      884.10005     -35.572332      340.40303      339.98047      320.78675      37.536292      264.72397     -1361.5685    
     47000   578.08628     -71.274987      67492.245      0.099996349    817.46542      887.43018     -69.964768      334.64612      313.14354      324.92604      24.694933      269.12554     -1357.4773    
     47500   577.66419      611.88776      67492.245      0.099996349    871.26318      886.78222     -15.519041      303.57146      374.41356      353.85013      31.910655      258.85493     -1364.6645    
     48000   585.90177     -140.61555      67492.245      0.099996349    891.02715      899.42787     -8.4007241      341.12465      354.4969       338.10022      24.719962      272.92347     -1364.8682    
     48500   662.90214     -1033.0891      67492.245      0.099996349    991.0546       1017.6325     -26.577868      373.08396      351.15361      335.6629      -4.139914       261.85667     -1364.8172    
     49000   623.90678     -358.11709      67492.245      0.099996349    954.92872      957.77001     -2.841297       371.69412      373.44874      313.14473      7.8385082      269.62899     -1360.0862    
     49500   590.91282     -3.4175717      67492.245      0.099996349    918.80441      907.12041      11.683994      360.79979      346.38818      348.97291      16.465984      275.12823     -1362.391     
     50000   593.11806     -486.53568      67492.245      0.099996349    878.80193      910.50573     -31.703798      354.0097       307.57863      358.98628      16.032431      266.27748     -1360.325     
Loop time of 98.4907 on 4 procs for 50000 steps with 516 atoms

Performance: 43.862 ns/day, 0.547 hours/ns, 507.662 timesteps/s, 261.954 katom-step/s
96.7% CPU use with 4 MPI tasks x 1 OpenMP threads

MPI task timing breakdown:
Section |  min time  |  avg time  |  max time  |%varavg| %total
---------------------------------------------------------------
Pair    | 26.589     | 28.906     | 30.852     |  28.6 | 29.35
Bond    | 1.5734     | 3.3532     | 5.5549     |  90.1 |  3.40
Kspace  | 45.652     | 47.842     | 49.743     |  24.1 | 48.57
Neigh   | 1.5194     | 3.4048     | 5.9469     |  98.7 |  3.46
Comm    | 4.2756     | 4.5307     | 4.7414     |   9.8 |  4.60
Output  | 0.041689   | 0.044566   | 0.049684   |   1.5 |  0.05
Modify  | 9.0287     | 9.8615     | 11.145     |  25.0 | 10.01
Other   |            | 0.548      |            |       |  0.56

Nlocal:            129 ave         281 max           2 min
Histogram: 2 0 0 0 0 0 0 1 0 1
Nghost:         1186.5 ave        1519 max         833 min
Histogram: 1 1 0 0 0 0 0 0 1 1
Neighs:              0 ave           0 max           0 min
Histogram: 4 0 0 0 0 0 0 0 0 0
FullNghs:        28096 ave       64369 max         310 min
Histogram: 2 0 0 0 0 0 0 1 0 1

Total # of neighbors = 112384
Ave neighs/atom = 217.79845
Ave special neighs/atom = 9.9302326
Neighbor list builds = 2845
Dangerous builds = 0
unfix           eq1
# -- step  2/21: NVT 300 K -- cycle 1: quench to operating temperature
fix             eq2 all nvt temp 300.0 300.0 100.0
run             50000
PPPM initialization ...
  using 12-bit tables for long-range coulomb
  G vector (1/distance) = 0.21284521
  grid = 12 12 12
  stencil order = 5
  estimated absolute RMS force accuracy = 0.018861073
  estimated relative force accuracy = 5.6799561e-05
  using double precision KISS FFT
  3d grid and FFT values/proc = 2057 432
Generated 105 of 105 mixed pair_coeff terms from arithmetic mixing rule
Per MPI rank memory allocation (min/avg/max) = 18.06 | 18.07 | 18.08 Mbytes
   Step          Temp          Press          Volume        Density         TotEng         KinEng         PotEng         E_bond        E_angle        E_dihed         E_vdwl         E_coul         E_long    
     50000   593.11806     -486.53569      67492.245      0.099996349    878.80193      910.50573     -31.703801      354.0097       307.57863      358.98628      16.032429      266.27748     -1360.325     
     50500   379.66256      393.81072      67492.245      0.099996349    143.80978      582.82651     -439.01673      173.91643      208.68402      252.68182      14.956429      239.57728     -1357.4757    
     51000   278.51187      148.39302      67492.245      0.099996349   -93.23088       427.54836     -520.77924      146.24206      188.72338      232.15939     -2.0717264      260.99747     -1359.3938    
     51500   304.82803      319.26886      67492.245      0.099996349   -116.33236      467.94674     -584.2791       116.48136      191.65959      227.79764     -3.8058665      230.35489     -1361.6579    
     52000   383.12888      142.51324      67492.245      0.099996349    125.15939      588.14773     -462.98834      152.96524      192.80551      252.77627     -15.452618      288.42472     -1356.5569    
     52500   295.34533     -8.6004917      67492.245      0.099996349   -82.216495      453.38969     -535.60618      123.71748      200.08537      237.72689      9.9573898      238.892       -1360.9207    
     53000   693.48656      76.78819       67492.245      0.099996349    1022.6627      1064.5831     -41.920389      180.54949      287.66808      328.87807      2.7264585      425.38508     -1299.6517    
     53500   311.8904       256.00765      67492.245      0.099996349   -36.367746      478.78831     -515.15605      87.634319      141.43448      248.95982      13.116114      312.46678     -1328.993     
     54000   450.94582     -137.83275      67492.245      0.099996349    484.20545      692.25467     -208.04922      130.35525      187.11123      299.09261     -8.2186248      451.08141     -1284.434     
     54500   297.68124      230.05451      67492.245      0.099996349    155.16164      456.97559     -301.81395      99.545353      176.50481      253.36426      27.29662       417.44369     -1287.1542    
     55000   320.98054      509.14411      67492.245      0.099996349    105.55544      492.74275     -387.1873       108.52678      186.2412       266.07069      8.1987962      364.32793     -1335.4017    
     55500   295.7472       136.17898      67492.245      0.099996349    0.18067994     454.0066      -453.82592      110.63575      195.3104       282.41634      0.92627137     289.74568     -1351.9636    
     56000   314.70823     -259.3871       67492.245      0.099996349    1.0040932      483.11401     -482.10992      105.25518      194.12763      260.96192     -5.3437651      304.79197     -1355.968     
     56500   274.89829     -248.52509      67492.245      0.099996349   -72.451371      422.00108     -494.45245      115.57121      188.81015      272.43557     -16.904071      291.2874      -1359.0739    
     57000   318.5058       261.57736      67492.245      0.099996349   -4.9426011      488.94372     -493.88632      109.81808      197.51933      248.75759     -1.9696085      293.31301     -1354.2799    
     57500   319.44266      316.32975      67492.245      0.099996349    37.319737      490.38191     -453.06218      114.1619       201.36407      263.49595     -4.8622566      307.12788     -1351.1248    
     58000   290.44598     -108.25783      67492.245      0.099996349   -84.332956      445.86862     -530.20157      128.33631      169.03096      235.41097      15.072874      258.5752      -1350.9114    
     58500   282.37095      45.928707      67492.245      0.099996349   -86.41389       433.47249     -519.88638      124.69309      186.18252      231.38038      16.163498      262.75737     -1350.8267    
     59000   292.2054      -50.863249      67492.245      0.099996349   -18.37426       448.56952     -466.94378      139.78167      204.86383      241.46414      10.499939      274.5535      -1353.3592    
     59500   404.966       -32.286343      67492.245      0.099996349    340.0166       621.67027     -281.65366      142.10373      192.46361      343.65981     -3.3248962      347.20114     -1325.0206    
     60000   246.8033      -168.34594      67492.245      0.099996349   -19.268714      378.87198     -398.14069      104.40486      152.91188      240.8415       8.2543763      385.07963     -1301.7217    
ERROR on proc 0: Bond atoms 52 80 missing on proc 0 at step 60476
For more information see https://docs.lammps.org/err0005 (src/ntopo_bond_all.cpp:59)
