LAMMPS data file via write_data, version 22 Jul 2025, timestep = 21246, units = real

516 atoms
15 atom types
544 bonds
17 bond types
884 angles
28 angle types
1280 dihedrals
12 dihedral types
240 impropers
2 improper types

0 40.714705 xlo xhi
0 40.714705 ylo yhi
0 40.714705 zlo zhi

Masses

1 12.01
2 12.01
3 16
4 12.01
5 14.01
6 12.01
7 12.01
8 16
9 1.008
10 1.008
11 1.008
12 1.008
13 1.008
14 15.9994
15 1.008

Pair Coeffs # lj/cut/coul/long/gpu

1 0.0988 3.31521
2 0.0988 3.31521
3 0.0726 3.1561
4 0.1078 3.39771
5 0.2042 3.20581
6 0.0988 3.31521
7 0.0988 3.31521
8 0.1463 3.04812
9 0.0161 2.62548
10 0.0208 2.422
11 0.0161 2.4473
12 0.0161 2.53639
13 0.0208 2.60018
14 0.1553 3.166
15 0 0

Bond Coeffs # harmonic

1 354.25 1.3986
2 243.91 1.5147
3 262.84 1.4907
4 590.6 1.219
5 343.34 1.3688
6 254.79 1.4639
7 335.5 1.3803
8 332.45 1.383
9 386.24 1.373
10 282.27 1.4273
11 360.69 1.086
12 344.22 1.0969
13 366.97 1.082
14 368.72 1.0809
15 367.29 1.0818
16 345.25 1.0962
17 553 0.98

Angle Coeffs # harmonic

1 63.67 120.02
2 60.74 120.83
3 61.44 120.33
4 60.27 117.93
5 77.96 122.6
6 79 119.11
7 89.67 119.87
8 65.35 113.1
9 75.21 126.65
10 75.49 125.5
11 76.16 109.36
12 71.99 108.99
13 79.59 120.21
14 83.11 110.48
15 72.81 106.75
16 88.26 118.39
17 44.9 119.88
18 43.61 110.63
19 43.81 109.6
20 48.1 108.76
21 47.83 121.78
22 48.08 120.17
23 47.99 121.01
24 44.2 127.64
25 43.95 129.11
26 35.64 108.55
27 62.7 108.7
28 35.8 107.73

Dihedral Coeffs # charmm

1 3.625 2 180 0
2 1.25 2 180 0
3 0.58 2 180 0
4 0.9 2 180 0
5 0.295 2 180 0
6 0.561667 2 0 0
7 0 2 0 0
8 1.7 2 180 0
9 4 2 180 0
10 1.66 2 180 0
11 0 1 0 0
12 0.383333 3 0 0

Improper Coeffs # cvff

1 1.1 -1 2
2 10.5 -1 2

Atoms # full

179 1 10 0.110147 17.678095851726706 0.4729726439724982 0.9442489199434816 0 0 1
178 1 9 0.153447 18.608675250182788 2.2966776529254633 3.2287591781771643 0 0 1
153 1 1 -0.157553 18.83433295344598 3.2352815326620776 2.7306117192938113 0 0 1
169 1 1 -0.112053 21.52947408029173 1.0945408838673378 2.105582820759932 0 0 1
156 1 1 0.088047 20.290637227423947 0.9726695131068953 1.4509008150484017 0 0 1
154 1 1 0.103047 19.455930766029045 3.234335711783363 1.4711482705951147 0 0 1
155 1 3 -0.3032 19.736512751520518 2.059236056699211 0.8200183453985234 0 0 1
425 2 9 0.170447 20.87322155590404 19.54283227705098 16.841025170911365 0 0 0
189 1 9 0.174947 22.011129767379202 2.0663331910090657 2.1786948741540555 0 0 1
188 1 9 0.169947 23.11468042517102 0.022598191250280602 3.1418194992551722 0 0 1
127 1 9 0.148947 8.450792940431409 20.154827266585336 2.7784855544096696 0 0 1
170 1 1 -0.157553 19.754564572333198 4.446158073985621 0.8356999041491119 0 0 1
145 1 9 0.148947 5.90358920027739 18.651060005597593 5.92204131093849 0 0 1
177 1 9 0.170447 17.999160756028925 4.452368415819035 4.3134158018606845 0 0 1
152 1 1 -0.054553 18.487765845957764 4.456013327316838 3.3397655205929038 0 0 1
192 1 9 0.150447 17.334167324349366 7.198072911062013 0.7837398174125407 0 0 1
141 1 9 0.174947 12.878137023035105 11.809544755972171 0.6056847890689162 0 0 1
120 1 1 -0.143053 15.041267178603366 11.654892212407303 0.509889282050638 0 0 1
174 1 1 -0.137553 17.396479908760845 9.328610555314219 0.4842298536052688 0 0 1
140 1 9 0.169947 15.057704405871952 10.598683125371144 0.7550072177258411 0 0 1
176 1 9 0.150447 18.776877661690456 9.559334604591793 4.121803584232348 0 0 1
147 1 1 -0.137553 18.17196150453036 10.65868419219465 2.363618308372379 0 0 1
146 1 1 -0.029353 17.675350922023586 10.577559470684353 1.056175503809339 0 0 1
149 1 1 -0.178653 18.127936315944353 8.219233797569139 2.540989803956984 0 0 1
172 1 8 -0.5141 18.25838320286345 7.020923429498217 4.585927548911434 0 0 1
171 1 1 -0.054553 19.430569938278953 5.667654808180484 1.4505306704817025 0 0 1
191 1 9 0.170447 19.707982686598417 6.597936577112063 0.9586124448024947 0 0 1
173 1 1 -0.07205300000000001 17.599362403602672 8.153370257677125 1.2289697737348684 0 0 1
151 1 1 -0.153653 18.759505513162793 5.683580259954963 2.6947392873084013 0 0 1
150 1 2 0.5873 18.373041701524482 6.9793960017106755 3.3716190974308407 0 0 1
148 1 1 -0.07205300000000001 18.393878785701986 9.485991770478657 3.105436551870696 0 0 1
104 1 1 -0.054553 9.879605144709004 15.755762575287783 2.128063468221236 0 0 1
129 1 9 0.170447 8.926321447229599 16.248294740415137 1.9499073608263515 0 0 1
105 1 1 -0.157553 10.644354265570554 15.356845880594191 1.0228178599834286 0 0 1
130 1 9 0.153447 10.293607616747817 15.58151883941183 0.017962724718305966 0 0 1
125 1 1 -0.07205300000000001 7.592497265675544 17.400607025957317 5.384347152782735 0 0 1
101 1 1 -0.178653 8.715539478468957 17.243940307090096 4.542315368608649 0 0 1
102 1 2 0.5873 9.5693327004157 16.001021302583293 4.647356039326729 0 0 1
103 1 1 -0.153653 10.353843042494361 15.539550926219642 3.4420647777859292 0 0 1
123 1 1 -0.054553 11.579207200536889 14.863858272684917 3.6223340887214843 0 0 1
119 1 3 -0.3179 17.4675840792376 11.72919443618102 0.3390221437411263 0 0 1
143 1 9 0.170447 11.94656849001019 14.672618815263116 4.6294825349820306 0 0 1
124 1 8 -0.5141 9.62908518627274 15.372964879501144 5.693904719682054 0 0 1
131 1 10 0.110147 14.492222728982135 16.395193402422965 0.5429322570322128 0 0 1
121 1 1 -0.112053 13.81333260635111 12.33293182490459 0.4284467427231026 0 0 1
100 1 1 -0.07205300000000001 9.031060575682273 18.276879175573626 3.630279318863736 0 0 1
106 1 1 0.103047 11.869299895923982 14.706443957556093 1.2053944215004544 0 0 1
108 1 1 0.088047 13.787384396614009 13.704081606647991 0.135140101977478 0 0 1
107 1 3 -0.3032 12.582528280380204 14.352581587378957 0.08400622265836491 0 0 1
98 1 1 -0.029353 7.06161696449868 19.532692483037845 4.332839568549505 0 0 1
122 1 1 -0.157553 12.338060236831778 14.452702427991373 2.5106047107645 0 0 1
142 1 9 0.153447 13.28652501323374 13.951240381404894 2.672041098435648 0 0 1
118 1 1 0.134047 16.242048054781367 12.352426632143992 0.27451011734008557 0 0 1
99 1 1 -0.137553 8.200199465236606 19.39895000141152 3.514122103396612 0 0 1
175 1 9 0.148947 18.383978004429732 11.631114441789965 2.7985873539153276 0 0 1
440 2 9 0.150447 19.025766849270784 20.098398806653844 12.210239528083351 0 0 0
420 2 8 -0.5141 19.719843033702006 19.4571640084561 14.62874317568425 0 0 0
92 1 9 0.169947 5.025827108344792 20.07727049949782 1.9559459253733795 0 0 1
126 1 1 -0.137553 6.772521547496498 18.540203753418865 5.280031780756633 0 0 1
144 1 9 0.150447 7.3489403041984716 16.63015427715004 6.113041186271616 0 0 1
128 1 9 0.150447 9.914844256903518 18.219160980861343 2.9968252539014104 0 0 1
498 3 15 0.32 11.95908591775757 0.2982525831592096 21.15792482991096 2 -4 -1
496 2 13 0.06098 17.110627330603084 9.561816621358432 25.719383001491178 0 0 0
495 2 13 0.06098 16.10677834836399 10.697928480843622 26.65794552264142 0 0 0
484 2 4 0.114647 17.092613419517022 10.219756124655728 26.596408687579945 0 0 0
494 2 13 0.06098 17.261993131725514 9.611979621140204 27.493475454906843 0 0 0
463 2 3 -0.3179 18.124242384895563 11.215647355923831 26.47161149422047 0 0 0
462 2 1 0.134047 18.320373005408303 12.197276186048175 27.4226744346454 0 0 0
464 2 1 -0.143053 19.356240462453485 13.117586833654999 27.21656045426424 0 0 0
485 2 9 0.169947 19.97714297319734 13.022965485141123 26.33100727279926 0 0 0
40 1 10 0.09898 11.133542557400498 10.266465747885436 31.598969007514963 0 0 0
17 1 4 0.005547 12.035294355493527 10.782485347781027 31.25333305097773 0 0 0
504 6 15 0.32 14.283489496161895 10.597481120742751 28.909554587635707 0 -2 0
483 2 9 0.166947 16.723434598208602 11.593346996713269 28.762974896107245 0 0 0
39 1 10 0.09898 11.870641487808218 11.22258649597269 30.26128779197301 0 0 0
38 1 10 0.09898 12.86017553301762 10.063790653220602 31.161969203991127 0 0 0
16 1 5 -0.0291 12.422998617303199 11.844902064914104 32.18948023844267 0 0 0
41 1 12 0.235947 14.546390226478763 11.839054151670952 31.838998065225212 0 0 0
503 6 14 -1.32 14.461902113841301 11.313173217415432 29.56294582894647 0 -2 0
244 1 13 0.06098 39.96538631801779 12.265291993001416 30.326188943923025 -1 0 0
26 1 1 -0.054553 5.6746023604967855 13.532704499386869 33.11892657025982 0 0 0
47 1 9 0.170447 5.052797628763736 12.83230591287917 32.56439547498564 0 0 0
29 1 1 -0.137553 1.9791519619757343 14.162825006700997 30.932894854276068 0 0 0
49 1 9 0.148947 2.1862483643779314 14.469086669636992 29.910527975779672 0 0 0
1 1 1 -0.029353 0.769884725061718 13.513541894332722 31.240591103375507 0 0 0
48 1 9 0.150447 3.8296181437978762 14.969689256685935 31.690020799780854 0 0 0
28 1 1 -0.07205300000000001 2.916300208361192 14.43620269988025 31.944961683305863 0 0 0
37 1 11 0.281947 10.506913685587413 12.512997052188435 33.052766890929036 0 0 0
25 1 1 -0.157553 7.057179927898501 13.574687818012626 32.86975139078804 0 0 0
46 1 9 0.153447 7.496630303770641 12.931524617123033 32.11330615416818 0 0 0
45 1 9 0.174947 8.330762341498692 16.64356001840474 32.10390100169688 0 0 0
15 1 6 -0.007653 11.580986373784581 12.606836672257927 32.975123653959606 0 0 0
10 1 3 -0.3032 9.2224702833961 14.476578262683546 33.341729277272464 0 0 0
24 1 1 -0.112053 9.3267492710398 16.74219406135114 32.52504325963718 0 0 0
482 2 12 0.234947 14.642288383112051 13.62835109606668 29.114418144458334 0 0 0
481 2 12 0.235947 13.277955939986107 16.042455000487912 29.46213375970182 0 0 0
459 2 6 -0.120353 14.157645376366395 15.660049125332495 29.963359631761705 0 0 0
460 2 7 -0.113353 14.831043809049195 14.467072794519735 29.783707771950656 0 0 0
480 2 10 0.09898 13.4131023142612 17.93023604871619 31.21566363816365 0 0 0
461 2 1 -0.110053 17.526905238402165 12.30033875901418 28.581884481511416 0 0 0
18 1 6 -0.120353 13.723315297586456 12.297714916143184 32.3734748288864 0 0 0
457 2 5 -0.0291 14.803027310262973 16.360181686882076 30.985119147838084 0 0 0
476 2 10 0.110147 16.346564176721532 12.432717713865308 30.867897336080574 0 0 0
454 2 4 0.09354700000000001 16.867710182644505 13.391027586723755 30.759243599209483 0 0 0
455 2 5 -0.0171 15.863400884194059 14.45994375559479 30.689246176511 0 0 0
475 2 10 0.110147 17.489619727530705 13.533758897046134 31.650850565596944 0 0 0
453 2 1 -0.131353 17.750721669452968 13.326476833340408 29.521073446703912 0 0 0
477 2 11 0.281947 16.41877707144335 15.787611460250398 32.362687312577016 0 0 0
456 2 6 -0.007653 15.830486376108302 15.58017074825542 31.473189367913406 0 0 0
458 2 4 0.005547 14.4464694018711 17.68915442204655 31.487319971917035 0 0 0
479 2 10 0.09898 15.123839608302482 18.438840094876017 31.06206658043584 0 0 0
487 2 9 0.153447 18.30626348889544 16.728565261435886 28.055173227691196 0 0 0
465 2 1 -0.112053 19.587230343046322 14.147312504401125 28.148052701064838 0 0 0
452 2 1 0.088047 18.768639071765683 14.27114445809529 29.290317282613756 0 0 0
451 2 3 -0.3032 18.96592018851044 15.291413527635456 30.19864617633709 0 0 0
486 2 9 0.174947 20.402698744350573 14.845933036864748 27.984298869596554 0 0 0
450 2 1 0.103047 19.495172749676335 16.51098023375882 29.846824042665318 0 0 0
466 2 1 -0.157553 19.07578734031263 17.173739172052134 28.680075204842723 0 0 0
448 2 1 -0.054553 21.06592127556114 18.31002709438754 30.30121915674807 0 0 0
449 2 1 -0.157553 20.476634552973962 17.086090465150537 30.662369325271875 0 0 0
474 2 9 0.153447 20.794430603765466 16.568259839830155 31.562390275181706 0 0 0
473 2 9 0.170447 21.84541342693282 18.734963151491527 30.932264531278054 0 0 0
30 1 4 -0.058853 40.45832365890942 13.230126752418778 30.15775551336845 -1 0 0
243 1 13 0.06098 0.202498015063567 13.197080454775449 29.162827981360472 0 0 0
245 1 13 0.06098 39.68378950756293 14.006039240907569 30.148040693206262 -1 0 0
44 1 9 0.169947 9.566607551781736 18.816299979914167 31.916074862478148 0 0 0
488 2 9 0.170447 19.367979486202305 18.857315021610123 27.37078696814943 0 0 0
467 2 1 -0.054553 19.671646075080083 18.391415196773103 28.305434258347773 0 0 0
447 2 1 -0.153653 20.67203420662882 18.975328379450474 29.118024930072707 0 0 0
139 1 9 0.166947 17.151894985391607 14.236273239060283 40.521212358753836 0 0 0
446 2 2 0.5873 21.379622599287067 20.25073865006764 28.71979529081515 0 0 0
136 1 10 0.09898 11.540859215744854 19.0563587323747 37.942771935132605 0 0 0
132 1 10 0.110147 15.975800212996386 16.30871660205897 40.30576043304378 0 0 0
182 1 10 0.09898 20.236706338503183 0.7040038443827503 36.56136558348856 0 0 0
33 1 9 0.170447 5.511385206989809 15.866522608062942 35.62183451156092 0 0 0
6 1 1 -0.153653 5.103348877632349 14.378522834783576 34.0962292310923 0 0 0
32 1 9 0.150447 1.2061631067526495 13.144329448290684 34.61225418035507 0 0 0
5 1 2 0.5873 3.6269923766171286 14.346741253473938 34.395800336766065 0 0 0
27 1 8 -0.5141 3.224857552474676 14.55732435144249 35.52773348302684 0 0 0
4 1 1 -0.178653 2.6567851545057786 14.050051522114053 33.27970141383683 0 0 0
3 1 1 -0.07205300000000001 1.433744860616049 13.42064440836104 33.583951454478544 0 0 0
2 1 1 -0.137553 0.5010396101053759 13.149447607692194 32.57064096466341 0 0 0
9 1 1 0.103047 7.874290930502345 14.45054574340064 33.59675878957066 0 0 0
13 1 4 0.09354700000000001 11.899628281066736 14.62109983702842 34.46981744642586 0 0 0
12 1 1 -0.131353 11.21979061939435 15.77017173243179 33.733919095459285 0 0 0
20 1 1 -0.110053 11.900253811789716 16.993089207229392 33.60601481599416 0 0 0
36 1 10 0.110147 11.207192231852533 14.1969393732947 35.20685753408775 0 0 0
11 1 1 0.088047 9.916529591945618 15.655806889021227 33.20382369618788 0 0 0
114 1 4 0.005547 11.537684974686618 18.07697101593287 37.45220665903358 0 0 0
134 1 10 0.09898 11.541863965680845 18.208323329456594 36.36460547850743 0 0 0
34 1 9 0.153447 7.958021972658249 15.93759393082734 35.16874550623746 0 0 0
7 1 1 -0.054553 5.938697284969156 15.233974820161698 34.84405495665249 0 0 0
8 1 1 -0.157553 7.319625097768741 15.274928004938792 34.589916865140914 0 0 0
507 8 14 -1.32 15.178967574771155 16.105972709488697 34.3367537347079 0 -1 -2
115 1 6 -0.120353 13.771339526208928 16.89042759146926 37.087036623207396 0 0 0
19 1 7 -0.113353 13.686699333971971 13.377490689934351 33.23000511430426 0 0 0
42 1 12 0.234947 14.482104614101722 14.026172051945514 33.58453968471329 0 0 0
14 1 5 -0.0171 12.369811183374152 13.551464615979933 33.57751133524856 0 0 0
35 1 10 0.110147 12.77047230673361 15.007553136504043 35.01877613893166 0 0 0
43 1 9 0.166947 12.902235699198208 17.111332897619715 34.00730792805508 0 0 0
478 2 10 0.09898 14.543561771349738 17.702326936882177 32.578896608280886 0 0 0
137 1 12 0.235947 13.806227129895701 17.058090804743575 36.01736144897569 0 0 0
508 8 15 0.32 15.986064082343528 16.340778046592533 34.85160731629813 0 -1 -2
138 1 12 0.234947 15.61873118523882 15.765687755213404 37.63057857743263 0 0 0
31 1 9 0.148947 40.27679636439449 12.663336951975829 32.823256231640975 -1 0 0
133 1 11 0.281947 12.358697877350817 17.188693019526724 40.06042653076494 0 0 0
21 1 1 0.134047 11.296641554094398 18.08072762749474 32.96534612988486 0 0 0
23 1 1 -0.143053 10.018430081467445 17.960077676323674 32.40849873668216 0 0 0
79 1 9 0.148947 14.082061055126776 19.848474138205244 34.382464025158086 0 0 0
50 1 1 -0.029353 11.952688009360585 20.038731928256173 34.08970396101141 0 0 0
22 1 3 -0.3179 11.941025499933946 19.28538960058147 32.9466655950755 0 0 0
112 1 6 -0.007653 12.989256185651435 16.976978188891433 39.1987969057676 0 0 0
111 1 5 -0.0171 14.210478940862208 16.35508299846198 39.1843800211124 0 0 0
181 1 11 0.281947 20.423758756737236 0.03193469330722709 39.49913262701811 0 0 0
193 1 9 0.148947 17.00849633069934 9.28107500593178 40.18539716523455 0 0 0
135 1 10 0.09898 10.631811682672826 17.54665509845811 37.77131243406016 0 0 0
116 1 7 -0.113353 14.686255776123033 16.25045113847735 37.89637666827825 0 0 0
113 1 5 -0.0291 12.71935958578831 17.32977076105206 37.89169938688228 0 0 0
514 11 15 0.32 9.593820811194528 18.351621664262748 40.70683016765268 -1 0 -1
190 1 9 0.153447 20.246991476688564 4.435395304765243 40.58282707746 0 0 0
110 1 4 0.09354700000000001 14.952489754750754 15.922431442209685 40.3805810036728 0 0 0
513 11 14 -1.32 10.46278874741877 18.367035817697296 40.245089596385604 -1 0 -1
51 1 1 -0.137553 13.154717437899276 20.256049187110953 34.776302715521844 0 0 0
506 7 15 0.32 14.543100307644542 0.0073908954785579795 37.52805608043504 1 -1 0
117 1 1 -0.110053 16.209279684388406 13.7223201464851 40.68248245388108 0 0 0
109 1 1 -0.131353 14.98107873004496 14.415230641543022 40.617089074627046 0 0 0
60 1 1 0.088047 6.6382411473103815 22.833149204847857 0.7270918532666724 0 0 1
70 1 1 0.134047 6.257588284756554 21.415987804824876 3.107396553977199 0 0 1
73 1 1 -0.112053 5.79866760698741 21.70805540620917 0.7431347920855487 0 0 1
91 1 9 0.166947 7.542373735609415 22.862565384912298 4.0324692805980344 0 0 1
83 1 10 0.110147 8.21042445348223 24.958002285455688 2.8931730163713976 0 0 1
69 1 1 -0.110053 7.052553400213395 22.571237601309644 3.1079066747900748 0 0 1
61 1 1 -0.131353 7.262825350156058 23.285662814636478 1.910266041602847 0 0 1
68 1 7 -0.113353 10.223126103526265 23.018471409294495 1.6464483110028905 0 0 1
62 1 4 0.09354700000000001 8.185278610741783 24.502524896595627 1.89583490205123 0 0 1
90 1 12 0.234947 9.763267523185894 22.156696417375436 2.115131220962914 0 0 1
67 1 6 -0.120353 11.455692819722117 23.143593540172763 1.0327458923133994 0 0 1
63 1 5 -0.0171 9.572096498081809 24.22261416475988 1.4753421798526254 0 0 1
84 1 10 0.110147 7.7657692000320955 25.248813880830948 1.2078936306264343 0 0 1
65 1 5 -0.0291 11.543395298997853 24.43841593954089 0.5197659233052595 0 0 1
89 1 12 0.235947 12.239999867902473 22.41071752195546 0.8828833055893688 0 0 1
64 1 6 -0.007653 10.359472361327427 25.09571999884215 0.7755116733392892 0 0 1
71 1 3 -0.3179 6.224541525274325 20.622196720259993 4.2222397942517755 0 0 1
72 1 1 -0.143053 5.617199426356713 20.988316349739133 1.9364002884169005 0 0 1
157 1 1 -0.131353 19.655152614052287 40.4337708624475 1.3473105436736807 0 -1 1
222 1 1 -0.137553 21.239789023851287 37.56037337744474 5.028767304330599 0 -1 1
242 1 9 0.148947 20.272907466524877 37.420949862181146 4.557445073999179 0 -1 1
194 1 1 -0.029353 22.32441040488447 38.03200385267243 4.275869688324825 0 -1 1
187 1 9 0.166947 19.856235524846486 38.303628871050115 1.7762991369893424 0 -1 1
166 1 1 0.134047 21.542561853863177 39.411050651633296 2.4971550590566487 0 -1 1
167 1 3 -0.3179 22.173703061954786 38.28172884665904 2.93863370058404 0 -1 1
165 1 1 -0.110053 20.299638622242718 39.291650110486074 1.8623136618322222 0 -1 1
180 1 10 0.110147 17.770027613625896 39.427906646246946 1.0703705290112664 0 -1 1
158 1 4 0.09354700000000001 18.28953858811639 40.31355464984068 0.6813867635926696 0 -1 1
223 1 9 0.148947 24.40877654976249 38.586739543250154 4.289630829902795 0 -1 1
195 1 1 -0.137553 23.574808889796362 38.21749198077939 4.878908367003919 0 -1 1
387 2 9 0.166947 14.207931727420231 24.867405433261766 12.30703445019397 0 0 0
367 2 3 -0.3179 15.762571868871499 23.097820830664606 11.1795741227931 0 0 0
365 2 1 -0.110053 15.00565281413731 25.30512516309665 11.715217069216482 0 0 0
357 2 1 -0.131353 15.234494546754204 26.696253248064348 11.72289199819786 0 0 0
366 2 1 0.134047 15.873830906170971 24.45259228182661 11.021126024496116 0 0 0
368 2 1 -0.143053 16.930510846282406 24.974918810768653 10.262952044186536 0 0 0
369 2 1 -0.112053 17.146479222568352 26.36446711405862 10.2316263491726 0 0 0
441 2 9 0.148947 17.454141384351317 21.177870420219065 10.60671018933109 0 0 0
388 2 9 0.169947 17.600533120568677 24.293311225537746 9.748459230024638 0 0 0
389 2 9 0.174947 17.991072857120056 26.780947229589454 9.690266944519086 0 0 0
358 2 4 0.09354700000000001 14.386477291021551 27.593772032069197 12.621335431312746 0 0 0
380 2 10 0.110147 13.327102103701726 27.372679902780533 12.448322058001681 0 0 0
379 2 10 0.110147 14.53719562519494 28.649870938323296 12.365528934588179 0 0 0
356 2 1 0.088047 16.321356344102043 27.216023582681817 10.984129967443593 0 0 0
355 2 3 -0.3032 16.670910194257512 28.537878532346433 11.106282668791884 0 0 0
354 2 1 0.103047 17.199464616373938 28.999567809420828 12.290595854122312 0 0 0
390 2 9 0.153447 18.313518883566605 27.18603151439029 12.72006510558084 0 0 0
241 1 9 0.150447 20.575697548812496 36.859601479290774 6.965075493157697 0 -1 1
221 1 1 -0.07205300000000001 21.414533756577626 37.24223885869112 6.386645768105086 0 -1 1
220 1 8 -0.5141 21.90700877233111 37.09573922922085 9.221415164812942 0 -1 1
198 1 2 0.5873 22.84745150262287 37.00314825821071 8.449526569804329 0 -1 1
197 1 1 -0.178653 22.677598021284044 37.392091972795264 6.9987355989454745 0 -1 1
196 1 1 -0.07205300000000001 23.748710759769544 37.91957473864088 6.2409193326772465 0 -1 1
225 1 9 0.170447 24.781949059760798 35.61968596096727 7.003238170740538 0 -1 1
224 1 9 0.150447 24.719671149071026 38.09343359193525 6.700230496066258 0 -1 1
199 1 1 -0.153653 24.181763077740346 36.472539867723505 8.918635753972918 0 -1 1
201 1 1 -0.157553 26.300435135849497 35.3225031574547 8.497123483150578 0 -1 1
200 1 1 -0.054553 25.057527919309763 35.79198081654406 8.040736476272377 0 -1 1
240 1 9 0.170447 23.894122551361114 37.122296821010515 10.97908723287416 0 -1 1
219 1 1 -0.054553 24.55183274478349 36.61644505804188 10.273678937486292 0 -1 1
226 1 9 0.153447 26.97623971737285 34.8248115736463 7.8080756326982375 0 -1 1
203 1 3 -0.3032 27.89439666373665 35.08217050731034 10.305780547587588 0 -1 1
218 1 1 -0.157553 25.783918584974064 36.122485198042966 10.730466510643614 0 -1 1
239 1 9 0.153447 26.060583316432965 36.249199165790486 11.776261635105877 0 -1 1
202 1 1 0.103047 26.6675394126453 35.4962086904357 9.84345028096315 0 -1 1
204 1 1 0.088047 28.985546733289794 34.957811431382076 9.481625102799496 0 -1 1
228 1 10 0.110147 29.41382111757518 38.152390943397265 8.262200637895921 0 -1 1
206 1 4 0.09354700000000001 29.06673447449966 37.50926058972394 9.083376928756975 0 -1 1
227 1 10 0.110147 27.973273129013496 37.54238588151418 9.068799031116859 0 -1 1
229 1 11 0.281947 27.906816837358644 37.612966355002996 11.74599877676334 0 -1 1
208 1 6 -0.007653 28.880210054542086 38.047466662534625 11.537954778516688 0 -1 1
207 1 5 -0.0171 29.544004991972866 38.087371523663855 10.344347637653755 0 -1 1
237 1 9 0.169947 31.046274344083518 32.51643107541017 8.249273266908807 0 -1 1
238 1 9 0.174947 29.061875923473618 32.82648586851888 9.763612119841321 0 -1 1
214 1 1 0.134047 31.220273030326602 34.61577694363799 7.799072907623554 0 -1 1
216 1 1 -0.143053 30.630399294384024 33.5040415732661 8.42055450842458 0 -1 1
205 1 1 -0.131353 29.568484121038768 36.08371320859231 8.859874530900445 0 -1 1
217 1 1 -0.112053 29.518996468426888 33.677158871261895 9.267869592045086 0 -1 1
247 1 13 0.06098 32.35758014954954 36.0654541952518 5.704686395275475 0 -1 1
246 1 13 0.06098 33.877589793695115 35.14092935746574 5.811272110895975 0 -1 1
215 1 3 -0.3179 32.32265725490734 34.41442863502951 6.991112589168903 0 -1 1
213 1 1 -0.110053 30.684152291374005 35.89807055788584 8.026135381694376 0 -1 1
248 1 13 0.06098 33.39055958623843 36.20482426254332 7.157117385111115 0 -1 1
236 1 4 0.114647 33.023177633283325 35.51783862670465 6.383917167470973 0 -1 1
235 1 9 0.166947 31.131579022771792 36.77183774811884 7.567280205027328 0 -1 1
516 12 15 0.32 31.789202993084498 39.80734843434822 6.711110561140058 -1 -3 0
515 12 14 -1.32 31.522223634608743 39.08186054146568 7.319289995828439 -1 -3 0
212 1 7 -0.113353 30.74323310705084 38.746247768164125 10.472523140559376 0 -1 1
234 1 12 0.234947 31.414314485227308 38.89752089111486 9.628593040354703 0 -1 1
501 5 14 -1.32 18.420483077886075 25.723319637690697 16.118570868843737 0 -1 -1
502 5 15 0.32 19.0002903722799 25.529726460348677 15.347729790479537 0 -1 -1
422 2 1 -0.137553 17.45210532480422 21.46653401365034 11.653167084074385 0 0 0
394 2 1 -0.029353 16.572354972157427 22.4630730842271 12.089782889125445 0 0 0
395 2 1 -0.137553 16.54686466200546 22.827282907417402 13.446108083450177 0 0 0
423 2 9 0.148947 15.85060219809644 23.582003713165108 13.794685982851629 0 0 0
396 2 1 -0.07205300000000001 17.423322461427592 22.220395292558333 14.36113732029266 0 0 0
424 2 9 0.150447 17.36072734366659 22.508429025966386 15.40774552563974 0 0 0
419 2 1 -0.054553 19.875250297505723 22.754294030625537 16.207338065273582 0 0 0
439 2 9 0.170447 19.372596837245716 23.39203958630034 15.485367784414414 0 0 0
400 2 1 -0.054553 20.734758469958336 20.615032252331666 16.973721310746235 0 0 0
399 2 1 -0.153653 19.979302937680913 21.351239782028426 16.029973905280432 0 0 0
418 2 1 -0.157553 20.432272249241468 23.376551300179496 17.3357610541254 0 0 0
438 2 9 0.153447 20.309621565218038 24.450467826680544 17.461404693873433 0 0 0
397 2 1 -0.178653 18.368093167727707 21.262991848111774 13.920100670541956 0 0 0
511 10 14 -1.32 13.288156352525363 30.691777599453037 16.056498845532108 0 0 0
512 10 15 0.32 12.698570074098143 31.473644967260185 16.143214581563054 0 0 0
384 2 10 0.09898 13.521021565772331 27.085606756395585 18.055234199373864 0 0 0
383 2 10 0.09898 13.317567181414491 28.77598304581983 17.524386212501184 0 0 0
382 2 10 0.09898 14.876812506613716 28.242452801174064 18.20853585499055 0 0 0
362 2 4 0.005547 14.02458820803107 27.939214647285247 17.59139358833094 0 0 0
381 2 11 0.281947 13.180386996524655 28.777910340383286 14.957119968278842 0 0 0
385 2 12 0.235947 16.183342549286074 26.25485261558402 16.70354130541055 0 0 0
363 2 6 -0.120353 15.554022373759654 26.718684449471272 15.95467400467039 0 0 0
361 2 5 -0.0291 14.489796434923795 27.56782897838068 16.250381638791303 0 0 0
386 2 12 0.234947 16.422054715919387 26.119819226504305 14.004903214948225 0 0 0
364 2 7 -0.113353 15.67055280295687 26.642839388339084 14.587508042075353 0 0 0
359 2 5 -0.0171 14.662554418626181 27.421723432720725 14.059085008410966 0 0 0
360 2 6 -0.007653 13.953802383527767 28.02258972120256 15.061326213888346 0 0 0
353 2 1 -0.157553 16.840359040802834 30.272261924510964 12.75998637571427 0 0 0
378 2 9 0.153447 16.185965008749204 30.899421317005846 12.16188101546132 0 0 0
377 2 9 0.170447 17.024967124931713 31.71235212198215 14.367567019125 0 0 0
352 2 1 -0.054553 17.309093201308542 30.724221500746733 14.009397158830893 0 0 0
373 2 1 -0.07205300000000001 16.403309482466334 30.5743397732213 17.19242030213649 0 0 0
392 2 9 0.150447 15.883397329232874 30.44460219828758 16.24280418294405 0 0 0
374 2 1 -0.137553 15.620645964502499 30.72079920185721 18.348875718389724 0 0 0
432 2 10 0.09898 18.083064100194306 27.841253289364975 17.395615419811694 0 0 0
370 2 1 -0.157553 18.035302184308726 28.177039822157088 13.065522320225485 0 0 0
371 2 1 -0.054553 18.496670128876648 28.618461856384076 14.31278529822507 0 0 0
391 2 9 0.170447 19.11593843246215 27.955952966526578 14.918028472865956 0 0 0
349 2 1 -0.178653 17.81532875598512 30.593577749504927 17.286268992068308 0 0 0
351 2 1 -0.153653 18.140918632343446 29.8944136945527 14.790862886250622 0 0 0
350 2 2 0.5873 18.7164713544981 30.343293849030573 16.100379451131236 0 0 0
372 2 8 -0.5141 19.928576379939795 30.42286544028226 16.22630022579246 0 0 0
348 2 1 -0.07205300000000001 18.409745551621253 30.780721982260175 18.5569681467513 0 0 0
376 2 9 0.150447 19.49194703786104 30.820962402428446 18.651741669782616 0 0 0
315 2 6 -0.120353 11.76626285406839 36.52302205101366 17.779278042542078 0 0 0
337 2 12 0.235947 11.008749645409834 36.37608304082061 17.02022786611766 0 0 0
313 2 5 -0.0291 11.90332380972669 37.73046422993045 18.468309301540618 0 0 0
316 2 7 -0.113353 12.710433676076045 35.64329818349777 18.27779748043165 0 0 0
338 2 12 0.234947 12.90813414766526 34.60369593707736 18.029095053187323 0 0 0
210 1 4 0.005547 29.34999566366467 38.89305979531321 13.863140737303151 0 -1 1
230 1 10 0.09898 28.982183867529507 37.94555842189654 14.277620541992862 0 -1 1
209 1 5 -0.0291 29.687267088435238 38.69450350404311 12.45051154439693 0 -1 1
499 4 14 -1.32 26.573242021769662 38.00237121348896 13.508116230586632 -1 0 -1
500 4 15 0.32 25.759865409938158 38.07245332898636 14.05766139107784 -1 0 -1
335 2 10 0.09898 10.473509314756654 38.88013603528107 17.39991450171206 0 0 0
314 2 4 0.005547 11.062330185768902 38.925851832483936 18.320980270984204 0 0 0
336 2 10 0.09898 11.69881480955921 39.82071616677086 18.31352570678709 0 0 0
231 1 10 0.09898 30.22221973433512 39.235184610757756 14.428018479914996 0 -1 1
232 1 10 0.09898 28.534351455979266 39.623985057639736 13.9358165044807 0 -1 1
233 1 12 0.235947 31.627075574136583 39.67728967542856 12.301364694667479 0 -1 1
211 1 6 -0.120353 30.8425666603561 39.13145349773823 11.795963741508237 0 -1 1
431 2 10 0.09898 17.53772091266579 26.527665025578543 18.45005530700012 0 0 0
168 1 1 -0.143053 22.15366714320908 40.66598460080171 2.6393811631105946 0 -1 1
401 2 1 -0.157553 21.32435708906593 21.249602710147542 18.081172135318667 0 0 0
402 2 1 0.103047 21.14099024149333 22.62535534869161 18.279048800132916 0 0 0
426 2 9 0.153447 21.91806536816735 20.67702228862255 18.786598248268746 0 0 0
403 2 3 -0.3032 21.698661842996362 23.252999525611923 19.36429182473632 0 0 0
421 2 1 -0.07205300000000001 18.341143722230022 20.86697705572514 12.563022783305474 0 0 0
393 2 9 0.148947 14.536145052490294 30.73093459131723 18.259646692640796 0 0 0
410 2 4 0.005547 18.090351923391335 27.473627622064676 18.428354253696828 0 0 0
346 2 1 -0.029353 16.22646871046611 30.827732253621626 19.606357479087098 0 0 0
347 2 1 -0.137553 17.61874861632421 30.87412432525656 19.71314773182906 0 0 0
430 2 10 0.09898 17.6054265425724 28.204772060579042 19.0839332304423 0 0 0
333 2 11 0.281947 13.245745111525315 38.36105317456026 20.094626445208128 0 0 0
411 2 6 -0.120353 20.62481906250889 27.705221586707154 18.23285029194097 0 0 0
408 2 6 -0.007653 19.84711464067753 26.386074476249554 19.879337594979354 0 0 0
409 2 5 -0.0291 19.472216142230756 27.226063804931844 18.854655327115033 0 0 0
407 2 5 -0.0171 21.216876702320473 26.40172606006593 19.91772671419647 0 0 0
433 2 12 0.235947 20.574153758868352 28.321101183228294 17.342534899818823 0 0 0
412 2 7 -0.113353 21.718328421435622 27.205075675580574 18.91633511364222 0 0 0
434 2 12 0.234947 22.777799465055004 27.332307244477583 18.720543605841318 0 0 0
311 2 5 -0.0171 13.398678143570656 36.32323222131193 19.258656258808124 0 0 0
312 2 6 -0.007653 12.93532865334741 37.60449837569238 19.37587328162643 0 0 0
334 2 10 0.09898 10.397501713797329 39.003789729813256 19.191334600183406 0 0 0
331 2 10 0.110147 15.356621671249137 35.646343378642655 19.50059691534297 0 0 0
339 2 9 0.166947 15.840712443920305 33.38276713511463 19.857359494213583 0 0 0
310 2 4 0.09354700000000001 14.443711253569873 35.723761164022 20.103662560333845 0 0 0
85 1 11 0.281947 10.079192073101405 26.064223101065103 0.3686183483235903 0 0 1
398 2 2 0.5873 19.375521375025755 20.6116791856179 14.846008711209732 0 0 0
427 2 10 0.110147 22.937504382387512 25.269012833274882 20.334220803344593 0 0 0
417 2 1 -0.112053 20.305536741722847 22.210760839543052 21.062858009557406 0 0 0
416 2 1 -0.143053 19.723641521237692 22.264779084227523 22.342343963397237 0 0 0
413 2 1 -0.110053 20.70577516963482 24.46075101934182 22.702899725023247 0 0 0
414 2 1 0.134047 19.93538577364586 23.381498816773696 23.162062546367903 0 0 0
415 2 3 -0.3179 19.38250574291055 23.418593123821093 24.41788581159379 0 0 0
435 2 9 0.166947 20.84024534003364 25.319171576432083 23.354725971092307 0 0 0
405 2 1 -0.131353 21.288258766347454 24.41741974947495 21.416901538983563 0 0 0
436 2 9 0.169947 19.108394639471108 21.447356334628832 22.70682754347767 0 0 0
442 2 1 -0.029353 19.865406096231048 22.640645187988387 25.446348918931758 0 0 0
470 2 1 -0.137553 21.211531234449374 22.23346306012699 25.47536123522282 0 0 0
490 2 9 0.148947 21.89105487971272 22.52669849553939 24.68139987190761 0 0 0
469 2 1 -0.07205300000000001 21.69238312930931 21.46365974351874 26.547216419938042 0 0 0
404 2 1 0.088047 21.0968492876222 23.281978559374597 20.603042889876736 0 0 0
437 2 9 0.174947 20.13910835219762 21.341105157305584 20.436595766858947 0 0 0
489 2 9 0.150447 22.739549993342518 21.168590764573835 26.573961592981394 0 0 0
406 2 4 0.09354700000000001 22.040725440298328 25.62097751601587 20.861379613051582 0 0 0
340 2 9 0.169947 13.176348187830406 30.789532046732365 22.012357273004003 0 0 0
320 2 1 -0.143053 13.415634699087464 31.78156376328294 21.644407534764472 0 0 0
428 2 10 0.110147 22.365896197136035 26.272156398643222 21.681972203572897 0 0 0
321 2 1 -0.112053 12.562500212401861 32.86985157978159 21.89624303490503 0 0 0
308 2 1 0.088047 12.903990627824717 34.149966726375744 21.43483586952569 0 0 0
307 2 3 -0.3032 12.138378123471307 35.21510985559008 21.835995407417204 0 0 0
332 2 10 0.110147 14.657637215235074 36.40496924419173 20.937773560209273 0 0 0
341 2 9 0.174947 11.652782825443698 32.74029667467201 22.47483604358955 0 0 0
330 2 9 0.153447 13.70382611786819 34.61802279680496 23.907026280610868 0 0 0
342 2 9 0.153447 11.696128132338536 37.81968176558328 21.818748225452822 0 0 0
306 2 1 0.103047 12.636515107141792 36.109231569360986 22.75407942322846 0 0 0
305 2 1 -0.157553 13.483729251813235 35.67418871685732 23.789942084932132 0 0 0
329 2 9 0.170447 14.728586025250804 36.27145220019488 25.454203256421945 0 0 0
304 2 1 -0.054553 14.062384756411262 36.60787871739339 24.66351578858201 0 0 0
322 2 1 -0.157553 12.35767253558757 37.473153234884364 22.609317395722346 0 0 0
303 2 1 -0.153653 13.821875252498941 37.98304808792628 24.48708255552201 0 0 0
343 2 9 0.170447 12.793390309492633 39.478631180041916 23.26721061951041 0 0 0
302 2 2 0.5873 14.492049414386695 38.96277701229037 25.398599624590513 0 0 0
324 2 8 -0.5141 15.402654991717517 39.6693684513706 25.0001897196068 0 0 0
323 2 1 -0.054553 12.97382893359244 38.41685025711267 23.4474987244789 0 0 0
472 2 9 0.150447 18.817993653914662 21.250891962530023 28.391542845971067 0 0 0
445 2 1 -0.178653 20.82971689200451 21.074046951766373 27.588844586314256 0 0 0
443 2 1 -0.137553 19.008036410274077 22.2859972179569 26.50093317953618 0 0 0
471 2 9 0.148947 17.976506997902945 22.627262142906112 26.490247462934732 0 0 0
444 2 1 -0.07205300000000001 19.484920261390844 21.503250536990063 27.5701482502157 0 0 0
344 2 9 0.150447 12.088648958064631 38.10811007366518 26.48737096444208 0 0 0
293 2 9 0.174947 12.910735111944776 34.895741357266395 32.18929396900542 0 0 0
272 2 1 -0.112053 12.97496848791782 35.94813125724628 32.45003522606047 0 0 0
292 2 9 0.169947 12.792349114758158 36.63203900899488 30.40222441095352 0 0 0
345 2 9 0.148947 11.375316238755827 38.26494804780931 28.86336293811598 0 0 0
271 2 1 -0.143053 12.897406123854601 36.92649902187812 31.441620605093945 0 0 0
326 2 1 -0.137553 12.369036167629856 38.59073014467751 28.571995764121937 0 0 0
269 2 1 0.134047 12.937477270542525 38.289796951833544 31.784795769464793 0 0 0
300 2 1 -0.07205300000000001 14.905456229244844 39.536524256069384 27.819380765214664 0 0 0
299 2 1 -0.137553 14.499491610090244 39.599423301440275 29.163078779157882 0 0 0
327 2 9 0.148947 15.151362439173411 40.04053848136985 29.910540424806687 0 0 0
325 2 1 -0.07205300000000001 12.77865030927962 38.50650258042318 27.22825696316392 0 0 0
270 2 3 -0.3179 12.819260792196738 39.27784885448219 30.837268431702885 0 0 0
298 2 1 -0.029353 13.234456414443201 39.12736316523939 29.537472365388965 0 0 0
301 2 1 -0.178653 14.051776208284187 38.98577496452213 26.840661017378373 0 0 0
328 2 9 0.150447 15.878687419490197 39.92881332458014 27.530929550813692 0 0 0
96 1 9 0.150447 9.788560234408804 21.64463999252228 36.1722872706996 0 0 0
81 1 9 0.170447 10.576096530820648 24.6757742556459 37.83771108797603 0 0 0
77 1 1 -0.07205300000000001 10.737565407803816 21.26322545689685 35.801757318807155 0 0 0
53 1 1 -0.178653 11.940953632024199 21.490780552534687 36.508584012995094 0 0 0
375 2 9 0.148947 18.079500292150055 30.991184385537114 20.68866071253217 0 0 0
52 1 1 -0.07205300000000001 13.151184866835338 20.984148356697386 35.98126135639264 0 0 0
80 1 9 0.150447 14.087426908004458 21.146904268322142 36.5119420171661 0 0 0
493 2 13 0.06098 12.490224556545787 25.89831768648928 37.31198345361982 0 0 0
278 2 4 -0.058853 13.358057251317927 25.58580013390577 36.72022023779332 0 0 0
491 2 13 0.06098 13.003193404172318 24.913056628406267 35.931372164057436 0 0 0
510 9 15 0.32 10.557644148762144 27.745449846428702 38.67420110724043 1 0 -1
281 2 9 0.170447 13.836989109532817 31.179839018732583 36.34143486055927 0 0 0
250 2 1 -0.137553 15.433541988883542 27.009041579381794 36.35103258959684 0 0 0
249 2 1 -0.029353 14.057969338544755 26.805200572490055 36.14470310955446 0 0 0
277 2 1 -0.137553 13.321526261788904 27.75972397438039 35.422988260779164 0 0 0
297 2 9 0.148947 12.258435851408484 27.60098438578789 35.25583032795658 0 0 0
280 2 9 0.150447 17.11922733533709 28.329071540046623 36.06094559041527 0 0 0
251 2 1 -0.07205300000000001 16.05705030325288 28.176576359997707 35.878448380697535 0 0 0
276 2 1 -0.07205300000000001 13.942842737906068 28.92555854106728 34.94152792156949 0 0 0
252 2 1 -0.178653 15.312317119365723 29.163319012901155 35.200221768735354 0 0 0
255 2 1 -0.054553 14.137373072462566 31.94851390642606 35.63155575902902 0 0 0
296 2 9 0.150447 13.352771376399478 29.643688768086403 34.377987418860144 0 0 0
253 2 2 0.5873 15.998005583649396 30.435417297845454 34.76017580480958 0 0 0
275 2 8 -0.5141 17.173214323510663 30.421954246850316 34.42833862886817 0 0 0
254 2 1 -0.153653 15.225116043551958 31.734559375242018 34.7546168076438 0 0 0
286 2 10 0.09898 8.301988460430692 36.76472053748676 38.00980707273221 0 0 0
259 2 1 0.088047 13.127521894364163 36.33170384513927 33.79626497834635 0 0 0
285 2 11 0.281947 10.782485662790583 36.847398476627724 35.04178363050061 0 0 0
265 2 4 0.005547 8.91907967920832 36.305159788799045 37.227495332319016 0 0 0
287 2 10 0.09898 9.039070349772228 35.23407749943154 37.43672805537621 0 0 0
264 2 5 -0.0291 10.239148329889444 36.950985425048444 37.18999582549261 0 0 0
288 2 10 0.09898 8.415376816488259 36.43005830424035 36.26062077142312 0 0 0
263 2 6 -0.007653 11.005202210388301 37.15690525578577 36.05578163990102 0 0 0
282 2 9 0.153447 12.617064835318226 33.33547499244188 36.29709114803615 0 0 0
258 2 3 -0.3032 13.145667717918784 35.3886546545753 34.80000787499044 0 0 0
266 2 6 -0.120353 10.944923312061368 37.44381206049581 38.29266777538682 0 0 0
262 2 5 -0.0171 12.160407808814256 37.75652208523938 36.471744486600656 0 0 0
268 2 1 -0.110053 13.059192862591138 38.670821429291564 33.12950512503354 0 0 0
256 2 1 -0.157553 13.448654702446273 33.173006060019524 35.61858429636594 0 0 0
257 2 1 0.103047 13.841453738521146 34.202066738846746 34.75221860643695 0 0 0
283 2 10 0.110147 14.210921053463752 37.71183926616792 36.038940315680705 0 0 0
261 2 4 0.09354700000000001 13.294034456866207 38.13489073499679 35.60647947254006 0 0 0
260 2 1 -0.131353 13.158897813235168 37.69831858038919 34.1454260003725 0 0 0
284 2 10 0.110147 13.413393174579012 39.22385547076308 35.65931404119571 0 0 0
274 2 1 -0.054553 15.641917204556366 32.790623125355694 33.914586336959296 0 0 0
295 2 9 0.170447 16.50806556882207 32.657664394732 33.267026421549 0 0 0
273 2 1 -0.157553 14.959029389126016 34.02104855783091 33.917183140794634 0 0 0
294 2 9 0.153447 15.310599379343573 34.832666175336215 33.286566374717744 0 0 0
267 2 7 -0.113353 12.145695218302237 37.949377409199116 37.83044190185998 0 0 0
505 7 14 -1.32 14.73037042502373 39.758545126036296 37.617321105486695 1 -2 0
291 2 9 0.166947 13.079167631477805 39.73068209601278 33.370490324183386 0 0 0
290 2 12 0.234947 12.977126555608454 38.42123779955608 38.352168686388275 0 0 0
78 1 1 -0.137553 10.747812715092257 20.539416247482947 34.60053174139638 0 0 0
185 1 12 0.235947 17.090902667504388 39.71151213907473 36.959647531521206 0 -1 0
163 1 6 -0.120353 17.688775056557255 39.89935930111711 37.848917039853205 0 -1 0
184 1 10 0.09898 20.72884814582602 39.69721412521367 36.691061245871424 0 -1 0
161 1 5 -0.0291 19.04134264722033 40.23920459134217 37.83902547957972 0 -1 0
66 1 4 0.005547 12.651940029424585 24.998189111008585 40.454746364393934 0 0 0
82 1 9 0.153447 8.393313575138551 25.13734284259291 38.85885025575082 0 0 0
57 1 1 -0.157553 8.790907110655153 24.12618699533897 38.90086039577982 0 0 0
54 1 2 0.5873 11.938966877284066 22.259028873188186 37.80873792367867 0 0 0
55 1 1 -0.153653 10.608632145168944 22.57109154439706 38.4208620328613 0 0 0
56 1 1 -0.054553 10.043268334428815 23.85982680345046 38.32367870166648 0 0 0
75 1 1 -0.054553 9.90586197238185 21.55537303072897 39.09485468249736 0 0 0
86 1 10 0.09898 12.409350623457605 24.923629468661233 39.39000936229702 0 0 0
59 1 3 -0.3032 6.929866035573777 23.423489959138912 40.239037819604995 0 0 0
160 1 6 -0.007653 19.44414451948915 40.44173880875237 39.14981198099918 0 -1 0
58 1 1 0.103047 8.102515273573436 23.11708818649704 39.58825677258519 0 0 0
74 1 1 -0.157553 8.658613344171815 21.826305939670913 39.67421044592917 0 0 0
95 1 9 0.170447 10.333536944568648 20.55897599995757 39.194750236166875 0 0 0
76 1 8 -0.5141 12.978235874450029 22.59004832517234 38.36005762065609 0 0 0
492 2 13 0.06098 14.015452501478192 25.011429384846227 37.382898523926954 0 0 0
497 3 14 -1.320078 12.058775230504036 40.09315446767902 20.819777390802304 2 -5 -1
509 9 14 -1.32 10.73939000267674 26.882918635425668 39.11229249032692 1 0 -1
279 2 9 0.148947 16.016025724485612 26.27228041630063 36.8971877317172 0 0 0
289 2 12 0.235947 10.559400303348433 37.40034954877511 39.30446101304152 0 0 0
186 1 12 0.234947 16.25365605995397 39.70893983861383 39.52732255405127 0 -1 0
164 1 7 -0.113353 17.259214062047857 39.89403581897954 39.15504037545316 0 -1 0
159 1 5 -0.0171 18.342960748445627 40.21115164646224 39.93183653725903 0 -1 0
162 1 4 0.005547 19.87545158278473 40.38557028854414 36.638906395869014 0 -1 0
183 1 10 0.09898 19.279073899107697 40.149493729301106 35.74847220656039 0 -1 0
93 1 9 0.174947 5.343298542431128 21.36842334275689 40.53220498682248 0 0 0
94 1 9 0.153447 8.14715938368937 21.02974781722606 40.205289201990915 0 0 0
318 2 1 0.134047 14.599483897250973 31.979539098737877 20.921811203608186 0 0 0
97 1 9 0.148947 9.820032893444388 20.36510008265708 34.06561730859983 0 0 0
309 2 1 -0.131353 14.073716500972568 34.35152473279197 20.665546902813514 0 0 0
468 2 8 -0.5141 22.40201499449933 20.59748285719619 29.28805251416505 0 0 0
87 1 10 0.09898 13.58320628591295 24.46070573799937 40.66094005931703 0 0 0
429 2 11 0.281947 19.185276147805546 25.759086723031036 20.46393934696401 0 0 0
319 2 3 -0.3179 15.45367139669174 30.921569073374954 20.733290746211573 0 0 0
317 2 1 -0.110053 14.92150629802001 33.25426976440452 20.421871318899008 0 0 0
88 1 10 0.09898 12.763686353210158 26.063844317093718 40.69172908326457 0 0 0

Velocities

179 -0.01589609704131149 -0.013621331737124834 0.008221347249919088
178 -0.008939850049332555 -0.0069000587510509095 0.002590716799902497
153 -0.006211430937021137 -0.0005470872460061253 -0.0030981864110332944
169 -0.0004643825456178703 -0.00013786691739930626 0.005287961428584907
156 -0.0012444138322847353 0.004203246853996587 0.002418233363942824
154 -0.003882327150737885 -0.0030237666225403723 -0.005246551553255574
155 0.000611356296992129 0.004843568758824573 -0.0030691243802801562
425 0.0022792358116508027 0.00987281046452643 -0.02951885498653902
189 0.016371249081762684 -0.01882769722504381 -0.02471497833538323
188 -0.010095866115750647 -0.005632939322902173 -0.0024232170976529483
127 -0.007235077848843791 -0.0018349263098066293 0.02094661794000672
170 0.005874697146293554 -0.0035603620098940817 0.00727889752716496
145 0.02135720228027931 -0.006646531157871077 -0.011397824982697247
177 -0.004758373854134902 0.004578407933004112 0.028169109315777718
152 -0.0008119014424664221 0.0033828517911696715 0.001563226037916969
192 0.010747436964537789 0.01675827235024285 0.002315640163882496
141 0.010836783688812121 -0.025482133810189666 -0.021544536085485885
120 0.002300345370989264 0.004106011758279325 0.003841662816391044
174 0.0077174142220824095 -0.004975230940064085 0.00021660873364418357
140 0.000962958333131012 0.009610445841732753 0.0028020408310758015
176 -5.318904514984852e-05 0.01137419902297339 0.017877119792093887
147 -0.0010341774794911524 0.008853942895699674 -0.0007505887518532992
146 0.003212879112762105 -4.229825059545527e-05 0.0008534006958289741
149 0.005003000628531677 -0.008243132760141155 -0.008340085456072458
172 -0.002572077776267867 -0.0006826949463119107 0.0025097876356696427
171 0.004469373254758714 0.0008414646132762673 0.0023286980307077056
191 -0.009769602738753672 0.005309309721546491 -0.003189526871352117
173 0.008272133244636382 -0.010600211135546878 0.005343042183612134
151 0.0004287293247316719 -0.0028269162528178266 -0.004523851458386853
150 -0.007537627633999157 0.00040279336707765975 0.0016560234872175948
148 -0.006312552064497828 -0.002128285612500459 -0.0027587120301516142
104 0.002388046102484602 -0.0009148124452828412 0.006183718283700928
129 0.005430856679098736 -0.0024548815237137546 0.0024580792927158435
105 0.0024035258723358118 0.0030187445012353972 0.0018549619164546511
130 -0.012195290933465577 -0.0067172972718297745 0.005151387296275392
125 0.002913875952612237 -0.005264128417196363 -0.0005108865189844697
101 0.0013040920193421318 0.002182990237522672 0.005078652712175369
102 -0.000570179235929294 0.0009287646562692757 0.003829785492180154
103 0.004901456544020869 -0.007826675743830941 -0.0019030708724636484
123 0.0004713025964138604 0.007199203248377533 0.006175868874594969
119 -0.0008995744320289464 -0.001154881842621931 0.006220040964445091
143 0.023071417721457405 -0.0016256524810114373 -0.00040454523895786616
124 0.005112087844789409 0.0013012986083253575 0.004349002305655529
131 0.00813569634158133 0.0027748686986069173 0.013380050749936595
121 7.384097981063799e-05 0.003545753008391729 0.007903203055895215
100 0.003610239789470681 0.007677712874203021 0.007768919512274011
106 0.0003097134923194982 0.003358854841546753 -0.0031515185552658913
108 0.0006865415328806894 0.005664699495234943 0.013533277535871847
107 -0.0017822092815688718 0.0027404637251221527 0.0066710729869053475
98 -0.006561439706104411 -0.005869140940386389 0.0019364305298291884
122 0.0005052320644999272 0.0011780480977501007 0.005144609816095966
142 0.010678940767889973 -0.0006509862569117452 0.012002390213261972
118 0.0023590211251248525 0.005952626810421327 -0.003314243649889155
99 0.0003288303116632552 0.003378508051248703 0.009867080619330292
175 0.00911808378043 -0.013778492626165897 -0.00584525183108335
440 -0.0025802077998342715 0.009868810767962706 -0.025165056503141322
420 0.012413073932488713 0.007066872571955173 -0.0025360148753875277
92 0.002493325379744062 -0.014426488311691918 0.01982509534636704
126 0.004658436220709958 0.00021842187747872412 -2.7179205747334485e-05
144 0.002381658487874456 0.00790571058745202 -0.03123492889117089
128 -0.004415740198343552 0.02549934611183096 0.014182335606009986
498 0.001434126638426242 -0.005130344836375659 -0.007455422856750811
496 0.01773828320139861 -0.013555893574446205 -0.016845958405094827
495 0.028393922309900954 0.01602330304442321 -0.009644458510368988
484 0.00256459070849601 0.0037316935901219326 -0.002622264037626599
494 0.011143901748514155 -0.0018740556755338857 0.003984571431309611
463 -0.0032206868191316834 -0.0025137084742684348 -0.0012705262621029983
462 0.0025446535186084266 -0.010199742562935385 -0.0012017819492161734
464 0.0023245736501249694 -0.002308446656372966 0.0003205593636552383
485 0.0014406397368702467 0.011445495339462566 0.02509798315659975
40 0.019633344530551492 0.03776881578795265 -0.008144731421815057
17 0.0030522618529908534 0.0008268906789678181 -0.0001671540114519737
504 -0.03274431395935464 -0.009555927377396382 -0.01079022758524893
483 0.003142330945572736 -0.026207179474483554 0.008765765284380255
39 -0.013346883694318603 -0.004357665297108458 -0.011003227717308712
38 0.008366227196137142 -0.0024320327862314894 0.013173027341739042
16 -0.0009935716915668298 -0.0015005098253828583 0.0008844444309208267
41 -0.009454592707118136 -0.007847568588160868 0.004085981558459132
503 -0.0052446919608422566 0.0041434740764629335 0.0075932163471220246
244 0.0016397723026712933 0.009839779677999323 -0.004658472454900683
26 0.005835806912299585 0.004779909362698704 0.0007667446552688448
47 0.00219181781279383 -0.0010047462734205353 0.020008591726614223
29 0.002507373920875564 -0.0008959535366320224 -0.0007965817501549175
49 0.009702150452843995 -0.004388882367945449 0.007046399062951401
1 -0.004734400931515158 0.0028781043282523388 0.002077291933550432
48 0.0077468584236552755 0.0038037640988761463 -0.00043801876303204367
28 0.004986209508724927 -0.0071482354746113955 0.004779969755310419
37 0.023304200062698805 -0.01331212786237181 0.02798436683875802
25 0.0049486494088729184 -0.001757564628975529 -0.0003580522626787275
46 0.009776462192127649 0.009031804925557612 0.001300562206605936
45 -0.014928769930192216 -0.005912851890239189 0.016594470464568405
15 0.014399957833633573 0.0020782962572766825 0.0016594904368959047
10 -0.0021638360375022627 -0.0008360711543628403 0.006594380618668914
24 0.0005439955839786142 0.0027979693451240283 0.0028130591269488695
482 0.019859376076948435 0.030690156684062643 -0.008297187996131307
481 0.02326988163076796 -0.0011485506896171712 0.000248067495811302
459 0.006359871745064512 0.00535717251106054 1.1316899813935532e-05
460 0.0058645857649017 -0.003581893541665401 0.004454359041920063
480 0.025401491060456197 0.02917847633445241 -0.0027499645320160217
461 0.001991006746192354 0.005390058133217151 0.0034758113640998367
18 -0.00023194052885465346 0.0037689517941866353 0.004450861273780365
457 -0.008556645196866004 0.004054383642278742 0.002693372193878147
476 -0.010805442936990707 -0.00430455097052674 0.015059506675214086
454 0.0009158305073572611 -0.0010841207476413191 0.008441925358475622
455 -0.001527720240908811 -0.0017009563210508927 -0.00011299592282413099
475 0.0047215175611926355 -0.024084489048006405 0.010797228377946503
453 -0.00015466802910006026 -0.0011384236066770408 0.003924281062163331
477 0.012439737159261199 0.0012482029614173163 0.01873743022423048
456 0.0010919772976681471 -0.0062815377766576586 -0.003402785581192802
458 0.009781270295090431 0.005645244691717505 0.0006275837974162818
479 0.010390006023438474 -0.012840637460373637 -0.013769121846216141
487 0.0009681516688717557 0.0014075977556803868 0.025694614581869002
465 -0.009229837119957451 0.002331498604918727 0.0028489207162890654
452 -0.002972875894322325 0.0032822154993670583 -0.0005482689829042818
451 0.0032080224630691642 0.0024405581357920527 0.005503189152506961
486 -0.021264323222030482 -0.006272622122037003 -0.014817189716377934
450 0.001693422708457713 -0.0006534914217793905 -0.0002839288012224288
466 -0.0012468464051511845 0.0026262109674335308 0.004204061858243263
448 0.003074620599888489 0.0015873837886686546 0.004741729894098014
449 -0.0022613631087975597 -0.0010856515619115147 0.000763048698023859
474 0.01957727707883002 0.023416427277849837 -0.0013010597905821213
473 -0.008065347138763715 0.0038978598276021206 0.010360044216469298
30 0.005354249499829316 0.0049424224179453035 0.0052796331000113566
243 0.004231323767459924 -0.0005711665048696764 0.01740121030197998
245 0.013530443540138264 -0.014775740230114838 0.014319698538313748
44 0.008178989415347863 0.0031520833875210777 -0.013398907986822113
488 -0.006673369468009116 -0.0015889369591003922 0.004912623211056189
467 -0.0017192304155931417 0.0018826545878596963 0.004168387126144382
447 0.0037525373406348747 -0.006808441835260276 -0.003454155832427171
139 -0.000920429396352875 0.0019505620461621083 -0.016286399462331607
446 -0.004609404304843356 -0.00019991885633695696 0.006148516263942987
136 -0.013663776446553968 -0.011019650225447484 0.02510633070443694
132 0.009420891240750765 0.017558234590314956 -0.006878652103063042
182 0.00026634225055894613 -0.013721127603963677 0.0039003168299209306
33 0.01718741204173543 0.0008788545123999096 -0.007898234286442008
6 0.002995803900312644 0.010661958382693501 0.007835824183458708
32 0.0037739374938085867 -0.0027436598436534135 -0.0019165065704583699
5 -0.004660950874241211 0.0012807844944878184 -0.00024986480405678614
27 -0.005259609535430213 0.004319104088434515 -0.0009742502863455125
4 0.004333360999927864 0.0012568898631164327 0.0047975799638511635
3 0.004930687462626242 0.00046951301735594325 -0.005936028062182257
2 0.006164946811078105 -0.003265328231860756 0.006520461542872088
9 -0.009044785270410206 0.011315024842273955 -0.005880783919261571
13 0.004914487191318553 -0.0029786253519843613 0.00035503012761395076
12 0.006495964510873899 -0.003014124641217556 -0.0035658516363392605
20 0.0020446501905701004 0.004000487375657506 -0.009043148651196879
36 -0.019727015570188917 -0.011040482406198416 0.013633072911806172
11 0.0068618922027886085 -0.00289748136233423 0.008696617240277826
114 -0.00667924707662354 -0.003715316679228337 -0.002445233368963279
134 0.018326883665523673 -0.005355794770165335 0.01757024430311059
34 -0.0010924258671922253 -0.005440871205626308 0.014129346972875902
7 0.008481515270399148 -0.0011727082799136866 0.014005742290064795
8 0.002001289276959091 0.004497654666835654 -0.0021787403754349875
507 -0.00262538937992594 -0.009924815221294946 -0.012341002583729731
115 -0.0023000276011042073 0.006661377435664542 -0.0012521592741821458
19 -0.001547767903537661 0.0030635883896501983 -0.0005766774390809327
42 0.017328030488677745 0.019776411838967167 -0.013592499137194763
14 0.00039180835521055726 0.004243484072093115 0.002808908965649877
35 -0.007075350325044251 0.007660394165251237 0.014753511474590964
43 -0.024284379304718516 0.015566865090844158 -0.003253200190808951
478 -0.015088668864495086 0.01746888013667431 0.014935935470424669
137 -0.015274266101824797 0.0033907591504757544 0.01754622773387944
508 0.023975065129511905 0.015109638636832344 -0.008162011190560309
138 -0.023104749263313677 -0.00868767553751182 0.006538936521865562
31 0.02881965383310375 -0.023067441977501817 0.00517229225438259
133 -0.007844396368160311 0.03446502412779399 -0.01701424623013492
21 0.0009691644871766829 0.0037033963550302043 -0.010034037011771586
23 0.0020763170839564566 -0.003738739706463984 -0.01469223193388061
79 -0.020545763496784514 -0.019654751351398193 -0.022974757501888717
50 0.00325111961943024 -0.0013754380807305725 -0.0038804911390208537
22 0.007455320111116864 0.0025012436298696194 0.0017501087994927244
112 0.0012315250980612326 0.00196853928421344 -0.006369799933140052
111 -0.00037504475267203716 -0.004114938271189453 -0.0037471971752969673
181 -0.0018176990434096698 -0.004051693050941704 -0.0064819175101853786
193 -0.008138385019517459 0.00018128372500609484 -0.005547423829213305
135 0.00037484615594323583 -0.00126493040964718 -0.02787035579473859
116 -0.005128801928874179 0.0014742546922094308 0.010809552864138091
113 0.0041032462134429565 -0.0022945901803785116 0.0004333985579922197
514 -0.014560893378991996 -0.010099117785645867 0.004365163060003437
190 0.008111720323687642 -0.021394897849998606 0.019170923033533446
110 -0.0037490267493205287 0.0017834073176024087 0.003709315111409435
513 -0.005970380689938679 -0.0006432705464907465 -0.0015242581111559416
51 0.00018680848854851258 -0.0060905474033772 -0.0051443170378299465
506 0.02362399721186151 -0.002051515137318458 -0.008268528826097856
117 0.004374472405073497 -0.0035650939044649223 -0.004835324761772119
109 0.0014186258983159255 0.0015941456348711385 0.0075623619141552065
60 0.004458760136613891 0.0025784628010217655 -0.0043822131201636414
70 0.0007360322942612153 0.004702069137377102 0.005419668773432805
73 -0.005553726181146583 0.0015344536072883386 0.0002510887936009054
91 0.026167488648800714 0.023775744234966558 0.0008155575357331518
83 0.004880263782493996 0.006633332219661282 0.006205995328384801
69 -0.001779591043070301 0.004675053946693937 0.006370043749355498
61 0.0010517224192628408 -0.0016228005196016722 0.0015126803390428957
68 0.0035114426636316184 0.005567325457051091 0.0034134166248172403
62 0.0011748431936349395 -0.0020790403541669704 0.0016537485018643864
90 0.019078117641454773 -0.0160537354730747 0.004938323718796048
67 0.0029786043737905056 -0.003889821048131153 -0.005162990141374814
63 0.0044809078276104065 -0.0007061921723145754 0.005740561435105654
84 0.016500695426586016 -0.01019156680252127 -0.01934058329764812
65 0.004009474148482813 -0.0022894944143009976 -0.0043416022098431975
89 -0.01638481994084063 0.014764171788186377 -0.012643764696449473
64 0.0012328804108285166 0.0035845165110989915 0.004617584995477914
71 -0.006522799756772465 -0.001976327486193794 0.005706160619453543
72 -0.006816819731809903 -0.0017515629772205264 0.002114218503373419
157 0.004616567932330081 -0.0011272788719482467 0.006211466514897312
222 -0.004179185808058251 0.00037768135842484947 -0.000890392304011246
242 -0.005570997413810604 0.005839142985837537 0.0003830042325899195
194 -0.001980454623249199 0.00111543813999866 0.005591415604309738
187 -0.0009810870283499947 0.006597076139862092 0.001605613363246283
166 -0.003526808880230675 -0.0004730348347969895 0.009229710656731213
167 -0.0015221300600605898 -0.00200944878575097 0.0155937379291379
165 -7.811018161579082e-05 -0.008956791930249194 0.008743984860335988
180 0.0051256620495646645 0.022639797927036936 -0.029269545275159185
158 0.0029641122007128037 -0.0018417839656606249 -0.0010054542998380986
223 0.004568362526093056 0.0024052117901118383 0.02866640680993112
195 0.00264781655413484 -0.00904230692812251 0.0049361893172062575
387 0.00105506223833928 -0.024198008249707137 -0.012614514630579938
367 -0.00179804639315397 -0.0023035866081148625 -0.0030928723800576876
365 0.005387993159526666 0.0070810020885453545 -0.0022352735399446197
357 -0.0005037149309261042 0.0009058939918987077 -0.002936215793185347
366 -0.002705171052085556 -0.004042901600365601 -0.0031441649264403477
368 -0.0022245906078137306 -0.0005181800351051683 9.181607583850528e-05
369 0.009267742004875715 0.002788347390894381 -0.0027214089073424336
441 0.0028619331632529807 -0.010474080543036071 -0.005469900931910373
388 0.0019057251485489327 -0.01406739809349655 -0.017302161755612177
389 0.011345595277541818 0.03989676281774619 -0.008547700494138737
358 0.0025795597929904783 -0.008942669825166567 -0.0038771820754046004
380 0.0023004271593145232 0.0034166896132132897 0.002706572065706484
379 0.016890433356176453 -0.017314754883951875 -0.012942710219204314
356 -0.004948147874845795 -0.004008676331001032 -0.004517100760612078
355 0.0058385298170056926 0.004252831882463203 0.0027068159530419813
354 0.004783891140000119 -0.0012940447543903489 -0.005569245524489219
390 -0.023569197483602103 -0.0036393754849409488 0.013064925605401952
241 0.0056696742369171755 -0.0001260392457630528 -0.019450171131296122
221 -0.0025019595749664883 -0.001162265663818928 -0.00812388906330395
220 -0.0008552248060147344 -0.006665964612859215 -0.0028573613912825273
198 -0.010891180812064017 -0.0014103816799207881 0.003045872417563851
197 -0.00908208848941968 -0.004930706249333248 -0.002557710426512079
196 -0.0016893423617684593 0.005800767141810305 0.002460105721197645
225 0.0037979233452078943 0.007618429595835025 -0.007065576725076529
224 -0.005586049457978564 0.0020221691344019885 -0.006205683208394054
199 -0.004310804474705811 0.00390816267824071 0.00037708384507738097
201 -0.0051807724735643355 -0.007992531829096419 -0.001372756096726811
200 -0.004388867231380105 -0.007458458865467966 0.003065309738532275
240 0.005034659687533693 0.006253528418292886 0.012261991427039216
219 -0.001175818257303373 0.008909004451960715 0.001354858506086402
226 -0.009899665374071527 0.019316532015492244 -0.004116901423431778
203 0.0030059396603197954 -0.0015479497581518027 0.0056433249614442965
218 -0.012702001079462748 -0.00139896861373341 -0.0033114673918154926
239 0.006151208049415842 0.011343828699089314 0.007337488051012714
202 -0.007799106026717098 0.006943538368668401 0.0015434276377617872
204 -0.0010311757597887957 -0.009942748124318728 -0.004159569488355744
228 -0.010064907977360526 -0.03399628492066681 0.009705414593400994
206 -0.0011663865900667222 -0.0038203130991518474 -0.00485978389623638
227 -0.005466213459242692 -0.003982104282094744 0.0235369717441169
229 0.0012309202379496662 0.0168853212950802 -0.027404812120040686
208 0.006695178083186295 -0.009215754806192009 -0.009503793160158687
207 0.004776223268412428 0.00031171896311475223 -0.007006299787906049
237 -0.0005284507896205446 0.00708118750227928 -0.010920059986844732
238 0.004243656580808118 -0.021735011672258372 -0.007567781505854028
214 0.0038821938818263653 0.006763502581243437 0.001903014115985507
216 0.008774239822206747 0.00035082785812157066 0.006179504260142588
205 0.005303786233096408 -0.009960011599048042 0.001537537247859272
217 0.002316561907854549 -0.0002795174495142515 0.007705556951008386
247 0.014424128656101484 0.014604935603200437 0.009059592621052114
246 -0.006791788680726007 0.013608668604105556 0.01382480637107858
215 0.0028603651495568367 0.0036113724494975558 0.0010273417967904723
213 -0.0066174987874070505 0.003693063383260404 -6.078868401586916e-05
248 0.020156363346639387 -0.003416224928928634 -0.0034392004416325954
236 0.002237627370622608 0.0012038394539243288 0.006183927352104386
235 0.020577826690357095 0.017325736048803494 0.002826197769018219
516 -0.004501511258635957 -0.006743002226691547 0.019246065294539247
515 0.011043196042533641 0.002587952157919607 0.0006100665458014493
212 0.005362023940943465 -0.008178028069155862 -0.005329733579181287
234 -0.01076752187318135 0.0032285148970342447 0.010417500163962694
501 -0.0009973080040028865 0.0033863681286483587 -0.002542587518207233
502 0.004139903974089945 -0.015469327128825313 -0.006346262457183741
422 -0.005995367176545982 0.0008436797629482363 -0.007546637930418903
394 -0.0016393289832235384 0.001695648538401508 0.001220434149870846
395 0.0047864032091324785 -0.0033056138440647983 -0.000979411293619678
423 0.007536733670771413 -0.011370487704750633 0.0028901281049069577
396 0.0025325911743617965 0.007676536473214273 -0.0005110687396359612
424 0.018594280430981575 0.006790651211658813 -0.012411665861618014
419 0.0004194666735426705 0.0060254887414936805 -0.0006167907247381262
439 0.026348991490123833 0.003042386387526682 -0.017881164870897234
400 -0.004132954677205346 -0.0005783177091113364 -0.0041100395677453935
399 0.0023523345164801215 -0.0013832857438684334 0.006206348495864554
418 0.005016532866157624 -0.002205287961574303 0.0059725572310685105
438 -0.02558909322260585 -0.011832352379558299 -0.01943948497941876
397 -0.004959327234612431 0.0013561456134247962 -0.0017398429804139951
511 3.683200815900687e-08 5.2669866903518674e-08 2.817238428053896e-08
512 -5.84613126328643e-07 -8.359982822778304e-07 -4.4716393358931646e-07
384 0.01114957914268142 0.012687303459096168 -0.01693461813476231
383 -0.004332989499618426 0.006751220274223909 0.0004760209634812589
382 0.015117201523132343 -0.020888616346980023 -0.0030202174489241326
362 -0.0002246980845226832 -0.0006657564241628314 -0.001265628944585267
381 0.007314863450111084 0.008241162135743128 -0.0045610770166820075
385 0.006670904470058911 0.01960961921314957 0.008729482258309568
363 0.002517308281734078 -0.0015216767070374523 -0.005937536431991101
361 0.0036512611931954313 -0.0037113644265657636 -0.0010453003815034832
386 -0.0008170963564191365 -0.006737803755861488 0.020982699893376124
364 0.002374903078482513 -0.01087941565813296 0.0006773741100965466
359 -0.005965025136998337 0.0009107651605317262 -0.0023601434322756327
360 0.0037906801376943666 -0.009357689935296065 -0.0043335189360927265
353 0.0025987805301611105 -0.009437451771517903 -0.003722832613581203
378 -0.0027395721210057844 -0.012952827489887289 -0.005145742871538007
377 -0.029457603340918345 0.005632061650297724 -0.0008581244684538236
352 -0.0013642573340960707 -0.0035148637877622296 -0.0043339671546825135
373 0.0033556343556647526 -0.0006091394671492827 -0.0031379080434136854
392 0.0007263059822626965 0.01115158724773187 -0.029851075501651093
374 -0.00515048700330087 0.0025245680209292007 -0.006938545811262483
432 -0.03809501157089367 0.028716291373065535 -0.007499166366287915
370 0.0015830277311971314 -0.006700185835520311 0.004378335067145078
371 -0.0007847082780390122 -0.0053551267759695325 0.007279064253009239
391 0.00391956684440972 0.006803030048787116 0.018599199797189856
349 -0.0016886382990721103 -0.0026507064212110422 -0.005215946064526879
351 0.0025022988101900305 -0.00902005154203467 0.0036052549068350793
350 -0.001461472541375303 -0.006842670068688779 -0.001039007652254802
372 -0.00552210487582284 0.0006921277001858983 -0.007211388163061286
348 0.0032332910465924535 -0.00018349102676699447 -0.006881148545776434
376 -0.008027835575100933 -0.018143608227444243 -0.001113041202050918
315 0.006155433065389863 -0.0009695508285345387 -0.007358817779216293
337 0.01989921500892619 0.015114799882155189 -0.016598831171065975
313 0.002645796926559254 -0.0027457633151198213 -0.009688079552938659
316 -0.003250610616552446 0.005144521931942691 -0.0035239917240082303
338 0.0069945377877679606 0.02085865435573729 -0.004557444221195749
210 0.007281997080244535 -0.005291860792635151 0.0030263515837200662
230 0.025334947223040177 -0.005609601290810544 0.01540864352922201
209 -0.0011861990569151809 -0.010153025014905129 -0.0007985866803809871
499 -0.008557715914412688 0.003501537905319702 -0.0041249885363093776
500 -0.00727310884676 0.0247477659372346 -0.027535443364730492
335 -0.012296943141782549 0.005037307171386588 -0.012206737637817195
314 -0.002562353175196417 -0.00706487054986921 -0.004119705578949681
336 -0.013963721934526104 0.008502989351209576 -0.018378127650267487
231 -0.006505289278106999 -0.013925071920313692 -0.022619236881180525
232 0.006495384162429402 -0.014275011473847944 0.01566231516999
233 0.0009119108908654272 0.001015790635549063 0.0069791880932315725
211 -0.003379577675813104 -0.007358825012748662 0.0010756052095244498
431 -0.01867865673836697 0.01368896961347172 -0.019730727563530902
168 0.0011187891668398388 0.003874612901250563 -0.006204780744636717
401 -0.0015686610189910295 -0.0018944485512744802 0.0040834798637073375
402 -0.001313135701910547 0.003069839349419852 0.0020398240420229593
426 -0.032266440214504526 -0.003671802984544022 0.007203032164409139
403 -0.0008278513622298858 0.0011882402288863568 0.00017839369404369114
421 0.002631120093610677 0.008771865238662474 -0.0009537217144055747
393 -0.021332284901035947 0.0020608766930900017 0.0007855613358253704
410 0.0005691387622258524 0.007618249656860416 -0.0037193162526789818
346 -0.006485672460946946 -0.0026967246717607397 -0.0024070604681909083
347 -0.005838423773513438 -0.003751348159801686 -0.001049302711505452
430 -0.011475390088608695 0.009822337459382477 -0.006020355624763506
333 -0.022826634400307636 -0.0022563221673904594 0.007905867082847304
411 -0.0049612796348255305 0.00024431762840182035 0.005467087658195289
408 -0.012462045274668244 0.005632142306169909 -0.004918045027898286
409 -0.002293466552098437 -0.007014424088156873 -0.00033865649756759
407 0.001047355893076861 0.001239244204586125 -0.0038412900195778435
433 -0.0044377262659262276 -0.008374509321248861 0.006064008514964131
412 -0.010406758251631537 0.001022959140350942 0.0026870596959977996
434 0.003019884490379479 -0.010928114608439118 -0.009026515601817064
311 -0.0011634405060967261 -0.009876737667392011 -0.004662531036460482
312 -0.0033505335837837736 7.749543870743926e-05 -0.010475253740636233
334 0.013047050819992636 -0.02433760095002559 0.01755065398800216
331 0.001712207880578254 -0.011418786725282811 -0.0005383710329338288
339 0.0012985104834697865 -0.0068201763251667085 0.0229356704709942
310 -0.007639484359287251 -0.001365540070919683 0.000611023362922616
85 0.02458123251977365 -0.00851993670164731 0.0028584465593027575
398 -0.00027125540951381346 -0.0025459899928882137 -0.0016005877024695234
427 -0.005116108883133199 -0.011415824571164789 0.0024448628758678356
417 0.0007022347343629775 -0.0008627153070896027 -0.004292701744929997
416 -0.0030763692162781406 -0.0002539687723967557 -0.0018990710312506217
413 -0.007831495005837897 0.00034827552521744646 0.0018866095168233949
414 -0.002904897861578784 -0.0026568184160562286 0.005913357292516018
415 -0.003614090531630861 0.0003371947275265565 -0.004857742152738883
435 0.009427206712111174 -0.016716130381907293 -0.005335023604045394
405 -0.00479005045024263 0.008105695801260955 -0.002533349862192689
436 -0.01835954207706403 -0.005786938742350978 -0.003281449901928457
442 0.0006703686870496836 -0.0013899729768952125 0.0004248997261453605
470 -0.00876212552914541 0.004251615266119145 0.003285539244863556
490 -0.02913212579117569 -0.020370831450032958 0.008452142577911548
469 -0.003985234025681974 0.0067510045049177314 -0.001214232923765715
404 0.002660360473914615 -0.0009849992669503493 -0.002152058878295439
437 0.0015733424175604699 0.00041144571132298736 -0.005614740595937416
489 0.0002363517862091144 -0.0013906749581073215 0.004383317024186524
406 -0.004241984225134001 0.0011753812299355377 -0.006668665908972094
340 0.0038790751203510556 0.018060806525139743 0.0018185693274792158
320 -0.004311420664120925 -0.001538117733616766 -0.00667074978351942
428 -0.019205150524689397 0.010981961740670041 -0.006977736767612982
321 0.004688093879753282 -0.007220082173875414 -0.0006750901479736294
308 -0.0023844720226440623 -0.003040610188392794 -0.0032569436521066803
307 0.00020761113808127462 -8.296220158153419e-05 0.0009672442882320445
332 -0.012911767371256638 0.026134255353966754 0.00258504618762384
341 -0.002167030093569518 -0.01469889210281718 0.02491219740232243
330 -0.024608130772600233 -0.012866604627203269 0.014197059321450623
342 -0.010445155322959521 0.01198619673656006 0.01630555118307243
306 0.005036263888108896 -0.0005172905024465537 -0.006059774288929434
305 0.006637549407054489 -0.00377798893140747 -0.0038393796840897393
329 -0.008181483054559877 0.014996168818854754 -0.004160321353847359
304 0.006122877006027044 -0.0017962965317662152 -0.005496716255907683
322 -0.00414315978919223 -0.004279327022835703 -0.006767843710507246
303 0.0010959854026854243 0.0024000033360442076 -0.008605121021165354
343 0.02402709045149299 -0.0016544290735362238 -0.018774250997212458
302 0.000791123219419522 -0.006585086915544995 -0.0028455279175260634
324 -0.006120529976342229 0.0008727426325502496 -0.0043802754500857554
323 0.003332102242116855 -0.0014662353933529734 -0.011710795702285991
472 -0.0013125160885640052 -0.0017454250146229848 0.01018097881542123
445 0.003655712459003804 -0.0047336897872334 0.001445004140569611
443 0.00012186343918991918 -0.005302633837264749 0.005149648255261148
471 -0.006067984261609739 -0.019570166012214323 0.017859010113883377
444 -0.006903252004912318 -0.003423515670661196 0.001436093223064742
344 -0.014607633509893261 -0.0028968919509617967 -0.003891383503320973
293 0.0016432207163250352 0.012145438050964743 -0.0011416803873304754
272 5.3214708365320715e-05 0.002003535495766189 0.0011238844637775167
292 0.036305437233388686 0.016349850256630157 -0.007446752827281834
345 0.010529769080365013 -0.012987868249907462 -0.0246066555303431
271 0.007351555233365673 0.0011568402094734426 0.001637733509764639
326 -0.0025783006721631615 -0.0006864109976192868 -0.0007073927619166592
269 -0.004175602607008768 0.0037287772572630645 -0.0064250942074351326
300 0.0027493330228544276 0.005782107252420333 -6.506984430354823e-05
299 -0.006458762234149819 0.00932853208910487 -0.005506768732764761
327 -0.006214900684295349 -0.0009837021032969488 0.0038408588684740643
325 -0.001160270167955028 0.006190199733237066 -0.003948844129753695
270 -0.006169752824457015 -0.002820521729489696 -0.0031475052998334286
298 0.001722076421968453 0.00016560008283741847 -0.006209260494310253
301 -0.00015277661151678152 0.01227099678116433 0.0016901531833411032
328 -0.0029090286090320003 0.00022930716387829146 -0.014585440332993709
96 -0.014908571307432722 -0.0011594545098472988 -0.009876657371183194
81 -0.012229587928370181 -0.011339640072070854 0.010573670649755298
77 0.0009062568899977318 0.00825742984009346 -0.003909455031665175
53 -0.0068628482038175466 0.0032456124512795057 -0.004070460896904799
375 -0.0013240087844784785 0.009972757034850328 -0.01615183120433152
52 0.001838369855166718 0.002661630613925433 0.003390386854213515
80 -0.019538986347835508 -0.01272129787223239 0.011769698637591374
493 0.014495324094960283 0.013432190488133692 -0.0013766978933553303
278 -0.008777682430369567 0.0024522995880798064 0.00802274475543566
491 0.00067497540131332 -0.0047439543364501445 -0.010368437644153737
510 1.0842192806352154e-06 6.967263897237678e-07 5.123776095627046e-07
281 -0.014765275143689152 0.00028359633600211947 0.00829441683344593
250 0.0089812661796343 0.006722975033266982 0.009164775783355013
249 -0.002506924281415505 0.0031315191589671664 -0.0017781859254918327
277 -0.004430316450847608 0.007788395620632329 -0.000248088588591112
297 0.0028019457512728062 -0.0035878293320490686 0.0011011565812780095
280 -0.008635768836714335 -0.027395893232057295 0.018277706176530437
251 0.0015571164833539045 0.006677250178531883 -0.003018660415389171
276 -0.0018024998763883214 0.009132749928295276 -0.0020094478001814317
252 0.0021977394152773956 0.009963986269993544 -0.00196707677866448
255 0.002042723756143547 -0.004085965340647488 9.26535778103714e-05
296 0.0030895258364890058 0.02270139440057818 -0.021403371167390568
253 0.007207839181931994 0.002896577883865202 -0.0031416617801965038
275 0.007585366742614987 0.008962743361758126 0.004278298192175267
254 -0.0011864845684197878 0.0075351719558600415 -0.002869799970938821
286 0.015761682041217938 0.016134112004530136 0.01165100546673239
259 -0.003419358700323448 0.0012521494267470927 -0.005810892117857829
285 -0.003586309223996859 0.004821419251915387 -0.0031697150517113657
265 -0.0007093481500124289 -0.002125901670253824 -0.004160953224952619
287 -0.003104894175651884 -0.010049733961561984 -0.0018045245921267704
264 -0.006391411360571488 -0.0011606608693922364 -0.007701580579327192
288 0.002911121314098487 0.0077770736713249685 -0.008461310908017133
263 -0.0067227113624446465 0.0005533044351223669 -0.007343187345310531
282 -0.012881665832352765 -0.005859365686221376 -0.008734003797376681
258 -0.0018555081515127874 0.005104647324523863 -0.00010424400650823338
266 -0.0003439935484729996 0.0070647520442286916 -0.006439894000339335
262 0.003906534419959546 -0.002119978541789744 -0.0063160361128549915
268 -0.0009757421578189978 0.001629780455296236 -0.0034468815131348976
256 -0.0008442989591749885 0.004145260751420107 0.006400687109557752
257 -0.0003837008924511604 0.0007542508683686716 2.9832952225419644e-05
283 0.003794803367079193 0.0006118699856326021 0.0024731198288457765
261 0.0026403646413816753 0.0026647147607727654 -0.004446738250756588
260 -0.007279755748429456 0.005221332464247979 -0.006287564773074731
284 -0.0027743255298121835 0.02628369259790148 0.002274398870642718
274 -0.0017131502843703078 0.010358071740973081 -0.0004076374545215769
295 0.007621426719270257 0.021556291848753694 -0.015090066475372598
273 0.005183593677245402 0.0076445810916939945 -0.00230079041910707
294 -0.0067040889385151 0.02501950252114447 0.012261075578569633
267 0.003765567986798142 -0.0018054615070901457 -0.005362844796480127
505 0.001400678909559073 0.0037579568029795277 -0.005227809702827925
291 0.02538972296776684 0.027431354357101638 0.0006471628669466492
290 0.011902467407664145 0.011349326473278477 -0.006177008411857387
78 -0.0006077737391769146 0.0001490107144357447 0.007097059866327441
185 0.011018556004504547 -0.0030855247258137807 0.00963463751378553
163 -0.002937503830077252 0.003505159407033965 0.008264611374136439
184 -0.016342075059798667 -0.00754364533924518 0.009987774796134018
161 -0.010376902521888448 -0.00010858618574194307 0.009234891390433719
66 -0.0015501522672476602 -0.006856381054556645 0.01143314672632476
82 0.002484244271193335 -0.010980055270325507 -0.023520899563943237
57 0.006652774991997866 0.0009260298749941952 0.011317799749979
54 -0.0020267454488109636 0.007125860702939515 0.004242009389219058
55 0.0006811537589650001 0.0051226169193631195 0.001793133793564534
56 0.008540791119641589 -0.0008201184829235105 -0.0009296572064641465
75 0.0017417839014713047 0.011259146832419178 0.005819212369825945
86 0.026036933597080106 -0.0012471779139557526 0.008993421430935403
59 0.0036556001130296414 0.004781024229836239 -0.0019752882479029364
160 -0.0030325661967264073 -0.011491586656488178 0.002162505174627973
58 0.004284719407163576 0.005976820987598363 0.005783223028158131
74 0.0019100954600325833 0.0018842383274728252 0.005145687134952762
95 0.014915753852662465 0.01699850414788646 0.00021894973206856242
76 0.0008495364620494396 0.0023510773440897545 0.005014459549710086
492 -0.00773845961371469 0.004006812160895187 0.0031408281548415233
497 0.0006004700027008054 -0.011523903025897286 0.01135596304493644
509 -6.830837624413981e-08 -4.3895408630420346e-08 -3.2280999939953116e-08
279 -0.015706954605542393 -0.010932733815173415 -0.01000386968809522
289 0.014315078731882645 0.006885951459445662 -0.01385556152097852
186 -0.002605774258754312 -0.010600558990983246 0.0006317524221903866
164 0.005713201354152149 0.0005911390745820055 0.009200651890186099
159 0.0027815192790811402 -0.009061830176731404 0.00044897616175423405
162 -0.009763460778997982 0.0011591263310391205 0.004100747421517012
183 0.0030669102777844985 -0.016544281219795124 0.026680810279968905
93 0.0008825034904950402 -0.00928267437003641 -0.0024057614801414147
94 0.008548082380529355 0.010450354128978939 -0.008965277452112449
318 -0.0008980470415042173 0.00010850974747544061 0.007677607085731961
97 -0.0028283810483985383 0.0030687925876756654 0.004696529450964741
309 0.0021484439004415897 -0.008335075321622283 -0.0007679069899213702
468 -0.004748019962582948 0.004723637824305334 0.00015609981001895055
87 -0.011455606557035413 -0.013295352964259679 -0.008197758504408455
429 -0.014332360352341048 0.01675562481012925 -0.011056369589206428
319 0.0023559507572085596 0.0021690793804116804 -0.006321033394180544
317 -0.00737004216287321 -0.008520824243352132 0.0003606908207134706
88 -0.01829712101581483 0.009228796578725725 0.031235614160407647

Bonds

1 1 153 154
2 11 153 178
3 11 169 189
4 1 156 157
5 1 156 169
6 5 154 155
7 1 154 170
8 5 155 156
9 1 170 171
10 11 170 190
11 1 152 153
12 11 152 177
13 1 120 121
14 11 120 140
15 11 174 193
16 1 147 148
17 11 147 175
18 1 146 147
19 1 146 174
20 3 149 150
21 1 149 173
22 11 171 191
23 1 173 174
24 11 173 192
25 1 151 152
26 1 151 171
27 3 150 151
28 4 150 172
29 1 148 149
30 11 148 176
31 1 104 105
32 11 104 129
33 1 105 106
34 11 105 130
35 1 125 126
36 11 125 144
37 3 101 102
38 1 101 125
39 3 102 103
40 4 102 124
41 1 103 104
42 1 103 123
43 11 123 143
44 5 119 146
45 11 121 141
46 1 100 101
47 11 100 128
48 5 106 107
49 1 106 122
50 1 108 109
51 1 108 121
52 5 107 108
53 1 98 99
54 1 98 126
55 1 122 123
56 11 122 142
57 5 118 119
58 1 118 120
59 1 99 100
60 11 99 127
61 11 126 145
62 16 484 494
63 16 484 495
64 16 484 496
65 10 463 484
66 5 462 463
67 1 462 464
68 1 464 465
69 11 464 485
70 12 17 38
71 12 17 39
72 12 17 40
73 6 16 17
74 7 16 18
75 17 503 504
76 11 26 47
77 11 29 49
78 1 1 2
79 1 1 29
80 2 1 30
81 1 28 29
82 11 28 48
83 1 25 26
84 11 25 46
85 7 15 16
86 13 15 37
87 5 10 11
88 11 24 45
89 9 459 460
90 14 459 481
91 15 460 482
92 1 461 462
93 11 461 483
94 9 18 19
95 14 18 41
96 6 457 458
97 7 457 459
98 6 454 455
99 12 454 475
100 12 454 476
101 7 455 456
102 8 455 460
103 2 453 454
104 1 453 461
105 7 456 457
106 13 456 477
107 12 458 478
108 12 458 479
109 12 458 480
110 11 465 486
111 1 452 453
112 1 452 465
113 5 451 452
114 5 450 451
115 1 450 466
116 1 466 467
117 11 466 487
118 1 448 449
119 11 448 473
120 1 449 450
121 11 449 474
122 16 30 243
123 16 30 244
124 16 30 245
125 11 467 488
126 1 447 448
127 1 447 467
128 3 446 447
129 4 446 468
130 1 6 7
131 1 6 26
132 3 5 6
133 4 5 27
134 3 4 5
135 1 4 28
136 1 3 4
137 11 3 32
138 1 2 3
139 11 2 31
140 5 9 10
141 1 9 25
142 6 13 14
143 12 13 35
144 12 13 36
145 2 12 13
146 1 12 20
147 1 20 21
148 11 20 43
149 1 11 12
150 1 11 24
151 12 114 134
152 12 114 135
153 12 114 136
154 1 7 8
155 11 7 33
156 1 8 9
157 11 8 34
158 17 507 508
159 9 115 116
160 14 115 137
161 15 19 42
162 7 14 15
163 8 14 19
164 5 21 22
165 1 21 23
166 1 23 24
167 11 23 44
168 1 50 51
169 1 50 78
170 5 22 50
171 7 112 113
172 13 112 133
173 7 111 112
174 8 111 116
175 15 116 138
176 6 113 114
177 7 113 115
178 6 110 111
179 12 110 131
180 12 110 132
181 17 513 514
182 1 51 52
183 11 51 79
184 1 117 118
185 11 117 139
186 2 109 110
187 1 109 117
188 1 60 61
189 1 60 73
190 5 70 71
191 1 70 72
192 11 73 93
193 1 69 70
194 11 69 91
195 2 61 62
196 1 61 69
197 15 68 90
198 6 62 63
199 12 62 83
200 12 62 84
201 9 67 68
202 14 67 89
203 7 63 64
204 8 63 68
205 6 65 66
206 7 65 67
207 7 64 65
208 13 64 85
209 5 71 98
210 1 72 73
211 11 72 92
212 2 157 158
213 1 157 165
214 11 222 242
215 1 194 195
216 1 194 222
217 5 166 167
218 1 166 168
219 5 167 194
220 1 165 166
221 11 165 187
222 6 158 159
223 12 158 179
224 12 158 180
225 1 195 196
226 11 195 223
227 5 367 394
228 1 365 366
229 11 365 387
230 2 357 358
231 1 357 365
232 5 366 367
233 1 366 368
234 1 368 369
235 11 368 388
236 11 369 389
237 6 358 359
238 12 358 379
239 12 358 380
240 1 356 357
241 1 356 369
242 5 355 356
243 5 354 355
244 1 354 370
245 1 221 222
246 11 221 241
247 3 198 199
248 4 198 220
249 3 197 198
250 1 197 221
251 1 196 197
252 11 196 224
253 1 199 200
254 1 199 219
255 1 201 202
256 11 201 226
257 1 200 201
258 11 200 225
259 11 219 240
260 5 203 204
261 1 218 219
262 11 218 239
263 5 202 203
264 1 202 218
265 1 204 205
266 1 204 217
267 6 206 207
268 12 206 227
269 12 206 228
270 7 208 209
271 13 208 229
272 7 207 208
273 8 207 212
274 5 214 215
275 1 214 216
276 1 216 217
277 11 216 237
278 2 205 206
279 1 205 213
280 11 217 238
281 10 215 236
282 1 213 214
283 11 213 235
284 16 236 246
285 16 236 247
286 16 236 248
287 17 515 516
288 15 212 234
289 17 501 502
290 11 422 441
291 1 394 395
292 1 394 422
293 1 395 396
294 11 395 423
295 1 396 397
296 11 396 424
297 11 419 439
298 1 400 401
299 11 400 425
300 1 399 400
301 1 399 419
302 1 418 419
303 11 418 438
304 3 397 398
305 1 397 421
306 17 511 512
307 12 362 382
308 12 362 383
309 12 362 384
310 9 363 364
311 14 363 385
312 6 361 362
313 7 361 363
314 15 364 386
315 7 359 360
316 8 359 364
317 7 360 361
318 13 360 381
319 1 353 354
320 11 353 378
321 1 352 353
322 11 352 377
323 1 373 374
324 11 373 392
325 11 374 393
326 1 370 371
327 11 370 390
328 11 371 391
329 3 349 350
330 1 349 373
331 1 351 352
332 1 351 371
333 3 350 351
334 4 350 372
335 1 348 349
336 11 348 376
337 9 315 316
338 14 315 337
339 6 313 314
340 7 313 315
341 15 316 338
342 12 210 230
343 12 210 231
344 12 210 232
345 6 209 210
346 7 209 211
347 17 499 500
348 12 314 334
349 12 314 335
350 12 314 336
351 9 211 212
352 14 211 233
353 1 168 169
354 11 168 188
355 1 401 402
356 11 401 426
357 5 402 403
358 1 402 418
359 5 403 404
360 1 421 422
361 11 421 440
362 12 410 430
363 12 410 431
364 12 410 432
365 1 346 347
366 1 346 374
367 1 347 348
368 11 347 375
369 9 411 412
370 14 411 433
371 7 408 409
372 13 408 429
373 6 409 410
374 7 409 411
375 7 407 408
376 8 407 412
377 15 412 434
378 7 311 312
379 8 311 316
380 7 312 313
381 13 312 333
382 6 310 311
383 12 310 331
384 12 310 332
385 3 398 399
386 4 398 420
387 11 417 437
388 1 416 417
389 11 416 436
390 1 413 414
391 11 413 435
392 5 414 415
393 1 414 416
394 5 415 442
395 2 405 406
396 1 405 413
397 1 442 443
398 1 442 470
399 11 470 490
400 1 469 470
401 11 469 489
402 1 404 405
403 1 404 417
404 6 406 407
405 12 406 427
406 12 406 428
407 1 320 321
408 11 320 340
409 11 321 341
410 1 308 309
411 1 308 321
412 5 307 308
413 5 306 307
414 1 306 322
415 1 305 306
416 11 305 330
417 1 304 305
418 11 304 329
419 1 322 323
420 11 322 342
421 1 303 304
422 1 303 323
423 3 302 303
424 4 302 324
425 11 323 343
426 3 445 446
427 1 445 469
428 1 443 444
429 11 443 471
430 1 444 445
431 11 444 472
432 11 272 293
433 1 271 272
434 11 271 292
435 11 326 345
436 5 269 270
437 1 269 271
438 1 300 301
439 11 300 328
440 1 299 300
441 11 299 327
442 1 325 326
443 11 325 344
444 5 270 298
445 1 298 299
446 1 298 326
447 3 301 302
448 1 301 325
449 1 77 78
450 11 77 96
451 3 53 54
452 1 53 77
453 1 52 53
454 11 52 80
455 16 278 491
456 16 278 492
457 16 278 493
458 1 250 251
459 11 250 279
460 1 249 250
461 1 249 277
462 2 249 278
463 11 277 297
464 1 251 252
465 11 251 280
466 1 276 277
467 11 276 296
468 3 252 253
469 1 252 276
470 1 255 256
471 11 255 281
472 3 253 254
473 4 253 275
474 1 254 255
475 1 254 274
476 1 259 260
477 1 259 272
478 12 265 286
479 12 265 287
480 12 265 288
481 6 264 265
482 7 264 266
483 7 263 264
484 13 263 285
485 5 258 259
486 9 266 267
487 14 266 289
488 7 262 263
489 8 262 267
490 1 268 269
491 11 268 291
492 1 256 257
493 11 256 282
494 5 257 258
495 1 257 273
496 6 261 262
497 12 261 283
498 12 261 284
499 2 260 261
500 1 260 268
501 11 274 295
502 1 273 274
503 11 273 294
504 15 267 290
505 17 505 506
506 11 78 97
507 9 163 164
508 14 163 185
509 6 161 162
510 7 161 163
511 12 66 86
512 12 66 87
513 12 66 88
514 1 57 58
515 11 57 82
516 3 54 55
517 4 54 76
518 1 55 56
519 1 55 75
520 1 56 57
521 11 56 81
522 11 75 95
523 5 59 60
524 7 160 161
525 13 160 181
526 5 58 59
527 1 58 74
528 1 74 75
529 11 74 94
530 17 497 498
531 17 509 510
532 15 164 186
533 7 159 160
534 8 159 164
535 12 162 182
536 12 162 183
537 12 162 184
538 5 318 319
539 1 318 320
540 2 309 310
541 1 309 317
542 5 319 346
543 1 317 318
544 11 317 339

Angles

1 1 152 153 154
2 17 152 153 178
3 17 154 153 178
4 1 156 169 168
5 17 156 169 189
6 17 168 169 189
7 6 155 156 157
8 6 155 156 169
9 1 157 156 169
10 6 153 154 155
11 1 153 154 170
12 6 155 154 170
13 7 154 155 156
14 1 154 170 171
15 17 154 170 190
16 17 171 170 190
17 1 151 152 153
18 17 151 152 177
19 17 153 152 177
20 1 118 120 121
21 17 118 120 140
22 17 121 120 140
23 1 146 174 173
24 17 146 174 193
25 17 173 174 193
26 1 146 147 148
27 17 146 147 175
28 17 148 147 175
29 6 119 146 147
30 6 119 146 174
31 1 147 146 174
32 3 148 149 150
33 1 148 149 173
34 3 150 149 173
35 1 151 171 170
36 17 151 171 191
37 17 170 171 191
38 1 149 173 174
39 17 149 173 192
40 17 174 173 192
41 3 150 151 152
42 3 150 151 171
43 1 152 151 171
44 4 149 150 151
45 5 149 150 172
46 5 151 150 172
47 1 147 148 149
48 17 147 148 176
49 17 149 148 176
50 1 103 104 105
51 17 103 104 129
52 17 105 104 129
53 1 104 105 106
54 17 104 105 130
55 17 106 105 130
56 1 101 125 126
57 17 101 125 144
58 17 126 125 144
59 3 100 101 102
60 1 100 101 125
61 3 102 101 125
62 4 101 102 103
63 5 101 102 124
64 5 103 102 124
65 3 102 103 104
66 3 102 103 123
67 1 104 103 123
68 1 103 123 122
69 17 103 123 143
70 17 122 123 143
71 7 118 119 146
72 1 108 121 120
73 17 108 121 141
74 17 120 121 141
75 1 99 100 101
76 17 99 100 128
77 17 101 100 128
78 6 105 106 107
79 1 105 106 122
80 6 107 106 122
81 6 107 108 109
82 6 107 108 121
83 1 109 108 121
84 7 106 107 108
85 6 71 98 99
86 6 71 98 126
87 1 99 98 126
88 1 106 122 123
89 17 106 122 142
90 17 123 122 142
91 6 117 118 119
92 1 117 118 120
93 6 119 118 120
94 1 98 99 100
95 17 98 99 127
96 17 100 99 127
97 1 98 126 125
98 17 98 126 145
99 17 125 126 145
100 27 463 484 494
101 27 463 484 495
102 27 463 484 496
103 28 494 484 495
104 28 494 484 496
105 28 495 484 496
106 16 462 463 484
107 6 461 462 463
108 1 461 462 464
109 6 463 462 464
110 1 462 464 465
111 17 462 464 485
112 17 465 464 485
113 20 16 17 38
114 20 16 17 39
115 20 16 17 40
116 26 38 17 39
117 26 38 17 40
118 26 39 17 40
119 9 15 16 17
120 14 15 16 18
121 9 17 16 18
122 1 6 26 25
123 17 6 26 47
124 17 25 26 47
125 1 1 29 28
126 17 1 29 49
127 17 28 29 49
128 1 2 1 29
129 2 2 1 30
130 2 29 1 30
131 1 4 28 29
132 17 4 28 48
133 17 29 28 48
134 1 9 25 26
135 17 9 25 46
136 17 26 25 46
137 11 14 15 16
138 21 14 15 37
139 21 16 15 37
140 7 9 10 11
141 1 11 24 23
142 17 11 24 45
143 17 23 24 45
144 15 457 459 460
145 23 457 459 481
146 25 460 459 481
147 12 455 460 459
148 22 455 460 482
149 24 459 460 482
150 1 453 461 462
151 17 453 461 483
152 17 462 461 483
153 15 16 18 19
154 23 16 18 41
155 25 19 18 41
156 9 456 457 458
157 14 456 457 459
158 9 458 457 459
159 8 453 454 455
160 19 453 454 475
161 19 453 454 476
162 20 455 454 475
163 20 455 454 476
164 26 475 454 476
165 9 454 455 456
166 10 454 455 460
167 13 456 455 460
168 2 452 453 454
169 1 452 453 461
170 2 454 453 461
171 11 455 456 457
172 21 455 456 477
173 21 457 456 477
174 20 457 458 478
175 20 457 458 479
176 20 457 458 480
177 26 478 458 479
178 26 478 458 480
179 26 479 458 480
180 1 452 465 464
181 17 452 465 486
182 17 464 465 486
183 6 451 452 453
184 6 451 452 465
185 1 453 452 465
186 7 450 451 452
187 6 449 450 451
188 1 449 450 466
189 6 451 450 466
190 1 450 466 467
191 17 450 466 487
192 17 467 466 487
193 1 447 448 449
194 17 447 448 473
195 17 449 448 473
196 1 448 449 450
197 17 448 449 474
198 17 450 449 474
199 18 1 30 243
200 18 1 30 244
201 18 1 30 245
202 28 243 30 244
203 28 243 30 245
204 28 244 30 245
205 1 447 467 466
206 17 447 467 488
207 17 466 467 488
208 3 446 447 448
209 3 446 447 467
210 1 448 447 467
211 4 445 446 447
212 5 445 446 468
213 5 447 446 468
214 3 5 6 7
215 3 5 6 26
216 1 7 6 26
217 4 4 5 6
218 5 4 5 27
219 5 6 5 27
220 3 3 4 5
221 1 3 4 28
222 3 5 4 28
223 1 2 3 4
224 17 2 3 32
225 17 4 3 32
226 1 1 2 3
227 17 1 2 31
228 17 3 2 31
229 6 8 9 10
230 1 8 9 25
231 6 10 9 25
232 8 12 13 14
233 19 12 13 35
234 19 12 13 36
235 20 14 13 35
236 20 14 13 36
237 26 35 13 36
238 2 11 12 13
239 1 11 12 20
240 2 13 12 20
241 1 12 20 21
242 17 12 20 43
243 17 21 20 43
244 6 10 11 12
245 6 10 11 24
246 1 12 11 24
247 20 113 114 134
248 20 113 114 135
249 20 113 114 136
250 26 134 114 135
251 26 134 114 136
252 26 135 114 136
253 1 6 7 8
254 17 6 7 33
255 17 8 7 33
256 1 7 8 9
257 17 7 8 34
258 17 9 8 34
259 15 113 115 116
260 23 113 115 137
261 25 116 115 137
262 12 14 19 18
263 22 14 19 42
264 24 18 19 42
265 9 13 14 15
266 10 13 14 19
267 13 15 14 19
268 6 20 21 22
269 1 20 21 23
270 6 22 21 23
271 1 21 23 24
272 17 21 23 44
273 17 24 23 44
274 6 22 50 51
275 6 22 50 78
276 1 51 50 78
277 7 21 22 50
278 11 111 112 113
279 21 111 112 133
280 21 113 112 133
281 9 110 111 112
282 10 110 111 116
283 13 112 111 116
284 12 111 116 115
285 22 111 116 138
286 24 115 116 138
287 9 112 113 114
288 14 112 113 115
289 9 114 113 115
290 8 109 110 111
291 19 109 110 131
292 19 109 110 132
293 20 111 110 131
294 20 111 110 132
295 26 131 110 132
296 1 50 51 52
297 17 50 51 79
298 17 52 51 79
299 1 109 117 118
300 17 109 117 139
301 17 118 117 139
302 2 108 109 110
303 1 108 109 117
304 2 110 109 117
305 6 59 60 61
306 6 59 60 73
307 1 61 60 73
308 6 69 70 71
309 1 69 70 72
310 6 71 70 72
311 1 60 73 72
312 17 60 73 93
313 17 72 73 93
314 1 61 69 70
315 17 61 69 91
316 17 70 69 91
317 2 60 61 62
318 1 60 61 69
319 2 62 61 69
320 12 63 68 67
321 22 63 68 90
322 24 67 68 90
323 8 61 62 63
324 19 61 62 83
325 19 61 62 84
326 20 63 62 83
327 20 63 62 84
328 26 83 62 84
329 15 65 67 68
330 23 65 67 89
331 25 68 67 89
332 9 62 63 64
333 10 62 63 68
334 13 64 63 68
335 9 64 65 66
336 14 64 65 67
337 9 66 65 67
338 11 63 64 65
339 21 63 64 85
340 21 65 64 85
341 7 70 71 98
342 1 70 72 73
343 17 70 72 92
344 17 73 72 92
345 2 156 157 158
346 1 156 157 165
347 2 158 157 165
348 1 194 222 221
349 17 194 222 242
350 17 221 222 242
351 6 167 194 195
352 6 167 194 222
353 1 195 194 222
354 6 165 166 167
355 1 165 166 168
356 6 167 166 168
357 7 166 167 194
358 1 157 165 166
359 17 157 165 187
360 17 166 165 187
361 8 157 158 159
362 19 157 158 179
363 19 157 158 180
364 20 159 158 179
365 20 159 158 180
366 26 179 158 180
367 1 194 195 196
368 17 194 195 223
369 17 196 195 223
370 7 366 367 394
371 1 357 365 366
372 17 357 365 387
373 17 366 365 387
374 2 356 357 358
375 1 356 357 365
376 2 358 357 365
377 6 365 366 367
378 1 365 366 368
379 6 367 366 368
380 1 366 368 369
381 17 366 368 388
382 17 369 368 388
383 1 356 369 368
384 17 356 369 389
385 17 368 369 389
386 8 357 358 359
387 19 357 358 379
388 19 357 358 380
389 20 359 358 379
390 20 359 358 380
391 26 379 358 380
392 6 355 356 357
393 6 355 356 369
394 1 357 356 369
395 7 354 355 356
396 6 353 354 355
397 1 353 354 370
398 6 355 354 370
399 1 197 221 222
400 17 197 221 241
401 17 222 221 241
402 4 197 198 199
403 5 197 198 220
404 5 199 198 220
405 3 196 197 198
406 1 196 197 221
407 3 198 197 221
408 1 195 196 197
409 17 195 196 224
410 17 197 196 224
411 3 198 199 200
412 3 198 199 219
413 1 200 199 219
414 1 200 201 202
415 17 200 201 226
416 17 202 201 226
417 1 199 200 201
418 17 199 200 225
419 17 201 200 225
420 1 199 219 218
421 17 199 219 240
422 17 218 219 240
423 7 202 203 204
424 1 202 218 219
425 17 202 218 239
426 17 219 218 239
427 6 201 202 203
428 1 201 202 218
429 6 203 202 218
430 6 203 204 205
431 6 203 204 217
432 1 205 204 217
433 8 205 206 207
434 19 205 206 227
435 19 205 206 228
436 20 207 206 227
437 20 207 206 228
438 26 227 206 228
439 11 207 208 209
440 21 207 208 229
441 21 209 208 229
442 9 206 207 208
443 10 206 207 212
444 13 208 207 212
445 6 213 214 215
446 1 213 214 216
447 6 215 214 216
448 1 214 216 217
449 17 214 216 237
450 17 217 216 237
451 2 204 205 206
452 1 204 205 213
453 2 206 205 213
454 1 204 217 216
455 17 204 217 238
456 17 216 217 238
457 16 214 215 236
458 1 205 213 214
459 17 205 213 235
460 17 214 213 235
461 27 215 236 246
462 27 215 236 247
463 27 215 236 248
464 28 246 236 247
465 28 246 236 248
466 28 247 236 248
467 12 207 212 211
468 22 207 212 234
469 24 211 212 234
470 1 394 422 421
471 17 394 422 441
472 17 421 422 441
473 6 367 394 395
474 6 367 394 422
475 1 395 394 422
476 1 394 395 396
477 17 394 395 423
478 17 396 395 423
479 1 395 396 397
480 17 395 396 424
481 17 397 396 424
482 1 399 419 418
483 17 399 419 439
484 17 418 419 439
485 1 399 400 401
486 17 399 400 425
487 17 401 400 425
488 3 398 399 400
489 3 398 399 419
490 1 400 399 419
491 1 402 418 419
492 17 402 418 438
493 17 419 418 438
494 3 396 397 398
495 1 396 397 421
496 3 398 397 421
497 20 361 362 382
498 20 361 362 383
499 20 361 362 384
500 26 382 362 383
501 26 382 362 384
502 26 383 362 384
503 15 361 363 364
504 23 361 363 385
505 25 364 363 385
506 9 360 361 362
507 14 360 361 363
508 9 362 361 363
509 12 359 364 363
510 22 359 364 386
511 24 363 364 386
512 9 358 359 360
513 10 358 359 364
514 13 360 359 364
515 11 359 360 361
516 21 359 360 381
517 21 361 360 381
518 1 352 353 354
519 17 352 353 378
520 17 354 353 378
521 1 351 352 353
522 17 351 352 377
523 17 353 352 377
524 1 349 373 374
525 17 349 373 392
526 17 374 373 392
527 1 346 374 373
528 17 346 374 393
529 17 373 374 393
530 1 354 370 371
531 17 354 370 390
532 17 371 370 390
533 1 351 371 370
534 17 351 371 391
535 17 370 371 391
536 3 348 349 350
537 1 348 349 373
538 3 350 349 373
539 3 350 351 352
540 3 350 351 371
541 1 352 351 371
542 4 349 350 351
543 5 349 350 372
544 5 351 350 372
545 1 347 348 349
546 17 347 348 376
547 17 349 348 376
548 15 313 315 316
549 23 313 315 337
550 25 316 315 337
551 9 312 313 314
552 14 312 313 315
553 9 314 313 315
554 12 311 316 315
555 22 311 316 338
556 24 315 316 338
557 20 209 210 230
558 20 209 210 231
559 20 209 210 232
560 26 230 210 231
561 26 230 210 232
562 26 231 210 232
563 9 208 209 210
564 14 208 209 211
565 9 210 209 211
566 20 313 314 334
567 20 313 314 335
568 20 313 314 336
569 26 334 314 335
570 26 334 314 336
571 26 335 314 336
572 15 209 211 212
573 23 209 211 233
574 25 212 211 233
575 1 166 168 169
576 17 166 168 188
577 17 169 168 188
578 1 400 401 402
579 17 400 401 426
580 17 402 401 426
581 6 401 402 403
582 1 401 402 418
583 6 403 402 418
584 7 402 403 404
585 1 397 421 422
586 17 397 421 440
587 17 422 421 440
588 20 409 410 430
589 20 409 410 431
590 20 409 410 432
591 26 430 410 431
592 26 430 410 432
593 26 431 410 432
594 6 319 346 347
595 6 319 346 374
596 1 347 346 374
597 1 346 347 348
598 17 346 347 375
599 17 348 347 375
600 15 409 411 412
601 23 409 411 433
602 25 412 411 433
603 11 407 408 409
604 21 407 408 429
605 21 409 408 429
606 9 408 409 410
607 14 408 409 411
608 9 410 409 411
609 9 406 407 408
610 10 406 407 412
611 13 408 407 412
612 12 407 412 411
613 22 407 412 434
614 24 411 412 434
615 9 310 311 312
616 10 310 311 316
617 13 312 311 316
618 11 311 312 313
619 21 311 312 333
620 21 313 312 333
621 8 309 310 311
622 19 309 310 331
623 19 309 310 332
624 20 311 310 331
625 20 311 310 332
626 26 331 310 332
627 4 397 398 399
628 5 397 398 420
629 5 399 398 420
630 1 404 417 416
631 17 404 417 437
632 17 416 417 437
633 1 414 416 417
634 17 414 416 436
635 17 417 416 436
636 1 405 413 414
637 17 405 413 435
638 17 414 413 435
639 6 413 414 415
640 1 413 414 416
641 6 415 414 416
642 7 414 415 442
643 2 404 405 406
644 1 404 405 413
645 2 406 405 413
646 6 415 442 443
647 6 415 442 470
648 1 443 442 470
649 1 442 470 469
650 17 442 470 490
651 17 469 470 490
652 1 445 469 470
653 17 445 469 489
654 17 470 469 489
655 6 403 404 405
656 6 403 404 417
657 1 405 404 417
658 8 405 406 407
659 19 405 406 427
660 19 405 406 428
661 20 407 406 427
662 20 407 406 428
663 26 427 406 428
664 1 318 320 321
665 17 318 320 340
666 17 321 320 340
667 1 308 321 320
668 17 308 321 341
669 17 320 321 341
670 6 307 308 309
671 6 307 308 321
672 1 309 308 321
673 7 306 307 308
674 6 305 306 307
675 1 305 306 322
676 6 307 306 322
677 1 304 305 306
678 17 304 305 330
679 17 306 305 330
680 1 303 304 305
681 17 303 304 329
682 17 305 304 329
683 1 306 322 323
684 17 306 322 342
685 17 323 322 342
686 3 302 303 304
687 3 302 303 323
688 1 304 303 323
689 4 301 302 303
690 5 301 302 324
691 5 303 302 324
692 1 303 323 322
693 17 303 323 343
694 17 322 323 343
695 3 444 445 446
696 1 444 445 469
697 3 446 445 469
698 1 442 443 444
699 17 442 443 471
700 17 444 443 471
701 1 443 444 445
702 17 443 444 472
703 17 445 444 472
704 1 259 272 271
705 17 259 272 293
706 17 271 272 293
707 1 269 271 272
708 17 269 271 292
709 17 272 271 292
710 1 298 326 325
711 17 298 326 345
712 17 325 326 345
713 6 268 269 270
714 1 268 269 271
715 6 270 269 271
716 1 299 300 301
717 17 299 300 328
718 17 301 300 328
719 1 298 299 300
720 17 298 299 327
721 17 300 299 327
722 1 301 325 326
723 17 301 325 344
724 17 326 325 344
725 7 269 270 298
726 6 270 298 299
727 6 270 298 326
728 1 299 298 326
729 3 300 301 302
730 1 300 301 325
731 3 302 301 325
732 1 53 77 78
733 17 53 77 96
734 17 78 77 96
735 3 52 53 54
736 1 52 53 77
737 3 54 53 77
738 1 51 52 53
739 17 51 52 80
740 17 53 52 80
741 18 249 278 491
742 18 249 278 492
743 18 249 278 493
744 28 491 278 492
745 28 491 278 493
746 28 492 278 493
747 1 249 250 251
748 17 249 250 279
749 17 251 250 279
750 1 250 249 277
751 2 250 249 278
752 2 277 249 278
753 1 249 277 276
754 17 249 277 297
755 17 276 277 297
756 1 250 251 252
757 17 250 251 280
758 17 252 251 280
759 1 252 276 277
760 17 252 276 296
761 17 277 276 296
762 3 251 252 253
763 1 251 252 276
764 3 253 252 276
765 1 254 255 256
766 17 254 255 281
767 17 256 255 281
768 4 252 253 254
769 5 252 253 275
770 5 254 253 275
771 3 253 254 255
772 3 253 254 274
773 1 255 254 274
774 6 258 259 260
775 6 258 259 272
776 1 260 259 272
777 20 264 265 286
778 20 264 265 287
779 20 264 265 288
780 26 286 265 287
781 26 286 265 288
782 26 287 265 288
783 9 263 264 265
784 14 263 264 266
785 9 265 264 266
786 11 262 263 264
787 21 262 263 285
788 21 264 263 285
789 7 257 258 259
790 15 264 266 267
791 23 264 266 289
792 25 267 266 289
793 9 261 262 263
794 10 261 262 267
795 13 263 262 267
796 1 260 268 269
797 17 260 268 291
798 17 269 268 291
799 1 255 256 257
800 17 255 256 282
801 17 257 256 282
802 6 256 257 258
803 1 256 257 273
804 6 258 257 273
805 8 260 261 262
806 19 260 261 283
807 19 260 261 284
808 20 262 261 283
809 20 262 261 284
810 26 283 261 284
811 2 259 260 261
812 1 259 260 268
813 2 261 260 268
814 1 254 274 273
815 17 254 274 295
816 17 273 274 295
817 1 257 273 274
818 17 257 273 294
819 17 274 273 294
820 12 262 267 266
821 22 262 267 290
822 24 266 267 290
823 1 50 78 77
824 17 50 78 97
825 17 77 78 97
826 15 161 163 164
827 23 161 163 185
828 25 164 163 185
829 9 160 161 162
830 14 160 161 163
831 9 162 161 163
832 20 65 66 86
833 20 65 66 87
834 20 65 66 88
835 26 86 66 87
836 26 86 66 88
837 26 87 66 88
838 1 56 57 58
839 17 56 57 82
840 17 58 57 82
841 4 53 54 55
842 5 53 54 76
843 5 55 54 76
844 3 54 55 56
845 3 54 55 75
846 1 56 55 75
847 1 55 56 57
848 17 55 56 81
849 17 57 56 81
850 1 55 75 74
851 17 55 75 95
852 17 74 75 95
853 7 58 59 60
854 11 159 160 161
855 21 159 160 181
856 21 161 160 181
857 6 57 58 59
858 1 57 58 74
859 6 59 58 74
860 1 58 74 75
861 17 58 74 94
862 17 75 74 94
863 12 159 164 163
864 22 159 164 186
865 24 163 164 186
866 9 158 159 160
867 10 158 159 164
868 13 160 159 164
869 20 161 162 182
870 20 161 162 183
871 20 161 162 184
872 26 182 162 183
873 26 182 162 184
874 26 183 162 184
875 6 317 318 319
876 1 317 318 320
877 6 319 318 320
878 2 308 309 310
879 1 308 309 317
880 2 310 309 317
881 7 318 319 346
882 1 309 317 318
883 17 309 317 339
884 17 318 317 339

Dihedrals

1 1 152 153 154 155
2 1 152 153 154 170
3 1 154 153 152 177
4 1 156 169 168 166
5 1 156 169 168 188
6 1 155 156 157 158
7 1 155 156 157 165
8 1 155 156 169 168
9 1 157 156 169 168
10 1 155 156 169 189
11 1 157 156 169 189
12 4 153 154 155 156
13 1 153 154 170 171
14 1 155 154 170 171
15 1 153 154 170 190
16 1 155 154 153 178
17 1 155 154 170 190
18 1 170 154 153 178
19 4 154 155 156 157
20 4 154 155 156 169
21 4 156 155 154 170
22 1 154 170 171 191
23 1 190 170 171 191
24 1 151 152 153 154
25 1 153 152 151 171
26 1 151 152 153 178
27 1 177 152 153 178
28 1 118 120 121 141
29 1 140 120 121 141
30 1 146 174 173 149
31 1 146 174 173 192
32 1 146 147 148 149
33 1 148 147 146 174
34 1 146 147 148 176
35 1 175 147 148 176
36 1 119 146 147 148
37 1 119 146 174 173
38 1 147 146 174 173
39 1 119 146 147 175
40 1 119 146 174 193
41 1 147 146 174 193
42 1 174 146 147 175
43 2 148 149 150 151
44 3 148 149 150 172
45 1 148 149 173 174
46 1 150 149 173 174
47 1 148 149 173 192
48 1 150 149 148 176
49 1 150 149 173 192
50 1 173 149 148 176
51 1 151 171 170 154
52 1 151 171 170 190
53 1 149 173 174 193
54 1 192 173 174 193
55 1 150 151 152 153
56 1 150 151 171 170
57 3 152 151 150 172
58 1 152 151 171 170
59 3 171 151 150 172
60 1 150 151 152 177
61 1 150 151 171 191
62 1 152 151 171 191
63 1 171 151 152 177
64 2 149 150 151 152
65 2 149 150 151 171
66 2 151 150 149 173
67 3 172 150 149 173
68 1 147 148 149 150
69 1 147 148 149 173
70 1 149 148 147 175
71 1 103 104 105 106
72 1 105 104 103 123
73 1 103 104 105 130
74 1 129 104 105 130
75 1 104 105 106 107
76 1 104 105 106 122
77 1 106 105 104 129
78 1 101 125 126 145
79 1 144 125 126 145
80 2 100 101 102 103
81 3 100 101 102 124
82 1 100 101 125 126
83 1 102 101 125 126
84 1 100 101 125 144
85 1 102 101 100 128
86 1 102 101 125 144
87 1 125 101 100 128
88 2 101 102 103 104
89 2 101 102 103 123
90 2 103 102 101 125
91 3 124 102 101 125
92 1 102 103 104 105
93 1 102 103 123 122
94 3 104 103 102 124
95 1 104 103 123 122
96 3 123 103 102 124
97 1 102 103 104 129
98 1 102 103 123 143
99 1 104 103 123 143
100 1 123 103 104 129
101 1 103 123 122 106
102 1 103 123 122 142
103 4 118 119 146 147
104 4 118 119 146 174
105 1 108 121 120 118
106 1 108 121 120 140
107 1 99 100 101 102
108 1 99 100 101 125
109 1 101 100 99 127
110 4 105 106 107 108
111 1 105 106 122 123
112 1 107 106 122 123
113 1 105 106 122 142
114 1 107 106 105 130
115 1 107 106 122 142
116 1 122 106 105 130
117 1 107 108 109 110
118 1 107 108 109 117
119 1 107 108 121 120
120 1 109 108 121 120
121 1 107 108 121 141
122 1 109 108 121 141
123 4 106 107 108 109
124 4 106 107 108 121
125 4 108 107 106 122
126 1 71 98 99 100
127 1 71 98 126 125
128 1 99 98 126 125
129 1 71 98 99 127
130 1 71 98 126 145
131 1 99 98 126 145
132 1 126 98 99 127
133 1 106 122 123 143
134 1 142 122 123 143
135 4 117 118 119 146
136 1 117 118 120 121
137 1 119 118 120 121
138 4 120 118 119 146
139 1 117 118 120 140
140 1 119 118 117 139
141 1 119 118 120 140
142 1 120 118 117 139
143 1 98 99 100 101
144 1 100 99 98 126
145 1 98 99 100 128
146 1 127 99 100 128
147 1 98 126 125 101
148 1 98 126 125 144
149 12 462 463 484 494
150 12 462 463 484 495
151 12 462 463 484 496
152 10 461 462 463 484
153 1 461 462 464 465
154 1 463 462 464 465
155 10 464 462 463 484
156 1 461 462 464 485
157 1 463 462 461 483
158 1 463 462 464 485
159 1 464 462 461 483
160 1 462 464 465 486
161 1 485 464 465 486
162 8 15 16 18 19
163 8 17 16 18 19
164 7 15 16 17 38
165 7 15 16 17 39
166 7 15 16 17 40
167 8 15 16 18 41
168 8 17 16 15 37
169 8 17 16 18 41
170 8 18 16 15 37
171 7 18 16 17 38
172 7 18 16 17 39
173 7 18 16 17 40
174 1 6 26 25 9
175 1 6 26 25 46
176 1 1 29 28 4
177 1 1 29 28 48
178 1 2 1 29 28
179 1 29 1 2 3
180 1 30 1 2 3
181 1 30 1 29 28
182 1 2 1 29 49
183 11 2 1 30 243
184 11 2 1 30 244
185 11 2 1 30 245
186 1 29 1 2 31
187 11 29 1 30 243
188 7 29 1 30 243
189 11 29 1 30 244
190 7 29 1 30 244
191 11 29 1 30 245
192 7 29 1 30 245
193 1 30 1 2 31
194 1 30 1 29 49
195 1 4 28 29 49
196 1 48 28 29 49
197 1 9 25 26 47
198 1 46 25 26 47
199 8 14 15 16 17
200 8 14 15 16 18
201 8 16 15 14 19
202 4 9 10 11 12
203 4 9 10 11 24
204 4 11 10 9 25
205 1 11 24 23 21
206 1 11 24 23 44
207 9 457 459 460 482
208 9 481 459 460 482
209 9 455 460 459 457
210 9 455 460 459 481
211 1 453 461 462 463
212 1 453 461 462 464
213 9 16 18 19 42
214 9 41 18 19 42
215 8 456 457 459 460
216 8 458 457 459 460
217 7 456 457 458 478
218 7 456 457 458 479
219 7 456 457 458 480
220 8 456 457 459 481
221 8 458 457 456 477
222 8 458 457 459 481
223 8 459 457 456 477
224 7 459 457 458 478
225 7 459 457 458 479
226 7 459 457 458 480
227 6 453 454 455 456
228 7 453 454 455 460
229 5 455 454 453 461
230 8 454 455 456 457
231 8 454 455 460 459
232 8 456 455 460 459
233 8 454 455 456 477
234 8 454 455 460 482
235 7 456 455 454 475
236 7 456 455 454 476
237 8 456 455 460 482
238 7 460 455 454 475
239 7 460 455 454 476
240 8 460 455 456 477
241 5 452 453 454 455
242 1 452 453 461 462
243 1 454 453 452 465
244 1 454 453 461 462
245 1 461 453 452 465
246 7 452 453 454 475
247 7 452 453 454 476
248 1 452 453 461 483
249 1 454 453 461 483
250 7 461 453 454 475
251 7 461 453 454 476
252 8 455 456 457 458
253 8 455 456 457 459
254 8 457 456 455 460
255 1 452 465 464 462
256 1 452 465 464 485
257 1 451 452 453 454
258 1 451 452 453 461
259 1 451 452 465 464
260 1 453 452 465 464
261 1 451 452 465 486
262 1 453 452 465 486
263 4 450 451 452 453
264 4 450 451 452 465
265 4 452 451 450 466
266 4 449 450 451 452
267 1 449 450 466 467
268 1 451 450 466 467
269 1 449 450 466 487
270 1 451 450 449 474
271 1 451 450 466 487
272 1 466 450 449 474
273 1 450 466 467 488
274 1 487 466 467 488
275 1 447 448 449 450
276 1 449 448 447 467
277 1 447 448 449 474
278 1 473 448 449 474
279 1 448 449 450 451
280 1 448 449 450 466
281 1 450 449 448 473
282 1 447 467 466 450
283 1 447 467 466 487
284 1 446 447 448 449
285 1 446 447 467 466
286 3 448 447 446 468
287 1 448 447 467 466
288 3 467 447 446 468
289 1 446 447 448 473
290 1 446 447 467 488
291 1 448 447 467 488
292 1 467 447 448 473
293 2 445 446 447 448
294 2 445 446 447 467
295 2 447 446 445 469
296 3 468 446 445 469
297 1 5 6 7 8
298 1 5 6 26 25
299 3 7 6 5 27
300 1 7 6 26 25
301 3 26 6 5 27
302 1 5 6 7 33
303 1 5 6 26 47
304 1 7 6 26 47
305 1 26 6 7 33
306 2 4 5 6 7
307 2 4 5 6 26
308 2 6 5 4 28
309 3 27 5 4 28
310 2 3 4 5 6
311 3 3 4 5 27
312 1 3 4 28 29
313 1 5 4 28 29
314 1 3 4 28 48
315 1 5 4 3 32
316 1 5 4 28 48
317 1 28 4 3 32
318 1 2 3 4 5
319 1 2 3 4 28
320 1 4 3 2 31
321 1 1 2 3 4
322 1 1 2 3 32
323 1 31 2 3 32
324 4 8 9 10 11
325 1 8 9 25 26
326 1 10 9 25 26
327 1 8 9 25 46
328 1 10 9 8 34
329 1 10 9 25 46
330 1 25 9 8 34
331 6 12 13 14 15
332 7 12 13 14 19
333 5 14 13 12 20
334 5 11 12 13 14
335 1 11 12 20 21
336 1 13 12 11 24
337 1 13 12 20 21
338 1 20 12 11 24
339 7 11 12 13 35
340 7 11 12 13 36
341 1 11 12 20 43
342 1 13 12 20 43
343 7 20 12 13 35
344 7 20 12 13 36
345 1 12 20 21 22
346 1 12 20 21 23
347 1 10 11 12 13
348 1 10 11 12 20
349 1 10 11 24 23
350 1 12 11 24 23
351 1 10 11 24 45
352 1 12 11 24 45
353 1 6 7 8 9
354 1 8 7 6 26
355 1 6 7 8 34
356 1 33 7 8 34
357 1 7 8 9 10
358 1 7 8 9 25
359 1 9 8 7 33
360 9 113 115 116 138
361 9 137 115 116 138
362 9 14 19 18 16
363 9 14 19 18 41
364 8 13 14 15 16
365 8 13 14 19 18
366 8 15 14 19 18
367 8 13 14 15 37
368 8 13 14 19 42
369 7 15 14 13 35
370 7 15 14 13 36
371 8 15 14 19 42
372 7 19 14 13 35
373 7 19 14 13 36
374 8 19 14 15 37
375 4 20 21 22 50
376 1 20 21 23 24
377 1 22 21 23 24
378 4 23 21 22 50
379 1 20 21 23 44
380 1 22 21 20 43
381 1 22 21 23 44
382 1 23 21 20 43
383 1 21 23 24 45
384 1 44 23 24 45
385 1 22 50 51 52
386 1 22 50 78 77
387 1 51 50 78 77
388 1 22 50 51 79
389 1 22 50 78 97
390 1 51 50 78 97
391 1 78 50 51 79
392 4 21 22 50 51
393 4 21 22 50 78
394 8 111 112 113 114
395 8 111 112 113 115
396 8 113 112 111 116
397 8 110 111 112 113
398 8 110 111 116 115
399 8 112 111 116 115
400 8 110 111 112 133
401 8 110 111 116 138
402 7 112 111 110 131
403 7 112 111 110 132
404 8 112 111 116 138
405 7 116 111 110 131
406 7 116 111 110 132
407 8 116 111 112 133
408 9 111 116 115 113
409 9 111 116 115 137
410 8 112 113 115 116
411 8 114 113 115 116
412 7 112 113 114 134
413 7 112 113 114 135
414 7 112 113 114 136
415 8 112 113 115 137
416 8 114 113 112 133
417 8 114 113 115 137
418 8 115 113 112 133
419 7 115 113 114 134
420 7 115 113 114 135
421 7 115 113 114 136
422 6 109 110 111 112
423 7 109 110 111 116
424 5 111 110 109 117
425 1 50 51 52 53
426 1 52 51 50 78
427 1 50 51 52 80
428 1 79 51 52 80
429 1 109 117 118 119
430 1 109 117 118 120
431 5 108 109 110 111
432 1 108 109 117 118
433 1 110 109 108 121
434 1 110 109 117 118
435 1 117 109 108 121
436 7 108 109 110 131
437 7 108 109 110 132
438 1 108 109 117 139
439 1 110 109 117 139
440 7 117 109 110 131
441 7 117 109 110 132
442 1 59 60 61 62
443 1 59 60 61 69
444 1 59 60 73 72
445 1 61 60 73 72
446 1 59 60 73 93
447 1 61 60 73 93
448 4 69 70 71 98
449 1 69 70 72 73
450 1 71 70 72 73
451 4 72 70 71 98
452 1 69 70 72 92
453 1 71 70 69 91
454 1 71 70 72 92
455 1 72 70 69 91
456 1 60 73 72 70
457 1 60 73 72 92
458 1 61 69 70 71
459 1 61 69 70 72
460 5 60 61 62 63
461 1 60 61 69 70
462 1 62 61 60 73
463 1 62 61 69 70
464 1 69 61 60 73
465 7 60 61 62 83
466 7 60 61 62 84
467 1 60 61 69 91
468 1 62 61 69 91
469 7 69 61 62 83
470 7 69 61 62 84
471 9 63 68 67 65
472 9 63 68 67 89
473 6 61 62 63 64
474 7 61 62 63 68
475 5 63 62 61 69
476 9 65 67 68 90
477 9 89 67 68 90
478 8 62 63 64 65
479 8 62 63 68 67
480 8 64 63 68 67
481 8 62 63 64 85
482 8 62 63 68 90
483 7 64 63 62 83
484 7 64 63 62 84
485 8 64 63 68 90
486 7 68 63 62 83
487 7 68 63 62 84
488 8 68 63 64 85
489 8 64 65 67 68
490 8 66 65 67 68
491 7 64 65 66 86
492 7 64 65 66 87
493 7 64 65 66 88
494 8 64 65 67 89
495 8 66 65 64 85
496 8 66 65 67 89
497 8 67 65 64 85
498 7 67 65 66 86
499 7 67 65 66 87
500 7 67 65 66 88
501 8 63 64 65 66
502 8 63 64 65 67
503 8 65 64 63 68
504 4 70 71 98 99
505 4 70 71 98 126
506 1 70 72 73 93
507 1 92 72 73 93
508 5 156 157 158 159
509 1 156 157 165 166
510 1 158 157 156 169
511 1 158 157 165 166
512 1 165 157 156 169
513 7 156 157 158 179
514 7 156 157 158 180
515 1 156 157 165 187
516 1 158 157 165 187
517 7 165 157 158 179
518 7 165 157 158 180
519 1 194 222 221 197
520 1 194 222 221 241
521 1 167 194 195 196
522 1 167 194 222 221
523 1 195 194 222 221
524 1 167 194 195 223
525 1 167 194 222 242
526 1 195 194 222 242
527 1 222 194 195 223
528 4 165 166 167 194
529 1 165 166 168 169
530 1 167 166 168 169
531 4 168 166 167 194
532 1 165 166 168 188
533 1 167 166 165 187
534 1 167 166 168 188
535 1 168 166 165 187
536 4 166 167 194 195
537 4 166 167 194 222
538 1 157 165 166 167
539 1 157 165 166 168
540 6 157 158 159 160
541 7 157 158 159 164
542 5 159 158 157 165
543 1 194 195 196 197
544 1 196 195 194 222
545 1 194 195 196 224
546 1 223 195 196 224
547 4 366 367 394 395
548 4 366 367 394 422
549 1 357 365 366 367
550 1 357 365 366 368
551 5 356 357 358 359
552 1 356 357 365 366
553 1 358 357 356 369
554 1 358 357 365 366
555 1 365 357 356 369
556 7 356 357 358 379
557 7 356 357 358 380
558 1 356 357 365 387
559 1 358 357 365 387
560 7 365 357 358 379
561 7 365 357 358 380
562 4 365 366 367 394
563 1 365 366 368 369
564 1 367 366 368 369
565 4 368 366 367 394
566 1 365 366 368 388
567 1 367 366 365 387
568 1 367 366 368 388
569 1 368 366 365 387
570 1 366 368 369 389
571 1 388 368 369 389
572 1 356 369 368 366
573 1 356 369 368 388
574 6 357 358 359 360
575 7 357 358 359 364
576 5 359 358 357 365
577 1 355 356 357 358
578 1 355 356 357 365
579 1 355 356 369 368
580 1 357 356 369 368
581 1 355 356 369 389
582 1 357 356 369 389
583 4 354 355 356 357
584 4 354 355 356 369
585 4 356 355 354 370
586 4 353 354 355 356
587 1 353 354 370 371
588 1 355 354 370 371
589 1 353 354 370 390
590 1 355 354 353 378
591 1 355 354 370 390
592 1 370 354 353 378
593 1 197 221 222 242
594 1 241 221 222 242
595 2 197 198 199 200
596 2 197 198 199 219
597 2 199 198 197 221
598 3 220 198 197 221
599 2 196 197 198 199
600 3 196 197 198 220
601 1 196 197 221 222
602 1 198 197 221 222
603 1 196 197 221 241
604 1 198 197 196 224
605 1 198 197 221 241
606 1 221 197 196 224
607 1 195 196 197 198
608 1 195 196 197 221
609 1 197 196 195 223
610 1 198 199 200 201
611 1 198 199 219 218
612 3 200 199 198 220
613 1 200 199 219 218
614 3 219 199 198 220
615 1 198 199 200 225
616 1 198 199 219 240
617 1 200 199 219 240
618 1 219 199 200 225
619 1 200 201 202 203
620 1 200 201 202 218
621 1 202 201 200 225
622 1 199 200 201 202
623 1 201 200 199 219
624 1 199 200 201 226
625 1 225 200 201 226
626 1 199 219 218 202
627 1 199 219 218 239
628 4 202 203 204 205
629 4 202 203 204 217
630 4 204 203 202 218
631 1 202 218 219 240
632 1 239 218 219 240
633 4 201 202 203 204
634 1 201 202 218 219
635 1 203 202 218 219
636 1 201 202 218 239
637 1 203 202 201 226
638 1 203 202 218 239
639 1 218 202 201 226
640 1 203 204 205 206
641 1 203 204 205 213
642 1 203 204 217 216
643 1 205 204 217 216
644 1 203 204 217 238
645 1 205 204 217 238
646 6 205 206 207 208
647 7 205 206 207 212
648 5 207 206 205 213
649 8 207 208 209 210
650 8 207 208 209 211
651 8 209 208 207 212
652 8 206 207 208 209
653 8 206 207 212 211
654 8 208 207 212 211
655 8 206 207 208 229
656 8 206 207 212 234
657 7 208 207 206 227
658 7 208 207 206 228
659 8 208 207 212 234
660 7 212 207 206 227
661 7 212 207 206 228
662 8 212 207 208 229
663 10 213 214 215 236
664 1 213 214 216 217
665 1 215 214 216 217
666 10 216 214 215 236
667 1 213 214 216 237
668 1 215 214 213 235
669 1 215 214 216 237
670 1 216 214 213 235
671 1 214 216 217 238
672 1 237 216 217 238
673 5 204 205 206 207
674 1 204 205 213 214
675 1 206 205 204 217
676 1 206 205 213 214
677 1 213 205 204 217
678 7 204 205 206 227
679 7 204 205 206 228
680 1 204 205 213 235
681 1 206 205 213 235
682 7 213 205 206 227
683 7 213 205 206 228
684 1 204 217 216 214
685 1 204 217 216 237
686 12 214 215 236 246
687 12 214 215 236 247
688 12 214 215 236 248
689 1 205 213 214 215
690 1 205 213 214 216
691 9 207 212 211 209
692 9 207 212 211 233
693 1 394 422 421 397
694 1 394 422 421 440
695 1 367 394 395 396
696 1 367 394 422 421
697 1 395 394 422 421
698 1 367 394 395 423
699 1 367 394 422 441
700 1 395 394 422 441
701 1 422 394 395 423
702 1 394 395 396 397
703 1 396 395 394 422
704 1 394 395 396 424
705 1 423 395 396 424
706 1 395 396 397 398
707 1 395 396 397 421
708 1 397 396 395 423
709 1 399 419 418 402
710 1 399 419 418 438
711 1 399 400 401 402
712 1 401 400 399 419
713 1 399 400 401 426
714 1 425 400 401 426
715 1 398 399 400 401
716 1 398 399 419 418
717 3 400 399 398 420
718 1 400 399 419 418
719 3 419 399 398 420
720 1 398 399 400 425
721 1 398 399 419 439
722 1 400 399 419 439
723 1 419 399 400 425
724 1 402 418 419 439
725 1 438 418 419 439
726 2 396 397 398 399
727 3 396 397 398 420
728 1 396 397 421 422
729 1 398 397 421 422
730 1 396 397 421 440
731 1 398 397 396 424
732 1 398 397 421 440
733 1 421 397 396 424
734 9 361 363 364 386
735 9 385 363 364 386
736 8 360 361 363 364
737 8 362 361 363 364
738 7 360 361 362 382
739 7 360 361 362 383
740 7 360 361 362 384
741 8 360 361 363 385
742 8 362 361 360 381
743 8 362 361 363 385
744 8 363 361 360 381
745 7 363 361 362 382
746 7 363 361 362 383
747 7 363 361 362 384
748 9 359 364 363 361
749 9 359 364 363 385
750 8 358 359 360 361
751 8 358 359 364 363
752 8 360 359 364 363
753 8 358 359 360 381
754 8 358 359 364 386
755 7 360 359 358 379
756 7 360 359 358 380
757 8 360 359 364 386
758 7 364 359 358 379
759 7 364 359 358 380
760 8 364 359 360 381
761 8 359 360 361 362
762 8 359 360 361 363
763 8 361 360 359 364
764 1 352 353 354 355
765 1 352 353 354 370
766 1 354 353 352 377
767 1 351 352 353 354
768 1 353 352 351 371
769 1 351 352 353 378
770 1 377 352 353 378
771 1 349 373 374 393
772 1 392 373 374 393
773 1 346 374 373 349
774 1 346 374 373 392
775 1 354 370 371 391
776 1 390 370 371 391
777 1 351 371 370 354
778 1 351 371 370 390
779 2 348 349 350 351
780 3 348 349 350 372
781 1 348 349 373 374
782 1 350 349 373 374
783 1 348 349 373 392
784 1 350 349 348 376
785 1 350 349 373 392
786 1 373 349 348 376
787 1 350 351 352 353
788 1 350 351 371 370
789 3 352 351 350 372
790 1 352 351 371 370
791 3 371 351 350 372
792 1 350 351 352 377
793 1 350 351 371 391
794 1 352 351 371 391
795 1 371 351 352 377
796 2 349 350 351 352
797 2 349 350 351 371
798 2 351 350 349 373
799 3 372 350 349 373
800 1 347 348 349 350
801 1 347 348 349 373
802 1 349 348 347 375
803 9 313 315 316 338
804 9 337 315 316 338
805 8 312 313 315 316
806 8 314 313 315 316
807 7 312 313 314 334
808 7 312 313 314 335
809 7 312 313 314 336
810 8 312 313 315 337
811 8 314 313 312 333
812 8 314 313 315 337
813 8 315 313 312 333
814 7 315 313 314 334
815 7 315 313 314 335
816 7 315 313 314 336
817 9 311 316 315 313
818 9 311 316 315 337
819 8 208 209 211 212
820 8 210 209 211 212
821 7 208 209 210 230
822 7 208 209 210 231
823 7 208 209 210 232
824 8 208 209 211 233
825 8 210 209 208 229
826 8 210 209 211 233
827 8 211 209 208 229
828 7 211 209 210 230
829 7 211 209 210 231
830 7 211 209 210 232
831 9 209 211 212 234
832 9 233 211 212 234
833 1 166 168 169 189
834 1 188 168 169 189
835 1 400 401 402 403
836 1 400 401 402 418
837 1 402 401 400 425
838 4 401 402 403 404
839 1 401 402 418 419
840 1 403 402 418 419
841 1 401 402 418 438
842 1 403 402 401 426
843 1 403 402 418 438
844 1 418 402 401 426
845 4 402 403 404 405
846 4 402 403 404 417
847 4 404 403 402 418
848 1 397 421 422 441
849 1 440 421 422 441
850 1 319 346 347 348
851 1 319 346 374 373
852 1 347 346 374 373
853 1 319 346 347 375
854 1 319 346 374 393
855 1 347 346 374 393
856 1 374 346 347 375
857 1 346 347 348 349
858 1 348 347 346 374
859 1 346 347 348 376
860 1 375 347 348 376
861 9 409 411 412 434
862 9 433 411 412 434
863 8 407 408 409 410
864 8 407 408 409 411
865 8 409 408 407 412
866 8 408 409 411 412
867 8 410 409 411 412
868 7 408 409 410 430
869 7 408 409 410 431
870 7 408 409 410 432
871 8 408 409 411 433
872 8 410 409 408 429
873 8 410 409 411 433
874 8 411 409 408 429
875 7 411 409 410 430
876 7 411 409 410 431
877 7 411 409 410 432
878 8 406 407 408 409
879 8 406 407 412 411
880 8 408 407 412 411
881 8 406 407 408 429
882 8 406 407 412 434
883 7 408 407 406 427
884 7 408 407 406 428
885 8 408 407 412 434
886 7 412 407 406 427
887 7 412 407 406 428
888 8 412 407 408 429
889 9 407 412 411 409
890 9 407 412 411 433
891 8 310 311 312 313
892 8 310 311 316 315
893 8 312 311 316 315
894 8 310 311 312 333
895 8 310 311 316 338
896 7 312 311 310 331
897 7 312 311 310 332
898 8 312 311 316 338
899 7 316 311 310 331
900 7 316 311 310 332
901 8 316 311 312 333
902 8 311 312 313 314
903 8 311 312 313 315
904 8 313 312 311 316
905 6 309 310 311 312
906 7 309 310 311 316
907 5 311 310 309 317
908 2 397 398 399 400
909 2 397 398 399 419
910 2 399 398 397 421
911 3 420 398 397 421
912 1 404 417 416 414
913 1 404 417 416 436
914 1 414 416 417 437
915 1 436 416 417 437
916 1 405 413 414 415
917 1 405 413 414 416
918 4 413 414 415 442
919 1 413 414 416 417
920 1 415 414 416 417
921 4 416 414 415 442
922 1 413 414 416 436
923 1 415 414 413 435
924 1 415 414 416 436
925 1 416 414 413 435
926 4 414 415 442 443
927 4 414 415 442 470
928 5 404 405 406 407
929 1 404 405 413 414
930 1 406 405 404 417
931 1 406 405 413 414
932 1 413 405 404 417
933 7 404 405 406 427
934 7 404 405 406 428
935 1 404 405 413 435
936 1 406 405 413 435
937 7 413 405 406 427
938 7 413 405 406 428
939 1 415 442 443 444
940 1 415 442 470 469
941 1 443 442 470 469
942 1 415 442 443 471
943 1 415 442 470 490
944 1 443 442 470 490
945 1 470 442 443 471
946 1 442 470 469 445
947 1 442 470 469 489
948 1 445 469 470 490
949 1 489 469 470 490
950 1 403 404 405 406
951 1 403 404 405 413
952 1 403 404 417 416
953 1 405 404 417 416
954 1 403 404 417 437
955 1 405 404 417 437
956 6 405 406 407 408
957 7 405 406 407 412
958 5 407 406 405 413
959 1 318 320 321 341
960 1 340 320 321 341
961 1 308 321 320 318
962 1 308 321 320 340
963 1 307 308 309 310
964 1 307 308 309 317
965 1 307 308 321 320
966 1 309 308 321 320
967 1 307 308 321 341
968 1 309 308 321 341
969 4 306 307 308 309
970 4 306 307 308 321
971 4 308 307 306 322
972 4 305 306 307 308
973 1 305 306 322 323
974 1 307 306 322 323
975 1 305 306 322 342
976 1 307 306 305 330
977 1 307 306 322 342
978 1 322 306 305 330
979 1 304 305 306 307
980 1 304 305 306 322
981 1 306 305 304 329
982 1 303 304 305 306
983 1 305 304 303 323
984 1 303 304 305 330
985 1 329 304 305 330
986 1 306 322 323 343
987 1 342 322 323 343
988 1 302 303 304 305
989 1 302 303 323 322
990 3 304 303 302 324
991 1 304 303 323 322
992 3 323 303 302 324
993 1 302 303 304 329
994 1 302 303 323 343
995 1 304 303 323 343
996 1 323 303 304 329
997 2 301 302 303 304
998 2 301 302 303 323
999 2 303 302 301 325
1000 3 324 302 301 325
1001 1 303 323 322 306
1002 1 303 323 322 342
1003 2 444 445 446 447
1004 3 444 445 446 468
1005 1 444 445 469 470
1006 1 446 445 469 470
1007 1 444 445 469 489
1008 1 446 445 444 472
1009 1 446 445 469 489
1010 1 469 445 444 472
1011 1 442 443 444 445
1012 1 444 443 442 470
1013 1 442 443 444 472
1014 1 471 443 444 472
1015 1 443 444 445 446
1016 1 443 444 445 469
1017 1 445 444 443 471
1018 1 259 272 271 269
1019 1 259 272 271 292
1020 1 269 271 272 293
1021 1 292 271 272 293
1022 1 298 326 325 301
1023 1 298 326 325 344
1024 4 268 269 270 298
1025 1 268 269 271 272
1026 1 270 269 271 272
1027 4 271 269 270 298
1028 1 268 269 271 292
1029 1 270 269 268 291
1030 1 270 269 271 292
1031 1 271 269 268 291
1032 1 299 300 301 302
1033 1 299 300 301 325
1034 1 301 300 299 327
1035 1 298 299 300 301
1036 1 300 299 298 326
1037 1 298 299 300 328
1038 1 327 299 300 328
1039 1 301 325 326 345
1040 1 344 325 326 345
1041 4 269 270 298 299
1042 4 269 270 298 326
1043 1 270 298 299 300
1044 1 270 298 326 325
1045 1 299 298 326 325
1046 1 270 298 299 327
1047 1 270 298 326 345
1048 1 299 298 326 345
1049 1 326 298 299 327
1050 2 300 301 302 303
1051 3 300 301 302 324
1052 1 300 301 325 326
1053 1 302 301 325 326
1054 1 300 301 325 344
1055 1 302 301 300 328
1056 1 302 301 325 344
1057 1 325 301 300 328
1058 1 53 77 78 97
1059 1 96 77 78 97
1060 2 52 53 54 55
1061 3 52 53 54 76
1062 1 52 53 77 78
1063 1 54 53 77 78
1064 1 52 53 77 96
1065 1 54 53 52 80
1066 1 54 53 77 96
1067 1 77 53 52 80
1068 1 51 52 53 54
1069 1 51 52 53 77
1070 1 53 52 51 79
1071 1 249 250 251 252
1072 1 249 250 251 280
1073 1 279 250 251 280
1074 1 250 249 277 276
1075 1 277 249 250 251
1076 1 278 249 250 251
1077 1 278 249 277 276
1078 1 250 249 277 297
1079 11 250 249 278 491
1080 11 250 249 278 492
1081 11 250 249 278 493
1082 1 277 249 250 279
1083 11 277 249 278 491
1084 7 277 249 278 491
1085 11 277 249 278 492
1086 7 277 249 278 492
1087 11 277 249 278 493
1088 7 277 249 278 493
1089 1 278 249 250 279
1090 1 278 249 277 297
1091 1 249 277 276 252
1092 1 249 277 276 296
1093 1 250 251 252 253
1094 1 250 251 252 276
1095 1 252 251 250 279
1096 1 252 276 277 297
1097 1 296 276 277 297
1098 2 251 252 253 254
1099 3 251 252 253 275
1100 1 251 252 276 277
1101 1 253 252 276 277
1102 1 251 252 276 296
1103 1 253 252 251 280
1104 1 253 252 276 296
1105 1 276 252 251 280
1106 1 254 255 256 257
1107 1 256 255 254 274
1108 1 254 255 256 282
1109 1 281 255 256 282
1110 2 252 253 254 255
1111 2 252 253 254 274
1112 2 254 253 252 276
1113 3 275 253 252 276
1114 1 253 254 255 256
1115 1 253 254 274 273
1116 3 255 254 253 275
1117 1 255 254 274 273
1118 3 274 254 253 275
1119 1 253 254 255 281
1120 1 253 254 274 295
1121 1 255 254 274 295
1122 1 274 254 255 281
1123 1 258 259 260 261
1124 1 258 259 260 268
1125 1 258 259 272 271
1126 1 260 259 272 271
1127 1 258 259 272 293
1128 1 260 259 272 293
1129 8 263 264 266 267
1130 8 265 264 266 267
1131 7 263 264 265 286
1132 7 263 264 265 287
1133 7 263 264 265 288
1134 8 263 264 266 289
1135 8 265 264 263 285
1136 8 265 264 266 289
1137 8 266 264 263 285
1138 7 266 264 265 286
1139 7 266 264 265 287
1140 7 266 264 265 288
1141 8 262 263 264 265
1142 8 262 263 264 266
1143 8 264 263 262 267
1144 4 257 258 259 260
1145 4 257 258 259 272
1146 4 259 258 257 273
1147 9 264 266 267 290
1148 9 289 266 267 290
1149 8 261 262 263 264
1150 8 261 262 267 266
1151 8 263 262 267 266
1152 8 261 262 263 285
1153 8 261 262 267 290
1154 7 263 262 261 283
1155 7 263 262 261 284
1156 8 263 262 267 290
1157 7 267 262 261 283
1158 7 267 262 261 284
1159 8 267 262 263 285
1160 1 260 268 269 270
1161 1 260 268 269 271
1162 1 255 256 257 258
1163 1 255 256 257 273
1164 1 257 256 255 281
1165 4 256 257 258 259
1166 1 256 257 273 274
1167 1 258 257 273 274
1168 1 256 257 273 294
1169 1 258 257 256 282
1170 1 258 257 273 294
1171 1 273 257 256 282
1172 6 260 261 262 263
1173 7 260 261 262 267
1174 5 262 261 260 268
1175 5 259 260 261 262
1176 1 259 260 268 269
1177 1 261 260 259 272
1178 1 261 260 268 269
1179 1 268 260 259 272
1180 7 259 260 261 283
1181 7 259 260 261 284
1182 1 259 260 268 291
1183 1 261 260 268 291
1184 7 268 260 261 283
1185 7 268 260 261 284
1186 1 254 274 273 257
1187 1 254 274 273 294
1188 1 257 273 274 295
1189 1 294 273 274 295
1190 9 262 267 266 264
1191 9 262 267 266 289
1192 1 50 78 77 53
1193 1 50 78 77 96
1194 9 161 163 164 186
1195 9 185 163 164 186
1196 8 160 161 163 164
1197 8 162 161 163 164
1198 7 160 161 162 182
1199 7 160 161 162 183
1200 7 160 161 162 184
1201 8 160 161 163 185
1202 8 162 161 160 181
1203 8 162 161 163 185
1204 8 163 161 160 181
1205 7 163 161 162 182
1206 7 163 161 162 183
1207 7 163 161 162 184
1208 1 56 57 58 59
1209 1 56 57 58 74
1210 1 58 57 56 81
1211 2 53 54 55 56
1212 2 53 54 55 75
1213 2 55 54 53 77
1214 3 76 54 53 77
1215 1 54 55 56 57
1216 1 54 55 75 74
1217 3 56 55 54 76
1218 1 56 55 75 74
1219 3 75 55 54 76
1220 1 54 55 56 81
1221 1 54 55 75 95
1222 1 56 55 75 95
1223 1 75 55 56 81
1224 1 55 56 57 58
1225 1 57 56 55 75
1226 1 55 56 57 82
1227 1 81 56 57 82
1228 1 55 75 74 58
1229 1 55 75 74 94
1230 4 58 59 60 61
1231 4 58 59 60 73
1232 4 60 59 58 74
1233 8 159 160 161 162
1234 8 159 160 161 163
1235 8 161 160 159 164
1236 4 57 58 59 60
1237 1 57 58 74 75
1238 1 59 58 74 75
1239 1 57 58 74 94
1240 1 59 58 57 82
1241 1 59 58 74 94
1242 1 74 58 57 82
1243 1 58 74 75 95
1244 1 94 74 75 95
1245 9 159 164 163 161
1246 9 159 164 163 185
1247 8 158 159 160 161
1248 8 158 159 164 163
1249 8 160 159 164 163
1250 8 158 159 160 181
1251 8 158 159 164 186
1252 7 160 159 158 179
1253 7 160 159 158 180
1254 8 160 159 164 186
1255 7 164 159 158 179
1256 7 164 159 158 180
1257 8 164 159 160 181
1258 4 317 318 319 346
1259 1 317 318 320 321
1260 1 319 318 320 321
1261 4 320 318 319 346
1262 1 317 318 320 340
1263 1 319 318 317 339
1264 1 319 318 320 340
1265 1 320 318 317 339
1266 5 308 309 310 311
1267 1 308 309 317 318
1268 1 310 309 308 321
1269 1 310 309 317 318
1270 1 317 309 308 321
1271 7 308 309 310 331
1272 7 308 309 310 332
1273 1 308 309 317 339
1274 1 310 309 317 339
1275 7 317 309 310 331
1276 7 317 309 310 332
1277 4 318 319 346 347
1278 4 318 319 346 374
1279 1 309 317 318 319
1280 1 309 317 318 320

Impropers

1 1 151 153 152 177
2 1 157 169 156 155
3 1 166 169 168 188
4 1 158 156 157 165
5 1 152 154 153 178
6 1 153 170 154 155
7 1 151 170 171 191
8 1 150 152 151 171
9 1 117 120 118 119
10 1 108 120 121 141
11 1 147 174 146 119
12 1 149 174 173 192
13 1 147 149 148 176
14 1 154 171 170 190
15 1 146 173 174 193
16 2 149 151 150 172
17 1 150 148 149 173
18 1 146 148 147 175
19 1 102 104 103 123
20 1 103 105 104 129
21 1 98 125 126 145
22 1 99 101 100 128
23 2 101 103 102 124
24 1 106 123 122 142
25 1 109 121 108 107
26 1 118 121 120 140
27 1 102 100 101 125
28 1 98 100 99 127
29 1 104 106 105 130
30 1 110 108 109 117
31 1 105 122 106 107
32 1 103 122 123 143
33 1 109 118 117 139
34 1 99 126 98 71
35 1 101 126 125 144
36 1 453 462 461 483
37 1 461 464 462 463
38 1 452 464 465 486
39 1 19 41 18 16
40 1 9 26 25 46
41 1 4 29 28 48
42 1 30 1 29 2
43 1 1 28 29 49
44 1 8 25 9 10
45 1 6 25 26 47
46 1 13 15 14 19
47 1 17 15 16 18
48 1 12 24 11 10
49 1 21 24 23 44
50 1 459 482 460 455
51 1 460 481 459 457
52 1 477 455 456 457
53 1 454 456 455 460
54 1 458 456 457 459
55 1 453 465 452 451
56 1 462 465 464 485
57 1 454 452 453 461
58 1 448 450 449 474
59 1 449 466 450 451
60 1 447 466 467 488
61 1 446 448 447 467
62 1 447 449 448 473
63 1 450 467 466 487
64 2 445 447 446 468
65 2 4 6 5 27
66 1 2 4 3 32
67 1 5 3 4 28
68 1 1 3 2 31
69 1 7 9 8 34
70 1 13 11 12 20
71 1 5 7 6 26
72 1 6 8 7 33
73 1 18 42 19 14
74 1 37 14 15 16
75 1 116 137 115 113
76 1 115 138 116 111
77 1 12 21 20 43
78 1 20 23 21 22
79 1 11 23 24 45
80 1 110 112 111 116
81 1 114 112 113 115
82 1 133 111 112 113
83 1 62 60 61 69
84 1 61 70 69 91
85 1 61 73 60 59
86 1 70 73 72 92
87 1 67 90 68 63
88 1 85 63 64 65
89 1 68 89 67 65
90 1 62 64 63 68
91 1 66 64 65 67
92 1 69 72 70 71
93 1 60 72 73 93
94 1 195 222 194 167
95 1 197 222 221 241
96 1 157 166 165 187
97 1 357 366 365 387
98 1 365 368 366 367
99 1 356 368 369 389
100 1 357 369 356 355
101 1 366 369 368 388
102 1 358 356 357 365
103 1 352 354 353 378
104 1 194 221 222 242
105 1 195 197 196 224
106 1 198 196 197 221
107 1 194 196 195 223
108 2 197 199 198 220
109 1 199 201 200 225
110 1 198 200 199 219
111 1 202 219 218 239
112 1 201 218 202 203
113 1 199 218 219 240
114 1 200 202 201 226
115 1 206 204 205 213
116 1 206 208 207 212
117 1 210 208 209 211
118 1 229 207 208 209
119 1 205 214 213 235
120 1 213 216 214 215
121 1 204 216 217 238
122 1 205 217 204 203
123 1 214 217 216 237
124 1 211 234 212 207
125 1 395 422 394 367
126 1 397 422 421 440
127 1 398 396 397 421
128 1 394 396 395 423
129 1 402 419 418 438
130 1 398 400 399 419
131 2 397 399 398 420
132 1 401 418 402 403
133 1 399 418 419 439
134 1 395 397 396 424
135 1 364 385 363 361
136 1 363 386 364 359
137 1 381 359 360 361
138 1 358 360 359 364
139 1 362 360 361 363
140 1 351 353 352 377
141 1 350 352 351 371
142 1 346 373 374 393
143 1 347 374 346 319
144 1 349 374 373 392
145 1 353 370 354 355
146 1 351 370 371 391
147 1 354 371 370 390
148 1 347 349 348 376
149 2 349 351 350 372
150 1 350 348 349 373
151 1 346 348 347 375
152 1 316 337 315 313
153 1 315 338 316 311
154 1 212 233 211 209
155 1 165 168 166 167
156 1 156 168 169 189
157 1 399 401 400 425
158 1 400 402 401 426
159 1 394 421 422 441
160 1 406 408 407 412
161 1 410 408 409 411
162 1 429 407 408 409
163 1 412 433 411 409
164 1 411 434 412 407
165 1 333 311 312 313
166 1 310 312 311 316
167 1 314 312 313 315
168 1 405 417 404 403
169 1 414 417 416 436
170 1 413 416 414 415
171 1 404 416 417 437
172 1 405 414 413 435
173 1 443 470 442 415
174 1 445 470 469 489
175 1 442 469 470 490
176 1 406 404 405 413
177 1 317 320 318 319
178 1 308 320 321 341
179 1 309 321 308 307
180 1 318 321 320 340
181 1 310 308 309 317
182 1 304 306 305 330
183 1 303 305 304 329
184 1 302 304 303 323
185 1 305 322 306 307
186 1 303 322 323 343
187 2 301 303 302 324
188 1 306 323 322 342
189 1 443 445 444 472
190 1 446 444 445 469
191 1 442 444 443 471
192 1 260 272 259 258
193 1 269 272 271 292
194 1 268 271 269 270
195 1 259 271 272 293
196 1 299 326 298 270
197 1 301 326 325 344
198 1 260 269 268 291
199 1 302 300 301 325
200 1 298 300 299 327
201 1 298 325 326 345
202 1 299 301 300 328
203 1 50 77 78 97
204 1 51 53 52 80
205 1 54 52 53 77
206 1 50 52 51 79
207 1 278 249 277 250
208 1 252 277 276 296
209 1 253 251 252 276
210 1 249 251 250 279
211 1 249 276 277 297
212 1 250 252 251 280
213 1 253 255 254 274
214 2 252 254 253 275
215 1 261 259 260 268
216 1 261 263 262 267
217 1 265 263 264 266
218 1 285 262 263 264
219 1 254 256 255 281
220 1 255 257 256 282
221 1 257 274 273 294
222 1 256 273 257 258
223 1 254 273 274 295
224 1 266 290 267 262
225 1 51 78 50 22
226 1 53 78 77 96
227 1 164 185 163 161
228 1 55 57 56 81
229 2 53 55 54 76
230 1 54 56 55 75
231 1 58 75 74 94
232 1 158 160 159 164
233 1 162 160 161 163
234 1 56 58 57 82
235 1 57 74 58 59
236 1 55 74 75 95
237 1 267 289 266 264
238 1 163 186 164 159
239 1 181 159 160 161
240 1 309 318 317 339
