LAMMPS data file written by aemwater

516 atoms
544 bonds
884 angles
1280 dihedrals
240 impropers

15 atom types
17 bond types
28 angle types
12 dihedral types
2 improper types

0.0 40.714705 xlo xhi
0.0 40.714705 ylo yhi
0.0 40.714705 zlo zhi

Masses

1 12.010000  # ca
2 12.010000  # c
3 16.000000  # os
4 12.010000  # c3
5 14.010000  # na
6 12.010000  # cc
7 12.010000  # cd
8 16.000000  # o
9 1.008000  # ha
10 1.008000  # h1
11 1.008000  # h5
12 1.008000  # h4
13 1.008000  # hc
14 15.999400  # O_OH
15 1.008000  # H_OH

Pair Coeffs # lj/cut/coul/long

1 0.09880000 3.31521231  # ca
2 0.09880000 3.31521231  # c
3 0.07260000 3.15609780  # os
4 0.10780000 3.39770953  # c3
5 0.20420000 3.20580995  # na
6 0.09880000 3.31521231  # cc
7 0.09880000 3.31521231  # cd
8 0.14630000 3.04812087  # o
9 0.01610000 2.62547852  # ha
10 0.02080000 2.42199726  # h1
11 0.01610000 2.44729878  # h5
12 0.01610000 2.53638865  # h4
13 0.02080000 2.60017700  # hc
14 0.15530000 3.16600000  # O_OH
15 0.00000000 0.00000000  # H_OH

Bond Coeffs # harmonic

1 354.250000 1.398600
2 243.910000 1.514700
3 262.840000 1.490700
4 590.600000 1.219000
5 343.340000 1.368800
6 254.790000 1.463900
7 335.500000 1.380300
8 332.450000 1.383000
9 386.240000 1.373000
10 282.270000 1.427300
11 360.690000 1.086000
12 344.220000 1.096900
13 366.970000 1.082000
14 368.720000 1.080900
15 367.290000 1.081800
16 345.250000 1.096200
17 553.000000 0.980000

Angle Coeffs # harmonic

1 63.670000 120.020052
2 60.740000 120.830052
3 61.440000 120.330052
4 60.270000 117.930051
5 77.960000 122.600053
6 79.000000 119.110051
7 89.670000 119.870051
8 65.350000 113.100048
9 75.210000 126.650055
10 75.490000 125.500054
11 76.160000 109.360047
12 71.990000 108.990047
13 79.590000 120.210051
14 83.110000 110.480047
15 72.810000 106.750046
16 88.260000 118.390051
17 44.900000 119.880051
18 43.610000 110.630047
19 43.810000 109.600047
20 48.100000 108.760047
21 47.830000 121.780052
22 48.080000 120.170051
23 47.990000 121.010052
24 44.200000 127.640055
25 43.950000 129.110055
26 35.640000 108.550047
27 62.700000 108.700047
28 35.800000 107.730046

Dihedral Coeffs # charmm

1 3.625000 2 180 0.0
2 1.250000 2 180 0.0
3 0.580000 2 180 0.0
4 0.900000 2 180 0.0
5 0.295000 2 180 0.0
6 0.561667 2 0 0.0
7 0.000000 2 0 0.0
8 1.700000 2 180 0.0
9 4.000000 2 180 0.0
10 1.660000 2 180 0.0
11 0.000000 1 0 0.0
12 0.383333 3 0 0.0

Improper Coeffs # cvff

1 1.100000 -1 2
2 10.500000 -1 2

Atoms # full

1 1 1 -0.029353 -16.937904 -1.384620 8.913902 0 0 0
2 1 1 -0.137553 -16.423342 -1.086463 10.182406 0 0 0
3 1 1 -0.072053 -16.076670 0.225246 10.517079 0 0 0
4 1 1 -0.178653 -16.267353 1.253933 9.587497 0 0 0
5 1 2 0.587300 -15.905064 2.658234 9.896759 0 0 0
6 1 1 -0.153653 -16.096551 3.237399 11.249734 0 0 0
7 1 1 -0.054553 -15.192403 4.214343 11.685633 0 0 0
8 1 1 -0.157553 -15.361329 4.830670 12.927892 0 0 0
9 1 1 0.103047 -16.443905 4.475523 13.737384 0 0 0
10 1 3 -0.303200 -16.745437 5.077464 14.940964 0 0 0
11 1 1 0.088047 -15.703300 5.603168 15.668840 0 0 0
12 1 1 -0.131353 -15.587318 6.994426 15.803027 0 0 0
13 1 4 0.093547 -16.521475 7.937549 15.094132 0 0 0
14 1 5 -0.017100 -17.852681 7.876339 15.694648 0 0 0
15 1 6 -0.007653 -18.910864 7.289193 15.114238 0 0 0
16 1 5 -0.029100 -19.966910 7.466079 15.921402 0 0 0
17 1 4 0.005547 -21.317115 6.995999 15.637543 0 0 0
18 1 6 -0.120353 -19.572523 8.164686 17.050426 0 0 0
19 1 7 -0.113353 -18.239210 8.426303 16.906236 0 0 0
20 1 1 -0.110053 -14.534442 7.498428 16.586526 0 0 0
21 1 1 0.134047 -13.628685 6.638138 17.221606 0 0 0
22 1 3 -0.317900 -12.605374 7.262932 17.900926 0 0 0
23 1 1 -0.143053 -13.762652 5.257038 17.073417 0 0 0
24 1 1 -0.112053 -14.811673 4.738804 16.312248 0 0 0
25 1 1 -0.157553 -17.355582 3.510281 13.298428 0 0 0
26 1 1 -0.054553 -17.185376 2.890228 12.056926 0 0 0
27 1 8 -0.514100 -15.441783 3.375452 9.013975 0 0 0
28 1 1 -0.072053 -16.771110 0.961765 8.315915 0 0 0
29 1 1 -0.137553 -17.116345 -0.350349 7.986634 0 0 0
30 1 4 -0.058853 -17.334868 -2.789895 8.565013 0 0 0
31 1 9 0.148947 -16.276631 -1.881341 10.911168 0 0 0
32 1 9 0.150447 -15.640984 0.420017 11.493678 0 0 0
33 1 9 0.170447 -14.359789 4.505780 11.045474 0 0 0
34 1 9 0.153447 -14.644877 5.590116 13.226560 0 0 0
35 1 10 0.110147 -16.167892 8.974041 15.159411 0 0 0
36 1 10 0.110147 -16.584928 7.690215 14.028227 0 0 0
37 1 11 0.281947 -18.914293 6.774125 14.160219 0 0 0
38 1 10 0.098980 -21.291439 6.271731 14.818892 0 0 0
39 1 10 0.098980 -21.936259 7.849981 15.351022 0 0 0
40 1 10 0.098980 -21.729623 6.516223 16.528433 0 0 0
41 1 12 0.235947 -20.300508 8.387950 17.811998 0 0 0
42 1 12 0.234947 -17.508970 8.936813 17.510617 0 0 0
43 1 9 0.166947 -14.392664 8.573013 16.697866 0 0 0
44 1 9 0.169947 -13.055768 4.568035 17.527788 0 0 0
45 1 9 0.174947 -14.920757 3.661325 16.208846 0 0 0
46 1 9 0.153447 -18.207685 3.239241 13.916462 0 0 0
47 1 9 0.170447 -17.920932 2.161443 11.721410 0 0 0
48 1 9 0.150447 -16.894714 1.752114 7.576688 0 0 0
49 1 9 0.148947 -17.515861 -0.562349 6.996400 0 0 0
50 1 1 -0.029353 -11.944212 6.577748 18.890728 0 0 0
51 1 1 -0.137553 -12.600289 6.095263 20.023203 0 0 0
52 1 1 -0.072053 -11.863458 5.474715 21.036235 0 0 0
53 1 1 -0.178653 -10.468425 5.354223 20.932187 0 0 0
54 1 2 0.587300 -9.731996 4.729139 22.063453 0 0 0
55 1 1 -0.153653 -8.266250 4.630397 22.067197 0 0 0
56 1 1 -0.054553 -7.642149 3.530943 21.476060 0 0 0
57 1 1 -0.157553 -6.264117 3.365992 21.632108 0 0 0
58 1 1 0.103047 -5.520161 4.281264 22.389046 0 0 0
59 1 3 -0.303200 -4.196261 3.936867 22.573911 0 0 0
60 1 1 0.088047 -3.422083 4.745207 23.370757 0 0 0
61 1 1 -0.131353 -3.195210 4.418954 24.718360 0 0 0
62 1 4 0.093547 -3.812540 3.199809 25.355091 0 0 0
63 1 5 -0.017100 -5.154662 3.512655 25.855619 0 0 0
64 1 6 -0.007653 -6.287581 3.014033 25.332994 0 0 0
65 1 5 -0.029100 -7.317017 3.535364 26.015401 0 0 0
66 1 4 0.005547 -8.724767 3.291741 25.713364 0 0 0
67 1 6 -0.120353 -6.835303 4.335680 27.035524 0 0 0
68 1 7 -0.113353 -5.471788 4.312921 26.943914 0 0 0
69 1 1 -0.110053 -2.364367 5.267114 25.479957 0 0 0
70 1 1 0.134047 -1.767467 6.393567 24.899859 0 0 0
71 1 3 -0.317900 -0.975267 7.309565 25.557444 0 0 0
72 1 1 -0.143053 -1.992349 6.679568 23.551478 0 0 0
73 1 1 -0.112053 -2.804804 5.851581 22.782072 0 0 0
74 1 1 -0.157553 -6.153965 5.397356 22.948372 0 0 0
75 1 1 -0.054553 -7.531593 5.566461 22.798556 0 0 0
76 1 8 -0.514100 -10.307547 4.291740 23.057151 0 0 0
77 1 1 -0.072053 -9.816376 5.859837 19.799720 0 0 0
78 1 1 -0.137553 -10.556369 6.473523 18.783387 0 0 0
79 1 9 0.148947 -13.675552 6.211358 20.132671 0 0 0
80 1 9 0.150447 -12.383359 5.100532 21.917285 0 0 0
81 1 9 0.170447 -8.220102 2.791219 20.925350 0 0 0
82 1 9 0.153447 -5.772003 2.503888 21.184043 0 0 0
83 1 10 0.110147 -3.205315 2.847144 26.197432 0 0 0
84 1 10 0.110147 -3.873288 2.371392 24.640965 0 0 0
85 1 11 0.281947 -6.361394 2.323751 24.500999 0 0 0
86 1 10 0.098980 -9.185417 2.776090 26.560796 0 0 0
87 1 10 0.098980 -8.809569 2.668370 24.820704 0 0 0
88 1 10 0.098980 -9.222437 4.249926 25.547241 0 0 0
89 1 12 0.235947 -7.533707 4.820088 27.696608 0 0 0
90 1 12 0.234947 -4.681950 4.774036 27.511494 0 0 0
91 1 9 0.166947 -2.186903 5.038276 26.528209 0 0 0
92 1 9 0.169947 -1.524791 7.550017 23.095189 0 0 0
93 1 9 0.174947 -2.959219 6.072558 21.728430 0 0 0
94 1 9 0.153447 -5.607375 6.129790 23.536290 0 0 0
95 1 9 0.170447 -8.030140 6.407754 23.274865 0 0 0
96 1 9 0.150447 -8.737610 5.801660 19.687519 0 0 0
97 1 9 0.148947 -10.048569 6.881727 17.912556 0 0 0
98 1 1 -0.029353 -0.440263 6.963427 26.771474 0 0 0
99 1 1 -0.137553 0.733408 6.207598 26.830521 0 0 0
100 1 1 -0.072053 1.321499 5.939853 28.069127 0 0 0
101 1 1 -0.178653 0.733654 6.447454 29.232940 0 0 0
102 1 2 0.587300 1.328319 6.182116 30.556962 0 0 0
103 1 1 -0.153653 2.666109 6.723895 30.934096 0 0 0
104 1 1 -0.054553 3.339622 7.674588 30.155950 0 0 0
105 1 1 -0.157553 4.574407 8.180618 30.577536 0 0 0
106 1 1 0.103047 5.144670 7.740115 31.773437 0 0 0
107 1 3 -0.303200 6.319777 8.340806 32.161419 0 0 0
108 1 1 0.088047 7.361896 7.542539 32.590246 0 0 0
109 1 1 -0.131353 8.195728 8.054491 33.602228 0 0 0
110 1 4 0.093547 7.924785 9.392385 34.239919 0 0 0
111 1 5 -0.017100 8.620086 10.434194 33.483544 0 0 0
112 1 6 -0.007653 8.100533 11.065730 32.420565 0 0 0
113 1 5 -0.029100 9.004768 11.962831 31.997734 0 0 0
114 1 4 0.005547 8.822336 12.852914 30.858157 0 0 0
115 1 6 -0.120353 10.132443 11.892967 32.798295 0 0 0
116 1 7 -0.113353 9.887648 10.933510 33.739833 0 0 0
117 1 1 -0.110053 9.326285 7.310240 33.996884 0 0 0
118 1 1 0.134047 9.602609 6.072822 33.409932 0 0 0
119 1 3 -0.317900 10.725196 5.327657 33.681109 0 0 0
120 1 1 -0.143053 8.777802 5.586727 32.396287 0 0 0
121 1 1 -0.112053 7.664633 6.319664 31.981049 0 0 0
122 1 1 -0.157553 4.472426 6.809983 32.566877 0 0 0
123 1 1 -0.054553 3.240452 6.299250 32.142384 0 0 0
124 1 8 -0.514100 0.670378 5.519257 31.352646 0 0 0
125 1 1 -0.072053 -0.447961 7.195422 29.171667 0 0 0
126 1 1 -0.137553 -1.025857 7.470894 27.932671 0 0 0
127 1 9 0.148947 1.193521 5.841239 25.916111 0 0 0
128 1 9 0.150447 2.227368 5.340412 28.119371 0 0 0
129 1 9 0.170447 2.916017 8.053616 29.229795 0 0 0
130 1 9 0.153447 5.085886 8.921297 29.967524 0 0 0
131 1 10 0.110147 6.854331 9.623963 34.270070 0 0 0
132 1 10 0.110147 8.277421 9.407450 35.278167 0 0 0
133 1 11 0.281947 7.122503 10.892281 31.985221 0 0 0
134 1 10 0.098980 9.267779 13.826739 31.077620 0 0 0
135 1 10 0.098980 9.306515 12.409833 29.984169 0 0 0
136 1 10 0.098980 7.754826 12.982381 30.660022 0 0 0
137 1 12 0.235947 10.965956 12.543014 32.592631 0 0 0
138 1 12 0.234947 10.456070 10.536114 34.563258 0 0 0
139 1 9 0.166947 10.001881 7.705527 34.752257 0 0 0
140 1 9 0.169947 9.013431 4.640102 31.912927 0 0 0
141 1 9 0.174947 7.058710 5.930047 31.166250 0 0 0
142 1 9 0.153447 4.882077 6.482705 33.519236 0 0 0
143 1 9 0.170447 2.718369 5.576830 32.769923 0 0 0
144 1 9 0.150447 -0.905792 7.572043 30.083828 0 0 0
145 1 9 0.148947 -1.921669 8.082914 27.872088 0 0 0
146 1 1 -0.029353 11.180389 5.205343 34.972788 0 0 0
147 1 1 -0.137553 10.355178 5.091985 36.091200 0 0 0
148 1 1 -0.072053 10.921705 4.901377 37.357695 0 0 0
149 1 1 -0.178653 12.312876 4.795234 37.515998 0 0 0
150 1 2 0.587300 12.848185 4.530210 38.883474 0 0 0
151 1 1 -0.153653 14.281573 4.686347 39.227520 0 0 0
152 1 1 -0.054553 15.003699 5.829434 38.866612 0 0 0
153 1 1 -0.157553 16.346140 5.947284 39.237851 0 0 0
154 1 1 0.103047 16.962604 4.927187 39.965894 0 0 0
155 1 3 -0.303200 18.268708 5.122713 40.346280 0 0 0
156 1 1 0.088047 19.214446 4.174468 40.007432 0 0 0
157 1 1 -0.131353 20.402992 4.118824 40.786427 0 0 0
158 1 4 0.093547 20.564127 5.035667 41.987491 0 0 0
159 1 5 -0.017100 20.082503 4.345700 43.185525 0 0 0
160 1 6 -0.007653 20.809613 3.480608 43.908340 0 0 0
161 1 5 -0.029100 20.046820 3.061059 44.928245 0 0 0
162 1 4 0.005547 20.477378 2.117615 45.953135 0 0 0
163 1 6 -0.120353 18.804962 3.669018 44.855536 0 0 0
164 1 7 -0.113353 18.825014 4.476017 43.752862 0 0 0
165 1 1 -0.110053 21.476901 3.222097 40.432582 0 0 0
166 1 1 0.134047 21.391478 2.393402 39.311063 0 0 0
167 1 3 -0.317900 22.484037 1.783116 38.697939 0 0 0
168 1 1 -0.143053 20.199094 2.463883 38.554212 0 0 0
169 1 1 -0.112053 19.118117 3.330399 38.890964 0 0 0
170 1 1 -0.157553 16.233437 3.807047 40.370102 0 0 0
171 1 1 -0.054553 14.891918 3.687361 39.998333 0 0 0
172 1 8 -0.514100 12.084869 4.153965 39.769597 0 0 0
173 1 1 -0.072053 13.130633 4.866920 36.382876 0 0 0
174 1 1 -0.137553 12.564073 5.077471 35.120171 0 0 0
175 1 9 0.148947 9.273457 5.115071 35.996310 0 0 0
176 1 9 0.150447 10.266369 4.801588 38.222638 0 0 0
177 1 9 0.170447 14.529612 6.641569 38.321146 0 0 0
178 1 9 0.153447 16.908560 6.836888 38.964052 0 0 0
179 1 10 0.110147 20.037847 5.988772 41.873197 0 0 0
180 1 10 0.110147 21.623585 5.280037 42.128256 0 0 0
181 1 11 0.281947 21.830962 3.175990 43.707764 0 0 0
182 1 10 0.098980 19.674883 1.401025 46.147216 0 0 0
183 1 10 0.098980 20.713370 2.671016 46.865656 0 0 0
184 1 10 0.098980 21.364888 1.579534 45.609785 0 0 0
185 1 12 0.235947 18.064735 3.444345 45.604370 0 0 0
186 1 12 0.234947 18.104794 5.133525 43.297012 0 0 0
187 1 9 0.166947 22.409128 3.251355 40.989885 0 0 0
188 1 9 0.169947 20.124955 1.876585 37.638292 0 0 0
189 1 9 0.174947 18.224019 3.372454 38.243241 0 0 0
190 1 9 0.153447 16.694652 3.029041 40.972089 0 0 0
191 1 9 0.170447 14.317653 2.818271 40.315026 0 0 0
192 1 9 0.150447 14.205624 4.726492 36.447814 0 0 0
193 1 9 0.148947 13.205777 5.112173 34.242240 0 0 0
194 1 1 -0.029353 23.299866 0.798643 39.252410 0 0 0
195 1 1 -0.137553 23.242242 -0.485237 38.692154 0 0 0
196 1 1 -0.072053 24.293907 -1.438866 38.865946 0 0 0
197 1 1 -0.178653 25.466777 -1.153703 39.592651 0 0 0
198 1 2 0.587300 26.586150 -2.242125 39.668170 0 0 0
199 1 1 -0.153653 27.972497 -1.966981 40.124651 0 0 0
200 1 1 -0.054553 28.629038 -0.768430 39.819313 0 0 0
201 1 1 -0.157553 29.948056 -0.569993 40.237543 0 0 0
202 1 1 0.103047 30.619231 -1.576640 40.934427 0 0 0
203 1 3 -0.303200 31.910367 -1.306336 41.331044 0 0 0
204 1 1 0.088047 32.848212 -2.298873 41.136438 0 0 0
205 1 1 -0.131353 33.688344 -2.636017 42.209832 0 0 0
206 1 4 0.093547 33.571499 -1.951276 43.542433 0 0 0
207 1 5 -0.017100 34.258896 -0.660582 43.473776 0 0 0
208 1 6 -0.007653 35.586922 -0.510591 43.361630 0 0 0
209 1 5 -0.029100 35.845490 0.805459 43.324236 0 0 0
210 1 4 0.005547 37.175951 1.384874 43.197298 0 0 0
211 1 6 -0.120353 34.655194 1.510356 43.388892 0 0 0
212 1 7 -0.113353 33.654101 0.585874 43.484364 0 0 0
213 1 1 -0.110053 34.669437 -3.620867 42.007247 0 0 0
214 1 1 0.134047 34.824974 -4.245499 40.765390 0 0 0
215 1 3 -0.317900 35.827365 -5.173041 40.727574 0 0 0
216 1 1 -0.143053 33.997760 -3.883126 39.703544 0 0 0
217 1 1 -0.112053 33.012063 -2.904833 39.883629 0 0 0
218 1 1 -0.157553 29.966739 -2.771249 41.248835 0 0 0
219 1 1 -0.054553 28.648926 -2.969686 40.831650 0 0 0
220 1 8 -0.514100 26.278835 -3.393859 39.372797 0 0 0
221 1 1 -0.072053 25.492893 0.118537 40.199300 0 0 0
222 1 1 -0.137553 24.441727 1.087428 40.009548 0 0 0
223 1 9 0.148947 22.412084 -0.748179 38.037653 0 0 0
224 1 9 0.150447 24.194939 -2.408838 38.375275 0 0 0
225 1 9 0.170447 28.136784 0.007462 39.237452 0 0 0
226 1 9 0.153447 30.455096 0.360257 39.994863 0 0 0
227 1 10 0.110147 34.038615 -2.543739 44.337803 0 0 0
228 1 10 0.110147 32.523168 -1.806813 43.826040 0 0 0
229 1 11 0.281947 36.321227 -1.306654 43.310813 0 0 0
230 1 10 0.098980 37.928279 0.649995 43.495957 0 0 0
231 1 10 0.098980 37.337162 1.673429 42.155408 0 0 0
232 1 10 0.098980 37.255048 2.262921 43.843945 0 0 0
233 1 12 0.235947 34.677411 2.586038 43.355150 0 0 0
234 1 12 0.234947 32.581615 0.651580 43.551548 0 0 0
235 1 9 0.166947 35.331421 -3.928343 42.816734 0 0 0
236 1 4 0.114647 35.975158 -5.920484 39.523936 0 0 0
237 1 9 0.169947 34.105196 -4.345704 38.725330 0 0 0
238 1 9 0.174947 32.380941 -2.622058 39.043701 0 0 0
239 1 9 0.153447 30.467352 -3.559177 41.804328 0 0 0
240 1 9 0.170447 28.147604 -3.911092 41.053391 0 0 0
241 1 9 0.150447 26.341924 0.414749 40.810511 0 0 0
242 1 9 0.148947 24.587954 2.090327 40.402042 0 0 0
243 1 13 0.060980 -17.205556 -2.977830 7.493965 0 0 0
244 1 13 0.060980 -16.712674 -3.515643 9.099184 0 0 0
245 1 13 0.060980 -18.382933 -2.958693 8.830598 0 0 0
246 1 13 0.060980 36.266908 -5.270251 38.692830 0 0 0
247 1 13 0.060980 36.779149 -6.646437 39.678349 0 0 0
248 1 13 0.060980 35.061778 -6.477278 39.289820 0 0 0
249 2 1 -0.029353 39.245365 28.247268 59.476646 0 0 0
250 2 1 -0.137553 38.171458 27.951984 58.626761 0 0 0
251 2 1 -0.072053 38.083142 26.705145 58.001972 0 0 0
252 2 1 -0.178653 39.061265 25.734215 58.245385 0 0 0
253 2 2 0.587300 39.012106 24.401530 57.596933 0 0 0
254 2 1 -0.153653 37.730023 23.693737 57.356233 0 0 0
255 2 1 -0.054553 37.630283 22.870168 56.227653 0 0 0
256 2 1 -0.157553 36.464772 22.138735 55.986423 0 0 0
257 2 1 0.103047 35.394472 22.223512 56.881212 0 0 0
258 2 3 -0.303200 34.234569 21.484633 56.778548 0 0 0
259 2 1 0.088047 33.830013 21.106008 55.519502 0 0 0
260 2 1 -0.131353 33.892686 19.754101 55.151430 0 0 0
261 2 4 0.093547 34.478721 18.712286 56.065677 0 0 0
262 2 5 -0.017100 33.589143 18.479307 57.201831 0 0 0
263 2 6 -0.007653 33.840183 18.903713 58.450120 0 0 0
264 2 5 -0.029100 32.841661 18.472369 59.234298 0 0 0
265 2 4 0.005547 32.753819 18.705042 60.670526 0 0 0
266 2 6 -0.120353 31.923137 17.773362 58.468797 0 0 0
267 2 7 -0.113353 32.396023 17.774997 57.186871 0 0 0
268 2 1 -0.110053 33.434209 19.394409 53.872033 0 0 0
269 2 1 0.134047 32.922976 20.355548 52.989608 0 0 0
270 2 3 -0.317900 32.572917 19.880131 51.744439 0 0 0
271 2 1 -0.143053 32.870972 21.695261 53.376658 0 0 0
272 2 1 -0.112053 33.307040 22.067877 54.649212 0 0 0
273 2 1 -0.157553 35.496857 23.034462 58.015852 0 0 0
274 2 1 -0.054553 36.661482 23.769722 58.256274 0 0 0
275 2 8 -0.514100 40.056073 23.853126 57.253823 0 0 0
276 2 1 -0.072053 40.141313 26.025871 59.084722 0 0 0
277 2 1 -0.137553 40.224695 27.272954 59.706886 0 0 0
278 2 4 -0.058853 39.324851 29.577565 60.168088 0 0 0
279 2 9 0.148947 37.405393 28.701303 58.436724 0 0 0
280 2 9 0.150447 37.261171 26.519195 57.315468 0 0 0
281 2 9 0.170447 38.472628 22.788409 55.540807 0 0 0
282 2 9 0.153447 36.429164 21.504151 55.105911 0 0 0
283 2 10 0.110147 34.619517 17.757246 55.544454 0 0 0
284 2 10 0.110147 35.465132 19.025545 56.426531 0 0 0
285 2 11 0.281947 34.700088 19.481688 58.769442 0 0 0
286 2 10 0.098980 33.464501 19.482845 60.962703 0 0 0
287 2 10 0.098980 32.992355 17.776080 61.194788 0 0 0
288 2 10 0.098980 31.741873 19.029600 60.924809 0 0 0
289 2 12 0.235947 31.048598 17.360832 58.942928 0 0 0
290 2 12 0.234947 32.038316 17.363119 56.258674 0 0 0
291 2 9 0.166947 33.487011 18.359281 53.535951 0 0 0
292 2 9 0.169947 32.509776 22.465813 52.700900 0 0 0
293 2 9 0.174947 33.253632 23.111275 54.952560 0 0 0
294 2 9 0.153447 34.673916 23.094349 58.723446 0 0 0
295 2 9 0.170447 36.732037 24.373593 59.159105 0 0 0
296 2 9 0.150447 40.922191 25.286076 59.255951 0 0 0
297 2 9 0.148947 41.065989 27.483534 60.364913 0 0 0
298 2 1 -0.029353 31.684253 20.596939 50.981036 0 0 0
299 2 1 -0.137553 30.383244 20.860334 51.409668 0 0 0
300 2 1 -0.072053 29.496997 21.526022 50.557811 0 0 0
301 2 1 -0.178653 29.899459 21.910301 49.268697 0 0 0
302 2 2 0.587300 28.898293 22.571185 48.389084 0 0 0
303 2 1 -0.153653 29.215189 22.938880 47.002523 0 0 0
304 2 1 -0.054553 29.796832 24.177330 46.727431 0 0 0
305 2 1 -0.157553 29.938719 24.581839 45.398231 0 0 0
306 2 1 0.103047 29.484976 23.764133 44.354380 0 0 0
307 2 3 -0.303200 29.565313 24.332184 43.098848 0 0 0
308 2 1 0.088047 29.067081 23.621731 42.033601 0 0 0
309 2 1 -0.131353 27.776952 23.878780 41.540208 0 0 0
310 2 4 0.093547 26.875980 24.909484 42.171665 0 0 0
311 2 5 -0.017100 26.125232 24.315794 43.282341 0 0 0
312 2 6 -0.007653 26.314039 24.635164 44.573705 0 0 0
313 2 5 -0.029100 25.483263 23.880985 45.307345 0 0 0
314 2 4 0.005547 25.426980 23.882567 46.766513 0 0 0
315 2 6 -0.120353 24.701945 23.106947 44.468529 0 0 0
316 2 7 -0.113353 25.096905 23.388684 43.190752 0 0 0
317 2 1 -0.110053 27.330392 23.142539 40.422961 0 0 0
318 2 1 0.134047 28.160925 22.194468 39.812161 0 0 0
319 2 3 -0.317900 27.814243 21.392688 38.746323 0 0 0
320 2 1 -0.143053 29.447453 21.977282 40.310332 0 0 0
321 2 1 -0.112053 29.908137 22.697769 41.408650 0 0 0
322 2 1 -0.157553 28.933868 22.510055 44.643834 0 0 0
323 2 1 -0.054553 28.786545 22.101069 45.970456 0 0 0
324 2 8 -0.514100 27.755065 22.816080 48.767332 0 0 0
325 2 1 -0.072053 31.202308 21.623502 48.840184 0 0 0
326 2 1 -0.137553 32.090210 20.964208 49.696977 0 0 0
327 2 9 0.148947 30.047514 20.539119 52.392398 0 0 0
328 2 9 0.150447 28.482821 21.728025 50.900158 0 0 0
329 2 9 0.170447 30.109822 24.837779 47.533873 0 0 0
330 2 9 0.153447 30.380478 25.552241 45.176129 0 0 0
331 2 10 0.110147 26.157323 25.301996 41.442214 0 0 0
332 2 10 0.110147 27.453599 25.765213 42.537756 0 0 0
333 2 11 0.281947 27.019122 25.362296 44.958792 0 0 0
334 2 10 0.098980 24.441844 24.236733 47.083229 0 0 0
335 2 10 0.098980 26.196198 24.546822 47.166129 0 0 0
336 2 10 0.098980 25.589116 22.864661 47.128411 0 0 0
337 2 12 0.235947 23.962420 22.451854 44.896792 0 0 0
338 2 12 0.234947 24.782385 23.039080 42.222520 0 0 0
339 2 9 0.166947 26.330049 23.318236 40.034201 0 0 0
340 2 9 0.169947 30.098424 21.246466 39.834270 0 0 0
341 2 9 0.174947 30.917979 22.534457 41.777954 0 0 0
342 2 9 0.153447 28.576932 21.848058 43.859472 0 0 0
343 2 9 0.170447 28.313542 21.147673 46.195169 0 0 0
344 2 9 0.150447 31.548389 21.888838 47.845430 0 0 0
345 2 9 0.148947 33.095826 20.725844 49.358220 0 0 0
346 2 1 -0.029353 26.720711 21.736604 37.994114 0 0 0
347 2 1 -0.137553 26.839490 22.689677 36.979319 0 0 0
348 2 1 -0.072053 25.743596 22.964712 36.157701 0 0 0
349 2 1 -0.178653 24.545959 22.268354 36.353742 0 0 0
350 2 2 0.587300 23.369277 22.535620 35.504593 0 0 0
351 2 1 -0.153653 23.372703 22.223173 34.045894 0 0 0
352 2 1 -0.054553 24.391058 21.476830 33.438546 0 0 0
353 2 1 -0.157553 24.323896 21.176894 32.073254 0 0 0
354 2 1 0.103047 23.244616 21.621186 31.306976 0 0 0
355 2 3 -0.303200 23.207706 21.220077 29.991688 0 0 0
356 2 1 0.088047 22.934159 22.161692 29.019232 0 0 0
357 2 1 -0.131353 22.206115 21.735948 27.892213 0 0 0
358 2 4 0.093547 21.688002 20.325651 27.779781 0 0 0
359 2 5 -0.017100 22.701130 19.492389 27.131586 0 0 0
360 2 6 -0.007653 23.686228 18.860021 27.786102 0 0 0
361 2 5 -0.029100 24.407040 18.181310 26.880012 0 0 0
362 2 4 0.005547 25.573472 17.363985 27.189169 0 0 0
363 2 6 -0.120353 23.880520 18.396330 25.617485 0 0 0
364 2 7 -0.113353 22.800376 19.217920 25.776399 0 0 0
365 2 1 -0.110053 21.992097 22.643663 26.834824 0 0 0
366 2 1 0.134047 22.474380 23.952586 26.913515 0 0 0
367 2 3 -0.317900 22.377803 24.869301 25.894046 0 0 0
368 2 1 -0.143053 23.209165 24.354799 28.028139 0 0 0
369 2 1 -0.112053 23.445670 23.462982 29.075753 0 0 0
370 2 1 -0.157553 22.214218 22.346434 31.906060 0 0 0
371 2 1 -0.054553 22.284267 22.651724 33.270133 0 0 0
372 2 8 -0.514100 22.371861 23.001504 36.046342 0 0 0
373 2 1 -0.072053 24.426591 21.321684 37.377945 0 0 0
374 2 1 -0.137553 25.526096 21.040997 38.188662 0 0 0
375 2 9 0.148947 27.783953 23.204677 36.821734 0 0 0
376 2 9 0.150447 25.828840 23.715702 35.375909 0 0 0
377 2 9 0.170447 25.235508 21.098975 34.008631 0 0 0
378 2 9 0.153447 25.117925 20.593263 31.613663 0 0 0
379 2 10 0.110147 21.443817 19.898346 28.758655 0 0 0
380 2 10 0.110147 20.766158 20.295599 27.186621 0 0 0
381 2 11 0.281947 23.864602 18.882724 28.855597 0 0 0
382 2 10 0.098980 25.578576 16.475375 26.552566 0 0 0
383 2 10 0.098980 26.475159 17.955464 27.011076 0 0 0
384 2 10 0.098980 25.538431 17.054970 28.237444 0 0 0
385 2 12 0.235947 24.345888 17.929711 24.765838 0 0 0
386 2 12 0.234947 22.085866 19.648540 25.095886 0 0 0
387 2 9 0.166947 21.462295 22.322837 25.940592 0 0 0
388 2 9 0.169947 23.616803 25.363276 28.073544 0 0 0
389 2 9 0.174947 24.049386 23.795759 29.916958 0 0 0
390 2 9 0.153447 21.347454 22.668977 31.334572 0 0 0
391 2 9 0.170447 21.473073 23.214145 33.732640 0 0 0
392 2 9 0.150447 23.486044 20.797227 37.532241 0 0 0
393 2 9 0.148947 25.454627 20.280347 38.961334 0 0 0
394 2 1 -0.029353 21.217840 24.973152 25.163091 0 0 0
395 2 1 -0.137553 19.936144 24.844718 25.697349 0 0 0
396 2 1 -0.072053 18.817612 25.038029 24.877099 0 0 0
397 2 1 -0.178653 18.967318 25.387182 23.525299 0 0 0
398 2 2 0.587300 17.735213 25.639784 22.722245 0 0 0
399 2 1 -0.153653 17.746259 25.725394 21.242415 0 0 0
400 2 1 -0.054553 18.395294 24.767196 20.455665 0 0 0
401 2 1 -0.157553 18.354863 24.871372 19.062335 0 0 0
402 2 1 0.103047 17.669106 25.928319 18.459612 0 0 0
403 2 3 -0.303200 17.620870 25.948965 17.086266 0 0 0
404 2 1 0.088047 18.049617 27.079231 16.417623 0 0 0
405 2 1 -0.131353 17.559441 27.293257 15.099863 0 0 0
406 2 4 0.093547 16.544454 26.331698 14.504611 0 0 0
407 2 5 -0.017100 15.194856 26.825553 14.783884 0 0 0
408 2 6 -0.007653 14.557741 27.751528 14.051635 0 0 0
409 2 5 -0.029100 13.348862 27.942252 14.599649 0 0 0
410 2 4 0.005547 12.343172 28.866669 14.089841 0 0 0
411 2 6 -0.120353 13.210177 27.122481 15.706832 0 0 0
412 2 7 -0.113353 14.376926 26.421159 15.826760 0 0 0
413 2 1 -0.110053 18.037892 28.397936 14.304013 0 0 0
414 2 1 0.134047 19.003678 29.280980 14.793227 0 0 0
415 2 3 -0.317900 19.771176 30.128611 13.996657 0 0 0
416 2 1 -0.143053 19.473350 29.049989 16.106857 0 0 0
417 2 1 -0.112053 19.006212 27.974926 16.918512 0 0 0
418 2 1 -0.157553 16.979360 26.859374 19.238821 0 0 0
419 2 1 -0.054553 17.020291 26.757207 20.631695 0 0 0
420 2 8 -0.514100 16.660702 25.798367 23.296443 0 0 0
421 2 1 -0.072053 20.256567 25.556202 23.008483 0 0 0
422 2 1 -0.137553 21.373809 25.343052 23.824622 0 0 0
423 2 9 0.148947 19.785384 24.629280 26.751159 0 0 0
424 2 9 0.150447 17.821057 24.947406 25.308627 0 0 0
425 2 9 0.170447 18.912021 23.926165 20.911202 0 0 0
426 2 9 0.153447 18.853229 24.125188 18.447911 0 0 0
427 2 10 0.110147 16.649398 25.309454 14.882031 0 0 0
428 2 10 0.110147 16.677753 26.277442 13.417748 0 0 0
429 2 11 0.281947 14.946808 28.254523 13.173114 0 0 0
430 2 10 0.098980 11.888089 29.405116 14.925389 0 0 0
431 2 10 0.098980 11.580678 28.297399 13.552090 0 0 0
432 2 10 0.098980 12.812033 29.584687 13.411820 0 0 0
433 2 12 0.235947 12.291701 27.147500 16.268029 0 0 0
434 2 12 0.234947 14.732769 25.679107 16.520712 0 0 0
435 2 9 0.166947 17.714034 28.498553 13.271792 0 0 0
436 2 9 0.169947 20.271776 29.682683 16.496138 0 0 0
437 2 9 0.174947 19.434630 27.818518 17.924851 0 0 0
438 2 9 0.153447 16.409154 27.660203 18.776285 0 0 0
439 2 9 0.170447 16.480227 27.477776 21.243662 0 0 0
440 2 9 0.150447 20.420746 25.887673 21.987349 0 0 0
441 2 9 0.148947 22.372058 25.495924 23.419799 0 0 0
442 2 1 -0.029353 19.302648 31.201018 13.239937 0 0 0
443 2 1 -0.137553 19.677869 32.491587 13.638930 0 0 0
444 2 1 -0.072053 19.634462 33.606957 12.744683 0 0 0
445 2 1 -0.178653 19.231962 33.488265 11.399712 0 0 0
446 2 2 0.587300 19.282805 34.755840 10.486461 0 0 0
447 2 1 -0.153653 19.188711 34.707435 9.004962 0 0 0
448 2 1 -0.054553 19.775783 33.678452 8.258407 0 0 0
449 2 1 -0.157553 19.694241 33.695700 6.863003 0 0 0
450 2 1 0.103047 19.052612 34.752012 6.213404 0 0 0
451 2 3 -0.303200 18.994220 34.695373 4.838346 0 0 0
452 2 1 0.088047 19.276462 35.856379 4.149171 0 0 0
453 2 1 -0.131353 18.389121 36.258860 3.138085 0 0 0
454 2 4 0.093547 17.156258 35.463034 2.813958 0 0 0
455 2 5 -0.017100 17.532546 34.331130 1.965242 0 0 0
456 2 6 -0.007653 17.959934 34.438655 0.698552 0 0 0
457 2 5 -0.029100 18.211808 33.200126 0.248165 0 0 0
458 2 4 0.005547 18.705310 32.888560 -1.086505 0 0 0
459 2 6 -0.120353 17.963605 32.284274 1.256865 0 0 0
460 2 7 -0.113353 17.533997 32.997282 2.339928 0 0 0
461 2 1 -0.110053 18.689800 37.420957 2.408265 0 0 0
462 2 1 0.134047 19.850895 38.158018 2.663540 0 0 0
463 2 3 -0.317900 20.003975 39.255130 1.863875 0 0 0
464 2 1 -0.143053 20.733014 37.732314 3.655384 0 0 0
465 2 1 -0.112053 20.452259 36.577534 4.396159 0 0 0
466 2 1 -0.157553 18.458161 35.777179 6.953234 0 0 0
467 2 1 -0.054553 18.538966 35.760072 8.347232 0 0 0
468 2 8 -0.514100 19.361154 35.850193 11.038215 0 0 0
469 2 1 -0.072053 18.803363 32.199668 11.021396 0 0 0
470 2 1 -0.137553 18.864134 31.070678 11.916602 0 0 0
471 2 9 0.148947 20.090925 32.646331 14.634978 0 0 0
472 2 9 0.150447 19.970522 34.576953 13.115586 0 0 0
473 2 9 0.170447 20.319245 32.872389 8.746051 0 0 0
474 2 9 0.153447 20.154824 32.897034 6.287379 0 0 0
475 2 10 0.110147 16.422613 36.068182 2.268631 0 0 0
476 2 10 0.110147 16.661695 35.105502 3.723837 0 0 0
477 2 11 0.281947 18.080497 35.358360 0.137204 0 0 0
478 2 10 0.098980 18.499454 33.724547 -1.760295 0 0 0
479 2 10 0.098980 19.783416 32.716543 -1.032777 0 0 0
480 2 10 0.098980 18.203002 31.992841 -1.461669 0 0 0
481 2 12 0.235947 18.129671 31.237201 1.070361 0 0 0
482 2 12 0.234947 17.233754 32.729226 3.338456 0 0 0
483 2 9 0.166947 18.020708 37.781882 1.627187 0 0 0
484 2 4 0.114647 21.111710 40.108104 2.137030 0 0 0
485 2 9 0.169947 21.647709 38.281260 3.866136 0 0 0
486 2 9 0.174947 21.154822 36.248881 5.159144 0 0 0
487 2 9 0.153447 17.940645 36.598627 6.465979 0 0 0
488 2 9 0.170447 18.098587 36.572351 8.924300 0 0 0
489 2 9 0.150447 18.440403 32.019183 10.012506 0 0 0
490 2 9 0.148947 18.637617 30.084788 11.519172 0 0 0
491 2 13 0.060980 40.367028 29.868705 60.336292 0 0 0
492 2 13 0.060980 38.862932 30.362252 59.559752 0 0 0
493 2 13 0.060980 38.810372 29.528369 61.132639 0 0 0
494 2 13 0.060980 22.058839 39.589570 1.956126 0 0 0
495 2 13 0.060980 21.058064 40.956097 1.447624 0 0 0
496 2 13 0.060980 21.064467 40.502707 3.157398 0 0 0
497 3 14 -1.320078 30.701788 36.158398 39.604415 0 0 0
498 3 15 0.320000 31.637128 36.450772 39.611885 0 0 0
499 4 14 -1.320000 2.469193 9.818197 21.167147 0 0 0
500 4 15 0.320000 2.411580 10.160011 22.083795 0 0 0
501 5 14 -1.320000 6.873340 15.451583 25.077391 0 0 0
502 5 15 0.320000 7.164883 15.963639 24.294319 0 0 0
503 6 14 -1.320000 9.169677 0.272562 33.404068 0 0 0
504 6 15 0.320000 8.422816 0.884428 33.572052 0 0 0
505 7 14 -1.320000 23.988394 31.441077 32.286590 0 0 0
506 7 15 0.320000 24.584011 31.550434 31.516083 0 0 0
507 8 14 -1.320000 31.275463 1.206885 17.346368 0 0 0
508 8 15 0.320000 31.791378 0.527054 17.828095 0 0 0
509 9 14 -1.320000 40.511915 28.242438 2.907266 0 0 0
510 9 15 0.320000 39.745793 27.750123 2.545214 0 0 0
511 10 14 -1.320000 3.994041 22.774021 9.118802 0 0 0
512 10 15 0.320000 4.508410 23.509570 9.512237 0 0 0
513 11 14 -1.320000 10.317227 24.233028 27.102392 0 0 0
514 11 15 0.320000 10.603646 23.801750 27.934476 0 0 0
515 12 14 -1.320000 12.308597 16.226321 14.010596 0 0 0
516 12 15 0.320000 11.860010 15.568624 13.439103 0 0 0

Bonds

1 1 1 2
2 1 1 29
3 2 1 30
4 1 2 3
5 1 3 4
6 3 4 5
7 1 4 28
8 3 5 6
9 4 5 27
10 1 6 7
11 1 6 26
12 1 7 8
13 1 8 9
14 5 9 10
15 1 9 25
16 5 10 11
17 1 11 12
18 1 11 24
19 2 12 13
20 1 12 20
21 6 13 14
22 7 14 15
23 8 14 19
24 7 15 16
25 6 16 17
26 7 16 18
27 9 18 19
28 1 20 21
29 5 21 22
30 1 21 23
31 5 22 50
32 1 23 24
33 1 25 26
34 1 28 29
35 1 50 51
36 1 50 78
37 1 51 52
38 1 52 53
39 3 53 54
40 1 53 77
41 3 54 55
42 4 54 76
43 1 55 56
44 1 55 75
45 1 56 57
46 1 57 58
47 5 58 59
48 1 58 74
49 5 59 60
50 1 60 61
51 1 60 73
52 2 61 62
53 1 61 69
54 6 62 63
55 7 63 64
56 8 63 68
57 7 64 65
58 6 65 66
59 7 65 67
60 9 67 68
61 1 69 70
62 5 70 71
63 1 70 72
64 5 71 98
65 1 72 73
66 1 74 75
67 1 77 78
68 1 98 99
69 1 98 126
70 1 99 100
71 1 100 101
72 3 101 102
73 1 101 125
74 3 102 103
75 4 102 124
76 1 103 104
77 1 103 123
78 1 104 105
79 1 105 106
80 5 106 107
81 1 106 122
82 5 107 108
83 1 108 109
84 1 108 121
85 2 109 110
86 1 109 117
87 6 110 111
88 7 111 112
89 8 111 116
90 7 112 113
91 6 113 114
92 7 113 115
93 9 115 116
94 1 117 118
95 5 118 119
96 1 118 120
97 5 119 146
98 1 120 121
99 1 122 123
100 1 125 126
101 1 146 147
102 1 146 174
103 1 147 148
104 1 148 149
105 3 149 150
106 1 149 173
107 3 150 151
108 4 150 172
109 1 151 152
110 1 151 171
111 1 152 153
112 1 153 154
113 5 154 155
114 1 154 170
115 5 155 156
116 1 156 157
117 1 156 169
118 2 157 158
119 1 157 165
120 6 158 159
121 7 159 160
122 8 159 164
123 7 160 161
124 6 161 162
125 7 161 163
126 9 163 164
127 1 165 166
128 5 166 167
129 1 166 168
130 5 167 194
131 1 168 169
132 1 170 171
133 1 173 174
134 1 194 195
135 1 194 222
136 1 195 196
137 1 196 197
138 3 197 198
139 1 197 221
140 3 198 199
141 4 198 220
142 1 199 200
143 1 199 219
144 1 200 201
145 1 201 202
146 5 202 203
147 1 202 218
148 5 203 204
149 1 204 205
150 1 204 217
151 2 205 206
152 1 205 213
153 6 206 207
154 7 207 208
155 8 207 212
156 7 208 209
157 6 209 210
158 7 209 211
159 9 211 212
160 1 213 214
161 5 214 215
162 1 214 216
163 10 215 236
164 1 216 217
165 1 218 219
166 1 221 222
167 11 2 31
168 11 3 32
169 11 7 33
170 11 8 34
171 12 13 35
172 12 13 36
173 13 15 37
174 12 17 38
175 12 17 39
176 12 17 40
177 14 18 41
178 15 19 42
179 11 20 43
180 11 23 44
181 11 24 45
182 11 25 46
183 11 26 47
184 11 28 48
185 11 29 49
186 16 30 243
187 16 30 244
188 16 30 245
189 11 51 79
190 11 52 80
191 11 56 81
192 11 57 82
193 12 62 83
194 12 62 84
195 13 64 85
196 12 66 86
197 12 66 87
198 12 66 88
199 14 67 89
200 15 68 90
201 11 69 91
202 11 72 92
203 11 73 93
204 11 74 94
205 11 75 95
206 11 77 96
207 11 78 97
208 11 99 127
209 11 100 128
210 11 104 129
211 11 105 130
212 12 110 131
213 12 110 132
214 13 112 133
215 12 114 134
216 12 114 135
217 12 114 136
218 14 115 137
219 15 116 138
220 11 117 139
221 11 120 140
222 11 121 141
223 11 122 142
224 11 123 143
225 11 125 144
226 11 126 145
227 11 147 175
228 11 148 176
229 11 152 177
230 11 153 178
231 12 158 179
232 12 158 180
233 13 160 181
234 12 162 182
235 12 162 183
236 12 162 184
237 14 163 185
238 15 164 186
239 11 165 187
240 11 168 188
241 11 169 189
242 11 170 190
243 11 171 191
244 11 173 192
245 11 174 193
246 11 195 223
247 11 196 224
248 11 200 225
249 11 201 226
250 12 206 227
251 12 206 228
252 13 208 229
253 12 210 230
254 12 210 231
255 12 210 232
256 14 211 233
257 15 212 234
258 11 213 235
259 11 216 237
260 11 217 238
261 11 218 239
262 11 219 240
263 11 221 241
264 11 222 242
265 16 236 246
266 16 236 247
267 16 236 248
268 1 249 250
269 1 249 277
270 2 249 278
271 1 250 251
272 1 251 252
273 3 252 253
274 1 252 276
275 3 253 254
276 4 253 275
277 1 254 255
278 1 254 274
279 1 255 256
280 1 256 257
281 5 257 258
282 1 257 273
283 5 258 259
284 1 259 260
285 1 259 272
286 2 260 261
287 1 260 268
288 6 261 262
289 7 262 263
290 8 262 267
291 7 263 264
292 6 264 265
293 7 264 266
294 9 266 267
295 1 268 269
296 5 269 270
297 1 269 271
298 5 270 298
299 1 271 272
300 1 273 274
301 1 276 277
302 1 298 299
303 1 298 326
304 1 299 300
305 1 300 301
306 3 301 302
307 1 301 325
308 3 302 303
309 4 302 324
310 1 303 304
311 1 303 323
312 1 304 305
313 1 305 306
314 5 306 307
315 1 306 322
316 5 307 308
317 1 308 309
318 1 308 321
319 2 309 310
320 1 309 317
321 6 310 311
322 7 311 312
323 8 311 316
324 7 312 313
325 6 313 314
326 7 313 315
327 9 315 316
328 1 317 318
329 5 318 319
330 1 318 320
331 5 319 346
332 1 320 321
333 1 322 323
334 1 325 326
335 1 346 347
336 1 346 374
337 1 347 348
338 1 348 349
339 3 349 350
340 1 349 373
341 3 350 351
342 4 350 372
343 1 351 352
344 1 351 371
345 1 352 353
346 1 353 354
347 5 354 355
348 1 354 370
349 5 355 356
350 1 356 357
351 1 356 369
352 2 357 358
353 1 357 365
354 6 358 359
355 7 359 360
356 8 359 364
357 7 360 361
358 6 361 362
359 7 361 363
360 9 363 364
361 1 365 366
362 5 366 367
363 1 366 368
364 5 367 394
365 1 368 369
366 1 370 371
367 1 373 374
368 1 394 395
369 1 394 422
370 1 395 396
371 1 396 397
372 3 397 398
373 1 397 421
374 3 398 399
375 4 398 420
376 1 399 400
377 1 399 419
378 1 400 401
379 1 401 402
380 5 402 403
381 1 402 418
382 5 403 404
383 1 404 405
384 1 404 417
385 2 405 406
386 1 405 413
387 6 406 407
388 7 407 408
389 8 407 412
390 7 408 409
391 6 409 410
392 7 409 411
393 9 411 412
394 1 413 414
395 5 414 415
396 1 414 416
397 5 415 442
398 1 416 417
399 1 418 419
400 1 421 422
401 1 442 443
402 1 442 470
403 1 443 444
404 1 444 445
405 3 445 446
406 1 445 469
407 3 446 447
408 4 446 468
409 1 447 448
410 1 447 467
411 1 448 449
412 1 449 450
413 5 450 451
414 1 450 466
415 5 451 452
416 1 452 453
417 1 452 465
418 2 453 454
419 1 453 461
420 6 454 455
421 7 455 456
422 8 455 460
423 7 456 457
424 6 457 458
425 7 457 459
426 9 459 460
427 1 461 462
428 5 462 463
429 1 462 464
430 10 463 484
431 1 464 465
432 1 466 467
433 1 469 470
434 11 250 279
435 11 251 280
436 11 255 281
437 11 256 282
438 12 261 283
439 12 261 284
440 13 263 285
441 12 265 286
442 12 265 287
443 12 265 288
444 14 266 289
445 15 267 290
446 11 268 291
447 11 271 292
448 11 272 293
449 11 273 294
450 11 274 295
451 11 276 296
452 11 277 297
453 16 278 491
454 16 278 492
455 16 278 493
456 11 299 327
457 11 300 328
458 11 304 329
459 11 305 330
460 12 310 331
461 12 310 332
462 13 312 333
463 12 314 334
464 12 314 335
465 12 314 336
466 14 315 337
467 15 316 338
468 11 317 339
469 11 320 340
470 11 321 341
471 11 322 342
472 11 323 343
473 11 325 344
474 11 326 345
475 11 347 375
476 11 348 376
477 11 352 377
478 11 353 378
479 12 358 379
480 12 358 380
481 13 360 381
482 12 362 382
483 12 362 383
484 12 362 384
485 14 363 385
486 15 364 386
487 11 365 387
488 11 368 388
489 11 369 389
490 11 370 390
491 11 371 391
492 11 373 392
493 11 374 393
494 11 395 423
495 11 396 424
496 11 400 425
497 11 401 426
498 12 406 427
499 12 406 428
500 13 408 429
501 12 410 430
502 12 410 431
503 12 410 432
504 14 411 433
505 15 412 434
506 11 413 435
507 11 416 436
508 11 417 437
509 11 418 438
510 11 419 439
511 11 421 440
512 11 422 441
513 11 443 471
514 11 444 472
515 11 448 473
516 11 449 474
517 12 454 475
518 12 454 476
519 13 456 477
520 12 458 478
521 12 458 479
522 12 458 480
523 14 459 481
524 15 460 482
525 11 461 483
526 11 464 485
527 11 465 486
528 11 466 487
529 11 467 488
530 11 469 489
531 11 470 490
532 16 484 494
533 16 484 495
534 16 484 496
535 17 497 498
536 17 499 500
537 17 501 502
538 17 503 504
539 17 505 506
540 17 507 508
541 17 509 510
542 17 511 512
543 17 513 514
544 17 515 516

Angles

1 1 1 2 3
2 1 1 29 28
3 1 2 1 29
4 2 2 1 30
5 1 2 3 4
6 3 3 4 5
7 1 3 4 28
8 4 4 5 6
9 5 4 5 27
10 1 4 28 29
11 3 5 4 28
12 3 5 6 7
13 3 5 6 26
14 5 6 5 27
15 1 6 7 8
16 1 6 26 25
17 1 7 6 26
18 1 7 8 9
19 6 8 9 10
20 1 8 9 25
21 7 9 10 11
22 1 9 25 26
23 6 10 9 25
24 6 10 11 12
25 6 10 11 24
26 2 11 12 13
27 1 11 12 20
28 1 11 24 23
29 1 12 11 24
30 8 12 13 14
31 1 12 20 21
32 2 13 12 20
33 9 13 14 15
34 10 13 14 19
35 11 14 15 16
36 12 14 19 18
37 13 15 14 19
38 9 15 16 17
39 14 15 16 18
40 15 16 18 19
41 9 17 16 18
42 6 20 21 22
43 1 20 21 23
44 7 21 22 50
45 1 21 23 24
46 6 22 21 23
47 6 22 50 51
48 6 22 50 78
49 2 29 1 30
50 1 50 51 52
51 1 50 78 77
52 1 51 50 78
53 1 51 52 53
54 3 52 53 54
55 1 52 53 77
56 4 53 54 55
57 5 53 54 76
58 1 53 77 78
59 3 54 53 77
60 3 54 55 56
61 3 54 55 75
62 5 55 54 76
63 1 55 56 57
64 1 55 75 74
65 1 56 55 75
66 1 56 57 58
67 6 57 58 59
68 1 57 58 74
69 7 58 59 60
70 1 58 74 75
71 6 59 58 74
72 6 59 60 61
73 6 59 60 73
74 2 60 61 62
75 1 60 61 69
76 1 60 73 72
77 1 61 60 73
78 8 61 62 63
79 1 61 69 70
80 2 62 61 69
81 9 62 63 64
82 10 62 63 68
83 11 63 64 65
84 12 63 68 67
85 13 64 63 68
86 9 64 65 66
87 14 64 65 67
88 15 65 67 68
89 9 66 65 67
90 6 69 70 71
91 1 69 70 72
92 7 70 71 98
93 1 70 72 73
94 6 71 70 72
95 6 71 98 99
96 6 71 98 126
97 1 98 99 100
98 1 98 126 125
99 1 99 98 126
100 1 99 100 101
101 3 100 101 102
102 1 100 101 125
103 4 101 102 103
104 5 101 102 124
105 1 101 125 126
106 3 102 101 125
107 3 102 103 104
108 3 102 103 123
109 5 103 102 124
110 1 103 104 105
111 1 103 123 122
112 1 104 103 123
113 1 104 105 106
114 6 105 106 107
115 1 105 106 122
116 7 106 107 108
117 1 106 122 123
118 6 107 106 122
119 6 107 108 109
120 6 107 108 121
121 2 108 109 110
122 1 108 109 117
123 1 108 121 120
124 1 109 108 121
125 8 109 110 111
126 1 109 117 118
127 2 110 109 117
128 9 110 111 112
129 10 110 111 116
130 11 111 112 113
131 12 111 116 115
132 13 112 111 116
133 9 112 113 114
134 14 112 113 115
135 15 113 115 116
136 9 114 113 115
137 6 117 118 119
138 1 117 118 120
139 7 118 119 146
140 1 118 120 121
141 6 119 118 120
142 6 119 146 147
143 6 119 146 174
144 1 146 147 148
145 1 146 174 173
146 1 147 146 174
147 1 147 148 149
148 3 148 149 150
149 1 148 149 173
150 4 149 150 151
151 5 149 150 172
152 1 149 173 174
153 3 150 149 173
154 3 150 151 152
155 3 150 151 171
156 5 151 150 172
157 1 151 152 153
158 1 151 171 170
159 1 152 151 171
160 1 152 153 154
161 6 153 154 155
162 1 153 154 170
163 7 154 155 156
164 1 154 170 171
165 6 155 154 170
166 6 155 156 157
167 6 155 156 169
168 2 156 157 158
169 1 156 157 165
170 1 156 169 168
171 1 157 156 169
172 8 157 158 159
173 1 157 165 166
174 2 158 157 165
175 9 158 159 160
176 10 158 159 164
177 11 159 160 161
178 12 159 164 163
179 13 160 159 164
180 9 160 161 162
181 14 160 161 163
182 15 161 163 164
183 9 162 161 163
184 6 165 166 167
185 1 165 166 168
186 7 166 167 194
187 1 166 168 169
188 6 167 166 168
189 6 167 194 195
190 6 167 194 222
191 1 194 195 196
192 1 194 222 221
193 1 195 194 222
194 1 195 196 197
195 3 196 197 198
196 1 196 197 221
197 4 197 198 199
198 5 197 198 220
199 1 197 221 222
200 3 198 197 221
201 3 198 199 200
202 3 198 199 219
203 5 199 198 220
204 1 199 200 201
205 1 199 219 218
206 1 200 199 219
207 1 200 201 202
208 6 201 202 203
209 1 201 202 218
210 7 202 203 204
211 1 202 218 219
212 6 203 202 218
213 6 203 204 205
214 6 203 204 217
215 2 204 205 206
216 1 204 205 213
217 1 204 217 216
218 1 205 204 217
219 8 205 206 207
220 1 205 213 214
221 2 206 205 213
222 9 206 207 208
223 10 206 207 212
224 11 207 208 209
225 12 207 212 211
226 13 208 207 212
227 9 208 209 210
228 14 208 209 211
229 15 209 211 212
230 9 210 209 211
231 6 213 214 215
232 1 213 214 216
233 16 214 215 236
234 1 214 216 217
235 6 215 214 216
236 17 1 2 31
237 17 1 29 49
238 18 1 30 243
239 18 1 30 244
240 18 1 30 245
241 17 2 3 32
242 17 3 2 31
243 17 4 3 32
244 17 4 28 48
245 17 6 7 33
246 17 6 26 47
247 17 7 8 34
248 17 8 7 33
249 17 9 8 34
250 17 9 25 46
251 17 11 24 45
252 19 12 13 35
253 19 12 13 36
254 17 12 20 43
255 20 14 13 35
256 20 14 13 36
257 21 14 15 37
258 22 14 19 42
259 21 16 15 37
260 20 16 17 38
261 20 16 17 39
262 20 16 17 40
263 23 16 18 41
264 24 18 19 42
265 25 19 18 41
266 17 21 20 43
267 17 21 23 44
268 17 23 24 45
269 17 24 23 44
270 17 25 26 47
271 17 26 25 46
272 17 28 29 49
273 17 29 28 48
274 26 35 13 36
275 26 38 17 39
276 26 38 17 40
277 26 39 17 40
278 17 50 51 79
279 17 50 78 97
280 17 51 52 80
281 17 52 51 79
282 17 53 52 80
283 17 53 77 96
284 17 55 56 81
285 17 55 75 95
286 17 56 57 82
287 17 57 56 81
288 17 58 57 82
289 17 58 74 94
290 17 60 73 93
291 19 61 62 83
292 19 61 62 84
293 17 61 69 91
294 20 63 62 83
295 20 63 62 84
296 21 63 64 85
297 22 63 68 90
298 21 65 64 85
299 20 65 66 86
300 20 65 66 87
301 20 65 66 88
302 23 65 67 89
303 24 67 68 90
304 25 68 67 89
305 17 70 69 91
306 17 70 72 92
307 17 72 73 93
308 17 73 72 92
309 17 74 75 95
310 17 75 74 94
311 17 77 78 97
312 17 78 77 96
313 26 83 62 84
314 26 86 66 87
315 26 86 66 88
316 26 87 66 88
317 17 98 99 127
318 17 98 126 145
319 17 99 100 128
320 17 100 99 127
321 17 101 100 128
322 17 101 125 144
323 17 103 104 129
324 17 103 123 143
325 17 104 105 130
326 17 105 104 129
327 17 106 105 130
328 17 106 122 142
329 17 108 121 141
330 19 109 110 131
331 19 109 110 132
332 17 109 117 139
333 20 111 110 131
334 20 111 110 132
335 21 111 112 133
336 22 111 116 138
337 21 113 112 133
338 20 113 114 134
339 20 113 114 135
340 20 113 114 136
341 23 113 115 137
342 24 115 116 138
343 25 116 115 137
344 17 118 117 139
345 17 118 120 140
346 17 120 121 141
347 17 121 120 140
348 17 122 123 143
349 17 123 122 142
350 17 125 126 145
351 17 126 125 144
352 26 131 110 132
353 26 134 114 135
354 26 134 114 136
355 26 135 114 136
356 17 146 147 175
357 17 146 174 193
358 17 147 148 176
359 17 148 147 175
360 17 149 148 176
361 17 149 173 192
362 17 151 152 177
363 17 151 171 191
364 17 152 153 178
365 17 153 152 177
366 17 154 153 178
367 17 154 170 190
368 17 156 169 189
369 19 157 158 179
370 19 157 158 180
371 17 157 165 187
372 20 159 158 179
373 20 159 158 180
374 21 159 160 181
375 22 159 164 186
376 21 161 160 181
377 20 161 162 182
378 20 161 162 183
379 20 161 162 184
380 23 161 163 185
381 24 163 164 186
382 25 164 163 185
383 17 166 165 187
384 17 166 168 188
385 17 168 169 189
386 17 169 168 188
387 17 170 171 191
388 17 171 170 190
389 17 173 174 193
390 17 174 173 192
391 26 179 158 180
392 26 182 162 183
393 26 182 162 184
394 26 183 162 184
395 17 194 195 223
396 17 194 222 242
397 17 195 196 224
398 17 196 195 223
399 17 197 196 224
400 17 197 221 241
401 17 199 200 225
402 17 199 219 240
403 17 200 201 226
404 17 201 200 225
405 17 202 201 226
406 17 202 218 239
407 17 204 217 238
408 19 205 206 227
409 19 205 206 228
410 17 205 213 235
411 20 207 206 227
412 20 207 206 228
413 21 207 208 229
414 22 207 212 234
415 21 209 208 229
416 20 209 210 230
417 20 209 210 231
418 20 209 210 232
419 23 209 211 233
420 24 211 212 234
421 25 212 211 233
422 17 214 213 235
423 17 214 216 237
424 27 215 236 246
425 27 215 236 247
426 27 215 236 248
427 17 216 217 238
428 17 217 216 237
429 17 218 219 240
430 17 219 218 239
431 17 221 222 242
432 17 222 221 241
433 26 227 206 228
434 26 230 210 231
435 26 230 210 232
436 26 231 210 232
437 28 243 30 244
438 28 243 30 245
439 28 244 30 245
440 28 246 236 247
441 28 246 236 248
442 28 247 236 248
443 1 249 250 251
444 1 249 277 276
445 1 250 249 277
446 2 250 249 278
447 1 250 251 252
448 3 251 252 253
449 1 251 252 276
450 4 252 253 254
451 5 252 253 275
452 1 252 276 277
453 3 253 252 276
454 3 253 254 255
455 3 253 254 274
456 5 254 253 275
457 1 254 255 256
458 1 254 274 273
459 1 255 254 274
460 1 255 256 257
461 6 256 257 258
462 1 256 257 273
463 7 257 258 259
464 1 257 273 274
465 6 258 257 273
466 6 258 259 260
467 6 258 259 272
468 2 259 260 261
469 1 259 260 268
470 1 259 272 271
471 1 260 259 272
472 8 260 261 262
473 1 260 268 269
474 2 261 260 268
475 9 261 262 263
476 10 261 262 267
477 11 262 263 264
478 12 262 267 266
479 13 263 262 267
480 9 263 264 265
481 14 263 264 266
482 15 264 266 267
483 9 265 264 266
484 6 268 269 270
485 1 268 269 271
486 7 269 270 298
487 1 269 271 272
488 6 270 269 271
489 6 270 298 299
490 6 270 298 326
491 2 277 249 278
492 1 298 299 300
493 1 298 326 325
494 1 299 298 326
495 1 299 300 301
496 3 300 301 302
497 1 300 301 325
498 4 301 302 303
499 5 301 302 324
500 1 301 325 326
501 3 302 301 325
502 3 302 303 304
503 3 302 303 323
504 5 303 302 324
505 1 303 304 305
506 1 303 323 322
507 1 304 303 323
508 1 304 305 306
509 6 305 306 307
510 1 305 306 322
511 7 306 307 308
512 1 306 322 323
513 6 307 306 322
514 6 307 308 309
515 6 307 308 321
516 2 308 309 310
517 1 308 309 317
518 1 308 321 320
519 1 309 308 321
520 8 309 310 311
521 1 309 317 318
522 2 310 309 317
523 9 310 311 312
524 10 310 311 316
525 11 311 312 313
526 12 311 316 315
527 13 312 311 316
528 9 312 313 314
529 14 312 313 315
530 15 313 315 316
531 9 314 313 315
532 6 317 318 319
533 1 317 318 320
534 7 318 319 346
535 1 318 320 321
536 6 319 318 320
537 6 319 346 347
538 6 319 346 374
539 1 346 347 348
540 1 346 374 373
541 1 347 346 374
542 1 347 348 349
543 3 348 349 350
544 1 348 349 373
545 4 349 350 351
546 5 349 350 372
547 1 349 373 374
548 3 350 349 373
549 3 350 351 352
550 3 350 351 371
551 5 351 350 372
552 1 351 352 353
553 1 351 371 370
554 1 352 351 371
555 1 352 353 354
556 6 353 354 355
557 1 353 354 370
558 7 354 355 356
559 1 354 370 371
560 6 355 354 370
561 6 355 356 357
562 6 355 356 369
563 2 356 357 358
564 1 356 357 365
565 1 356 369 368
566 1 357 356 369
567 8 357 358 359
568 1 357 365 366
569 2 358 357 365
570 9 358 359 360
571 10 358 359 364
572 11 359 360 361
573 12 359 364 363
574 13 360 359 364
575 9 360 361 362
576 14 360 361 363
577 15 361 363 364
578 9 362 361 363
579 6 365 366 367
580 1 365 366 368
581 7 366 367 394
582 1 366 368 369
583 6 367 366 368
584 6 367 394 395
585 6 367 394 422
586 1 394 395 396
587 1 394 422 421
588 1 395 394 422
589 1 395 396 397
590 3 396 397 398
591 1 396 397 421
592 4 397 398 399
593 5 397 398 420
594 1 397 421 422
595 3 398 397 421
596 3 398 399 400
597 3 398 399 419
598 5 399 398 420
599 1 399 400 401
600 1 399 419 418
601 1 400 399 419
602 1 400 401 402
603 6 401 402 403
604 1 401 402 418
605 7 402 403 404
606 1 402 418 419
607 6 403 402 418
608 6 403 404 405
609 6 403 404 417
610 2 404 405 406
611 1 404 405 413
612 1 404 417 416
613 1 405 404 417
614 8 405 406 407
615 1 405 413 414
616 2 406 405 413
617 9 406 407 408
618 10 406 407 412
619 11 407 408 409
620 12 407 412 411
621 13 408 407 412
622 9 408 409 410
623 14 408 409 411
624 15 409 411 412
625 9 410 409 411
626 6 413 414 415
627 1 413 414 416
628 7 414 415 442
629 1 414 416 417
630 6 415 414 416
631 6 415 442 443
632 6 415 442 470
633 1 442 443 444
634 1 442 470 469
635 1 443 442 470
636 1 443 444 445
637 3 444 445 446
638 1 444 445 469
639 4 445 446 447
640 5 445 446 468
641 1 445 469 470
642 3 446 445 469
643 3 446 447 448
644 3 446 447 467
645 5 447 446 468
646 1 447 448 449
647 1 447 467 466
648 1 448 447 467
649 1 448 449 450
650 6 449 450 451
651 1 449 450 466
652 7 450 451 452
653 1 450 466 467
654 6 451 450 466
655 6 451 452 453
656 6 451 452 465
657 2 452 453 454
658 1 452 453 461
659 1 452 465 464
660 1 453 452 465
661 8 453 454 455
662 1 453 461 462
663 2 454 453 461
664 9 454 455 456
665 10 454 455 460
666 11 455 456 457
667 12 455 460 459
668 13 456 455 460
669 9 456 457 458
670 14 456 457 459
671 15 457 459 460
672 9 458 457 459
673 6 461 462 463
674 1 461 462 464
675 16 462 463 484
676 1 462 464 465
677 6 463 462 464
678 17 249 250 279
679 17 249 277 297
680 18 249 278 491
681 18 249 278 492
682 18 249 278 493
683 17 250 251 280
684 17 251 250 279
685 17 252 251 280
686 17 252 276 296
687 17 254 255 281
688 17 254 274 295
689 17 255 256 282
690 17 256 255 281
691 17 257 256 282
692 17 257 273 294
693 17 259 272 293
694 19 260 261 283
695 19 260 261 284
696 17 260 268 291
697 20 262 261 283
698 20 262 261 284
699 21 262 263 285
700 22 262 267 290
701 21 264 263 285
702 20 264 265 286
703 20 264 265 287
704 20 264 265 288
705 23 264 266 289
706 24 266 267 290
707 25 267 266 289
708 17 269 268 291
709 17 269 271 292
710 17 271 272 293
711 17 272 271 292
712 17 273 274 295
713 17 274 273 294
714 17 276 277 297
715 17 277 276 296
716 26 283 261 284
717 26 286 265 287
718 26 286 265 288
719 26 287 265 288
720 17 298 299 327
721 17 298 326 345
722 17 299 300 328
723 17 300 299 327
724 17 301 300 328
725 17 301 325 344
726 17 303 304 329
727 17 303 323 343
728 17 304 305 330
729 17 305 304 329
730 17 306 305 330
731 17 306 322 342
732 17 308 321 341
733 19 309 310 331
734 19 309 310 332
735 17 309 317 339
736 20 311 310 331
737 20 311 310 332
738 21 311 312 333
739 22 311 316 338
740 21 313 312 333
741 20 313 314 334
742 20 313 314 335
743 20 313 314 336
744 23 313 315 337
745 24 315 316 338
746 25 316 315 337
747 17 318 317 339
748 17 318 320 340
749 17 320 321 341
750 17 321 320 340
751 17 322 323 343
752 17 323 322 342
753 17 325 326 345
754 17 326 325 344
755 26 331 310 332
756 26 334 314 335
757 26 334 314 336
758 26 335 314 336
759 17 346 347 375
760 17 346 374 393
761 17 347 348 376
762 17 348 347 375
763 17 349 348 376
764 17 349 373 392
765 17 351 352 377
766 17 351 371 391
767 17 352 353 378
768 17 353 352 377
769 17 354 353 378
770 17 354 370 390
771 17 356 369 389
772 19 357 358 379
773 19 357 358 380
774 17 357 365 387
775 20 359 358 379
776 20 359 358 380
777 21 359 360 381
778 22 359 364 386
779 21 361 360 381
780 20 361 362 382
781 20 361 362 383
782 20 361 362 384
783 23 361 363 385
784 24 363 364 386
785 25 364 363 385
786 17 366 365 387
787 17 366 368 388
788 17 368 369 389
789 17 369 368 388
790 17 370 371 391
791 17 371 370 390
792 17 373 374 393
793 17 374 373 392
794 26 379 358 380
795 26 382 362 383
796 26 382 362 384
797 26 383 362 384
798 17 394 395 423
799 17 394 422 441
800 17 395 396 424
801 17 396 395 423
802 17 397 396 424
803 17 397 421 440
804 17 399 400 425
805 17 399 419 439
806 17 400 401 426
807 17 401 400 425
808 17 402 401 426
809 17 402 418 438
810 17 404 417 437
811 19 405 406 427
812 19 405 406 428
813 17 405 413 435
814 20 407 406 427
815 20 407 406 428
816 21 407 408 429
817 22 407 412 434
818 21 409 408 429
819 20 409 410 430
820 20 409 410 431
821 20 409 410 432
822 23 409 411 433
823 24 411 412 434
824 25 412 411 433
825 17 414 413 435
826 17 414 416 436
827 17 416 417 437
828 17 417 416 436
829 17 418 419 439
830 17 419 418 438
831 17 421 422 441
832 17 422 421 440
833 26 427 406 428
834 26 430 410 431
835 26 430 410 432
836 26 431 410 432
837 17 442 443 471
838 17 442 470 490
839 17 443 444 472
840 17 444 443 471
841 17 445 444 472
842 17 445 469 489
843 17 447 448 473
844 17 447 467 488
845 17 448 449 474
846 17 449 448 473
847 17 450 449 474
848 17 450 466 487
849 17 452 465 486
850 19 453 454 475
851 19 453 454 476
852 17 453 461 483
853 20 455 454 475
854 20 455 454 476
855 21 455 456 477
856 22 455 460 482
857 21 457 456 477
858 20 457 458 478
859 20 457 458 479
860 20 457 458 480
861 23 457 459 481
862 24 459 460 482
863 25 460 459 481
864 17 462 461 483
865 17 462 464 485
866 27 463 484 494
867 27 463 484 495
868 27 463 484 496
869 17 464 465 486
870 17 465 464 485
871 17 466 467 488
872 17 467 466 487
873 17 469 470 490
874 17 470 469 489
875 26 475 454 476
876 26 478 458 479
877 26 478 458 480
878 26 479 458 480
879 28 491 278 492
880 28 491 278 493
881 28 492 278 493
882 28 494 484 495
883 28 494 484 496
884 28 495 484 496

Dihedrals

1 1 1 2 3 4
2 1 1 29 28 4
3 1 2 1 29 28
4 1 2 3 4 5
5 1 2 3 4 28
6 1 29 1 2 3
7 1 30 1 2 3
8 2 3 4 5 6
9 3 3 4 5 27
10 1 3 4 28 29
11 2 4 5 6 7
12 2 4 5 6 26
13 1 5 4 28 29
14 1 5 6 7 8
15 1 5 6 26 25
16 2 6 5 4 28
17 1 6 7 8 9
18 1 6 26 25 9
19 3 7 6 5 27
20 1 7 6 26 25
21 1 7 8 9 10
22 1 7 8 9 25
23 1 8 7 6 26
24 4 8 9 10 11
25 1 8 9 25 26
26 4 9 10 11 12
27 4 9 10 11 24
28 1 10 9 25 26
29 1 10 11 12 13
30 1 10 11 12 20
31 1 10 11 24 23
32 4 11 10 9 25
33 5 11 12 13 14
34 1 11 12 20 21
35 1 11 24 23 21
36 1 12 11 24 23
37 6 12 13 14 15
38 7 12 13 14 19
39 1 12 20 21 22
40 1 12 20 21 23
41 1 13 12 11 24
42 1 13 12 20 21
43 8 13 14 15 16
44 8 13 14 19 18
45 5 14 13 12 20
46 8 14 15 16 17
47 8 14 15 16 18
48 9 14 19 18 16
49 8 15 14 19 18
50 8 15 16 18 19
51 8 16 15 14 19
52 8 17 16 18 19
53 1 20 12 11 24
54 4 20 21 22 50
55 1 20 21 23 24
56 4 21 22 50 51
57 4 21 22 50 78
58 1 22 21 23 24
59 1 22 50 51 52
60 1 22 50 78 77
61 4 23 21 22 50
62 3 26 6 5 27
63 3 27 5 4 28
64 1 30 1 29 28
65 1 50 51 52 53
66 1 50 78 77 53
67 1 51 50 78 77
68 1 51 52 53 54
69 1 51 52 53 77
70 1 52 51 50 78
71 2 52 53 54 55
72 3 52 53 54 76
73 1 52 53 77 78
74 2 53 54 55 56
75 2 53 54 55 75
76 1 54 53 77 78
77 1 54 55 56 57
78 1 54 55 75 74
79 2 55 54 53 77
80 1 55 56 57 58
81 1 55 75 74 58
82 3 56 55 54 76
83 1 56 55 75 74
84 1 56 57 58 59
85 1 56 57 58 74
86 1 57 56 55 75
87 4 57 58 59 60
88 1 57 58 74 75
89 4 58 59 60 61
90 4 58 59 60 73
91 1 59 58 74 75
92 1 59 60 61 62
93 1 59 60 61 69
94 1 59 60 73 72
95 4 60 59 58 74
96 5 60 61 62 63
97 1 60 61 69 70
98 1 60 73 72 70
99 1 61 60 73 72
100 6 61 62 63 64
101 7 61 62 63 68
102 1 61 69 70 71
103 1 61 69 70 72
104 1 62 61 60 73
105 1 62 61 69 70
106 8 62 63 64 65
107 8 62 63 68 67
108 5 63 62 61 69
109 8 63 64 65 66
110 8 63 64 65 67
111 9 63 68 67 65
112 8 64 63 68 67
113 8 64 65 67 68
114 8 65 64 63 68
115 8 66 65 67 68
116 1 69 61 60 73
117 4 69 70 71 98
118 1 69 70 72 73
119 4 70 71 98 99
120 4 70 71 98 126
121 1 71 70 72 73
122 1 71 98 99 100
123 1 71 98 126 125
124 4 72 70 71 98
125 3 75 55 54 76
126 3 76 54 53 77
127 1 98 99 100 101
128 1 98 126 125 101
129 1 99 98 126 125
130 1 99 100 101 102
131 1 99 100 101 125
132 1 100 99 98 126
133 2 100 101 102 103
134 3 100 101 102 124
135 1 100 101 125 126
136 2 101 102 103 104
137 2 101 102 103 123
138 1 102 101 125 126
139 1 102 103 104 105
140 1 102 103 123 122
141 2 103 102 101 125
142 1 103 104 105 106
143 1 103 123 122 106
144 3 104 103 102 124
145 1 104 103 123 122
146 1 104 105 106 107
147 1 104 105 106 122
148 1 105 104 103 123
149 4 105 106 107 108
150 1 105 106 122 123
151 4 106 107 108 109
152 4 106 107 108 121
153 1 107 106 122 123
154 1 107 108 109 110
155 1 107 108 109 117
156 1 107 108 121 120
157 4 108 107 106 122
158 5 108 109 110 111
159 1 108 109 117 118
160 1 108 121 120 118
161 1 109 108 121 120
162 6 109 110 111 112
163 7 109 110 111 116
164 1 109 117 118 119
165 1 109 117 118 120
166 1 110 109 108 121
167 1 110 109 117 118
168 8 110 111 112 113
169 8 110 111 116 115
170 5 111 110 109 117
171 8 111 112 113 114
172 8 111 112 113 115
173 9 111 116 115 113
174 8 112 111 116 115
175 8 112 113 115 116
176 8 113 112 111 116
177 8 114 113 115 116
178 1 117 109 108 121
179 4 117 118 119 146
180 1 117 118 120 121
181 4 118 119 146 147
182 4 118 119 146 174
183 1 119 118 120 121
184 1 119 146 147 148
185 1 119 146 174 173
186 4 120 118 119 146
187 3 123 103 102 124
188 3 124 102 101 125
189 1 146 147 148 149
190 1 146 174 173 149
191 1 147 146 174 173
192 1 147 148 149 150
193 1 147 148 149 173
194 1 148 147 146 174
195 2 148 149 150 151
196 3 148 149 150 172
197 1 148 149 173 174
198 2 149 150 151 152
199 2 149 150 151 171
200 1 150 149 173 174
201 1 150 151 152 153
202 1 150 151 171 170
203 2 151 150 149 173
204 1 151 152 153 154
205 1 151 171 170 154
206 3 152 151 150 172
207 1 152 151 171 170
208 1 152 153 154 155
209 1 152 153 154 170
210 1 153 152 151 171
211 4 153 154 155 156
212 1 153 154 170 171
213 4 154 155 156 157
214 4 154 155 156 169
215 1 155 154 170 171
216 1 155 156 157 158
217 1 155 156 157 165
218 1 155 156 169 168
219 4 156 155 154 170
220 5 156 157 158 159
221 1 156 157 165 166
222 1 156 169 168 166
223 1 157 156 169 168
224 6 157 158 159 160
225 7 157 158 159 164
226 1 157 165 166 167
227 1 157 165 166 168
228 1 158 157 156 169
229 1 158 157 165 166
230 8 158 159 160 161
231 8 158 159 164 163
232 5 159 158 157 165
233 8 159 160 161 162
234 8 159 160 161 163
235 9 159 164 163 161
236 8 160 159 164 163
237 8 160 161 163 164
238 8 161 160 159 164
239 8 162 161 163 164
240 1 165 157 156 169
241 4 165 166 167 194
242 1 165 166 168 169
243 4 166 167 194 195
244 4 166 167 194 222
245 1 167 166 168 169
246 1 167 194 195 196
247 1 167 194 222 221
248 4 168 166 167 194
249 3 171 151 150 172
250 3 172 150 149 173
251 1 194 195 196 197
252 1 194 222 221 197
253 1 195 194 222 221
254 1 195 196 197 198
255 1 195 196 197 221
256 1 196 195 194 222
257 2 196 197 198 199
258 3 196 197 198 220
259 1 196 197 221 222
260 2 197 198 199 200
261 2 197 198 199 219
262 1 198 197 221 222
263 1 198 199 200 201
264 1 198 199 219 218
265 2 199 198 197 221
266 1 199 200 201 202
267 1 199 219 218 202
268 3 200 199 198 220
269 1 200 199 219 218
270 1 200 201 202 203
271 1 200 201 202 218
272 1 201 200 199 219
273 4 201 202 203 204
274 1 201 202 218 219
275 4 202 203 204 205
276 4 202 203 204 217
277 1 203 202 218 219
278 1 203 204 205 206
279 1 203 204 205 213
280 1 203 204 217 216
281 4 204 203 202 218
282 5 204 205 206 207
283 1 204 205 213 214
284 1 204 217 216 214
285 1 205 204 217 216
286 6 205 206 207 208
287 7 205 206 207 212
288 1 205 213 214 215
289 1 205 213 214 216
290 1 206 205 204 217
291 1 206 205 213 214
292 8 206 207 208 209
293 8 206 207 212 211
294 5 207 206 205 213
295 8 207 208 209 210
296 8 207 208 209 211
297 9 207 212 211 209
298 8 208 207 212 211
299 8 208 209 211 212
300 8 209 208 207 212
301 8 210 209 211 212
302 1 213 205 204 217
303 10 213 214 215 236
304 1 213 214 216 217
305 1 215 214 216 217
306 10 216 214 215 236
307 3 219 199 198 220
308 3 220 198 197 221
309 1 1 2 3 32
310 1 1 29 28 48
311 1 2 1 29 49
312 11 2 1 30 243
313 11 2 1 30 244
314 11 2 1 30 245
315 1 3 4 28 48
316 1 4 3 2 31
317 1 4 28 29 49
318 1 5 4 3 32
319 1 5 4 28 48
320 1 5 6 7 33
321 1 5 6 26 47
322 1 6 7 8 34
323 1 6 26 25 46
324 1 7 6 26 47
325 1 8 9 25 46
326 1 9 8 7 33
327 1 9 25 26 47
328 1 10 9 8 34
329 1 10 9 25 46
330 1 10 11 24 45
331 7 11 12 13 35
332 7 11 12 13 36
333 1 11 12 20 43
334 1 11 24 23 44
335 1 12 11 24 45
336 1 13 12 20 43
337 8 13 14 15 37
338 8 13 14 19 42
339 9 14 19 18 41
340 7 15 14 13 35
341 7 15 14 13 36
342 8 15 14 19 42
343 7 15 16 17 38
344 7 15 16 17 39
345 7 15 16 17 40
346 8 15 16 18 41
347 9 16 18 19 42
348 8 17 16 15 37
349 8 17 16 18 41
350 8 18 16 15 37
351 7 18 16 17 38
352 7 18 16 17 39
353 7 18 16 17 40
354 7 19 14 13 35
355 7 19 14 13 36
356 8 19 14 15 37
357 7 20 12 13 35
358 7 20 12 13 36
359 1 20 21 23 44
360 1 21 23 24 45
361 1 22 21 20 43
362 1 22 21 23 44
363 1 22 50 51 79
364 1 22 50 78 97
365 1 23 21 20 43
366 1 25 9 8 34
367 1 26 6 7 33
368 1 28 4 3 32
369 1 29 1 2 31
370 11 29 1 30 243
371 7 29 1 30 243
372 11 29 1 30 244
373 7 29 1 30 244
374 11 29 1 30 245
375 7 29 1 30 245
376 1 30 1 2 31
377 1 30 1 29 49
378 1 31 2 3 32
379 1 33 7 8 34
380 9 41 18 19 42
381 1 44 23 24 45
382 1 46 25 26 47
383 1 48 28 29 49
384 1 50 51 52 80
385 1 50 78 77 96
386 1 51 50 78 97
387 1 52 53 77 96
388 1 53 52 51 79
389 1 53 77 78 97
390 1 54 53 52 80
391 1 54 53 77 96
392 1 54 55 56 81
393 1 54 55 75 95
394 1 55 56 57 82
395 1 55 75 74 94
396 1 56 55 75 95
397 1 57 58 74 94
398 1 58 57 56 81
399 1 58 74 75 95
400 1 59 58 57 82
401 1 59 58 74 94
402 1 59 60 73 93
403 7 60 61 62 83
404 7 60 61 62 84
405 1 60 61 69 91
406 1 60 73 72 92
407 1 61 60 73 93
408 1 62 61 69 91
409 8 62 63 64 85
410 8 62 63 68 90
411 9 63 68 67 89
412 7 64 63 62 83
413 7 64 63 62 84
414 8 64 63 68 90
415 7 64 65 66 86
416 7 64 65 66 87
417 7 64 65 66 88
418 8 64 65 67 89
419 9 65 67 68 90
420 8 66 65 64 85
421 8 66 65 67 89
422 8 67 65 64 85
423 7 67 65 66 86
424 7 67 65 66 87
425 7 67 65 66 88
426 7 68 63 62 83
427 7 68 63 62 84
428 8 68 63 64 85
429 7 69 61 62 83
430 7 69 61 62 84
431 1 69 70 72 92
432 1 70 72 73 93
433 1 71 70 69 91
434 1 71 70 72 92
435 1 71 98 99 127
436 1 71 98 126 145
437 1 72 70 69 91
438 1 74 58 57 82
439 1 75 55 56 81
440 1 77 53 52 80
441 1 78 50 51 79
442 1 79 51 52 80
443 1 81 56 57 82
444 9 89 67 68 90
445 1 92 72 73 93
446 1 94 74 75 95
447 1 96 77 78 97
448 1 98 99 100 128
449 1 98 126 125 144
450 1 99 98 126 145
451 1 100 101 125 144
452 1 101 100 99 127
453 1 101 125 126 145
454 1 102 101 100 128
455 1 102 101 125 144
456 1 102 103 104 129
457 1 102 103 123 143
458 1 103 104 105 130
459 1 103 123 122 142
460 1 104 103 123 143
461 1 105 106 122 142
462 1 106 105 104 129
463 1 106 122 123 143
464 1 107 106 105 130
465 1 107 106 122 142
466 1 107 108 121 141
467 7 108 109 110 131
468 7 108 109 110 132
469 1 108 109 117 139
470 1 108 121 120 140
471 1 109 108 121 141
472 1 110 109 117 139
473 8 110 111 112 133
474 8 110 111 116 138
475 9 111 116 115 137
476 7 112 111 110 131
477 7 112 111 110 132
478 8 112 111 116 138
479 7 112 113 114 134
480 7 112 113 114 135
481 7 112 113 114 136
482 8 112 113 115 137
483 9 113 115 116 138
484 8 114 113 112 133
485 8 114 113 115 137
486 8 115 113 112 133
487 7 115 113 114 134
488 7 115 113 114 135
489 7 115 113 114 136
490 7 116 111 110 131
491 7 116 111 110 132
492 8 116 111 112 133
493 7 117 109 110 131
494 7 117 109 110 132
495 1 117 118 120 140
496 1 118 120 121 141
497 1 119 118 117 139
498 1 119 118 120 140
499 1 119 146 147 175
500 1 119 146 174 193
501 1 120 118 117 139
502 1 122 106 105 130
503 1 123 103 104 129
504 1 125 101 100 128
505 1 126 98 99 127
506 1 127 99 100 128
507 1 129 104 105 130
508 9 137 115 116 138
509 1 140 120 121 141
510 1 142 122 123 143
511 1 144 125 126 145
512 1 146 147 148 176
513 1 146 174 173 192
514 1 147 146 174 193
515 1 148 149 173 192
516 1 149 148 147 175
517 1 149 173 174 193
518 1 150 149 148 176
519 1 150 149 173 192
520 1 150 151 152 177
521 1 150 151 171 191
522 1 151 152 153 178
523 1 151 171 170 190
524 1 152 151 171 191
525 1 153 154 170 190
526 1 154 153 152 177
527 1 154 170 171 191
528 1 155 154 153 178
529 1 155 154 170 190
530 1 155 156 169 189
531 7 156 157 158 179
532 7 156 157 158 180
533 1 156 157 165 187
534 1 156 169 168 188
535 1 157 156 169 189
536 1 158 157 165 187
537 8 158 159 160 181
538 8 158 159 164 186
539 9 159 164 163 185
540 7 160 159 158 179
541 7 160 159 158 180
542 8 160 159 164 186
543 7 160 161 162 182
544 7 160 161 162 183
545 7 160 161 162 184
546 8 160 161 163 185
547 9 161 163 164 186
548 8 162 161 160 181
549 8 162 161 163 185
550 8 163 161 160 181
551 7 163 161 162 182
552 7 163 161 162 183
553 7 163 161 162 184
554 7 164 159 158 179
555 7 164 159 158 180
556 8 164 159 160 181
557 7 165 157 158 179
558 7 165 157 158 180
559 1 165 166 168 188
560 1 166 168 169 189
561 1 167 166 165 187
562 1 167 166 168 188
563 1 167 194 195 223
564 1 167 194 222 242
565 1 168 166 165 187
566 1 170 154 153 178
567 1 171 151 152 177
568 1 173 149 148 176
569 1 174 146 147 175
570 1 175 147 148 176
571 1 177 152 153 178
572 9 185 163 164 186
573 1 188 168 169 189
574 1 190 170 171 191
575 1 192 173 174 193
576 1 194 195 196 224
577 1 194 222 221 241
578 1 195 194 222 242
579 1 196 197 221 241
580 1 197 196 195 223
581 1 197 221 222 242
582 1 198 197 196 224
583 1 198 197 221 241
584 1 198 199 200 225
585 1 198 199 219 240
586 1 199 200 201 226
587 1 199 219 218 239
588 1 200 199 219 240
589 1 201 202 218 239
590 1 202 201 200 225
591 1 202 218 219 240
592 1 203 202 201 226
593 1 203 202 218 239
594 1 203 204 217 238
595 7 204 205 206 227
596 7 204 205 206 228
597 1 204 205 213 235
598 1 204 217 216 237
599 1 205 204 217 238
600 1 206 205 213 235
601 8 206 207 208 229
602 8 206 207 212 234
603 9 207 212 211 233
604 7 208 207 206 227
605 7 208 207 206 228
606 8 208 207 212 234
607 7 208 209 210 230
608 7 208 209 210 231
609 7 208 209 210 232
610 8 208 209 211 233
611 9 209 211 212 234
612 8 210 209 208 229
613 8 210 209 211 233
614 8 211 209 208 229
615 7 211 209 210 230
616 7 211 209 210 231
617 7 211 209 210 232
618 7 212 207 206 227
619 7 212 207 206 228
620 8 212 207 208 229
621 7 213 205 206 227
622 7 213 205 206 228
623 1 213 214 216 237
624 12 214 215 236 246
625 12 214 215 236 247
626 12 214 215 236 248
627 1 214 216 217 238
628 1 215 214 213 235
629 1 215 214 216 237
630 1 216 214 213 235
631 1 218 202 201 226
632 1 219 199 200 225
633 1 221 197 196 224
634 1 222 194 195 223
635 1 223 195 196 224
636 1 225 200 201 226
637 9 233 211 212 234
638 1 237 216 217 238
639 1 239 218 219 240
640 1 241 221 222 242
641 1 249 250 251 252
642 1 249 277 276 252
643 1 250 249 277 276
644 1 250 251 252 253
645 1 250 251 252 276
646 1 277 249 250 251
647 1 278 249 250 251
648 2 251 252 253 254
649 3 251 252 253 275
650 1 251 252 276 277
651 2 252 253 254 255
652 2 252 253 254 274
653 1 253 252 276 277
654 1 253 254 255 256
655 1 253 254 274 273
656 2 254 253 252 276
657 1 254 255 256 257
658 1 254 274 273 257
659 3 255 254 253 275
660 1 255 254 274 273
661 1 255 256 257 258
662 1 255 256 257 273
663 1 256 255 254 274
664 4 256 257 258 259
665 1 256 257 273 274
666 4 257 258 259 260
667 4 257 258 259 272
668 1 258 257 273 274
669 1 258 259 260 261
670 1 258 259 260 268
671 1 258 259 272 271
672 4 259 258 257 273
673 5 259 260 261 262
674 1 259 260 268 269
675 1 259 272 271 269
676 1 260 259 272 271
677 6 260 261 262 263
678 7 260 261 262 267
679 1 260 268 269 270
680 1 260 268 269 271
681 1 261 260 259 272
682 1 261 260 268 269
683 8 261 262 263 264
684 8 261 262 267 266
685 5 262 261 260 268
686 8 262 263 264 265
687 8 262 263 264 266
688 9 262 267 266 264
689 8 263 262 267 266
690 8 263 264 266 267
691 8 264 263 262 267
692 8 265 264 266 267
693 1 268 260 259 272
694 4 268 269 270 298
695 1 268 269 271 272
696 4 269 270 298 299
697 4 269 270 298 326
698 1 270 269 271 272
699 1 270 298 299 300
700 1 270 298 326 325
701 4 271 269 270 298
702 3 274 254 253 275
703 3 275 253 252 276
704 1 278 249 277 276
705 1 298 299 300 301
706 1 298 326 325 301
707 1 299 298 326 325
708 1 299 300 301 302
709 1 299 300 301 325
710 1 300 299 298 326
711 2 300 301 302 303
712 3 300 301 302 324
713 1 300 301 325 326
714 2 301 302 303 304
715 2 301 302 303 323
716 1 302 301 325 326
717 1 302 303 304 305
718 1 302 303 323 322
719 2 303 302 301 325
720 1 303 304 305 306
721 1 303 323 322 306
722 3 304 303 302 324
723 1 304 303 323 322
724 1 304 305 306 307
725 1 304 305 306 322
726 1 305 304 303 323
727 4 305 306 307 308
728 1 305 306 322 323
729 4 306 307 308 309
730 4 306 307 308 321
731 1 307 306 322 323
732 1 307 308 309 310
733 1 307 308 309 317
734 1 307 308 321 320
735 4 308 307 306 322
736 5 308 309 310 311
737 1 308 309 317 318
738 1 308 321 320 318
739 1 309 308 321 320
740 6 309 310 311 312
741 7 309 310 311 316
742 1 309 317 318 319
743 1 309 317 318 320
744 1 310 309 308 321
745 1 310 309 317 318
746 8 310 311 312 313
747 8 310 311 316 315
748 5 311 310 309 317
749 8 311 312 313 314
750 8 311 312 313 315
751 9 311 316 315 313
752 8 312 311 316 315
753 8 312 313 315 316
754 8 313 312 311 316
755 8 314 313 315 316
756 1 317 309 308 321
757 4 317 318 319 346
758 1 317 318 320 321
759 4 318 319 346 347
760 4 318 319 346 374
761 1 319 318 320 321
762 1 319 346 347 348
763 1 319 346 374 373
764 4 320 318 319 346
765 3 323 303 302 324
766 3 324 302 301 325
767 1 346 347 348 349
768 1 346 374 373 349
769 1 347 346 374 373
770 1 347 348 349 350
771 1 347 348 349 373
772 1 348 347 346 374
773 2 348 349 350 351
774 3 348 349 350 372
775 1 348 349 373 374
776 2 349 350 351 352
777 2 349 350 351 371
778 1 350 349 373 374
779 1 350 351 352 353
780 1 350 351 371 370
781 2 351 350 349 373
782 1 351 352 353 354
783 1 351 371 370 354
784 3 352 351 350 372
785 1 352 351 371 370
786 1 352 353 354 355
787 1 352 353 354 370
788 1 353 352 351 371
789 4 353 354 355 356
790 1 353 354 370 371
791 4 354 355 356 357
792 4 354 355 356 369
793 1 355 354 370 371
794 1 355 356 357 358
795 1 355 356 357 365
796 1 355 356 369 368
797 4 356 355 354 370
798 5 356 357 358 359
799 1 356 357 365 366
800 1 356 369 368 366
801 1 357 356 369 368
802 6 357 358 359 360
803 7 357 358 359 364
804 1 357 365 366 367
805 1 357 365 366 368
806 1 358 357 356 369
807 1 358 357 365 366
808 8 358 359 360 361
809 8 358 359 364 363
810 5 359 358 357 365
811 8 359 360 361 362
812 8 359 360 361 363
813 9 359 364 363 361
814 8 360 359 364 363
815 8 360 361 363 364
816 8 361 360 359 364
817 8 362 361 363 364
818 1 365 357 356 369
819 4 365 366 367 394
820 1 365 366 368 369
821 4 366 367 394 395
822 4 366 367 394 422
823 1 367 366 368 369
824 1 367 394 395 396
825 1 367 394 422 421
826 4 368 366 367 394
827 3 371 351 350 372
828 3 372 350 349 373
829 1 394 395 396 397
830 1 394 422 421 397
831 1 395 394 422 421
832 1 395 396 397 398
833 1 395 396 397 421
834 1 396 395 394 422
835 2 396 397 398 399
836 3 396 397 398 420
837 1 396 397 421 422
838 2 397 398 399 400
839 2 397 398 399 419
840 1 398 397 421 422
841 1 398 399 400 401
842 1 398 399 419 418
843 2 399 398 397 421
844 1 399 400 401 402
845 1 399 419 418 402
846 3 400 399 398 420
847 1 400 399 419 418
848 1 400 401 402 403
849 1 400 401 402 418
850 1 401 400 399 419
851 4 401 402 403 404
852 1 401 402 418 419
853 4 402 403 404 405
854 4 402 403 404 417
855 1 403 402 418 419
856 1 403 404 405 406
857 1 403 404 405 413
858 1 403 404 417 416
859 4 404 403 402 418
860 5 404 405 406 407
861 1 404 405 413 414
862 1 404 417 416 414
863 1 405 404 417 416
864 6 405 406 407 408
865 7 405 406 407 412
866 1 405 413 414 415
867 1 405 413 414 416
868 1 406 405 404 417
869 1 406 405 413 414
870 8 406 407 408 409
871 8 406 407 412 411
872 5 407 406 405 413
873 8 407 408 409 410
874 8 407 408 409 411
875 9 407 412 411 409
876 8 408 407 412 411
877 8 408 409 411 412
878 8 409 408 407 412
879 8 410 409 411 412
880 1 413 405 404 417
881 4 413 414 415 442
882 1 413 414 416 417
883 4 414 415 442 443
884 4 414 415 442 470
885 1 415 414 416 417
886 1 415 442 443 444
887 1 415 442 470 469
888 4 416 414 415 442
889 3 419 399 398 420
890 3 420 398 397 421
891 1 442 443 444 445
892 1 442 470 469 445
893 1 443 442 470 469
894 1 443 444 445 446
895 1 443 444 445 469
896 1 444 443 442 470
897 2 444 445 446 447
898 3 444 445 446 468
899 1 444 445 469 470
900 2 445 446 447 448
901 2 445 446 447 467
902 1 446 445 469 470
903 1 446 447 448 449
904 1 446 447 467 466
905 2 447 446 445 469
906 1 447 448 449 450
907 1 447 467 466 450
908 3 448 447 446 468
909 1 448 447 467 466
910 1 448 449 450 451
911 1 448 449 450 466
912 1 449 448 447 467
913 4 449 450 451 452
914 1 449 450 466 467
915 4 450 451 452 453
916 4 450 451 452 465
917 1 451 450 466 467
918 1 451 452 453 454
919 1 451 452 453 461
920 1 451 452 465 464
921 4 452 451 450 466
922 5 452 453 454 455
923 1 452 453 461 462
924 1 452 465 464 462
925 1 453 452 465 464
926 6 453 454 455 456
927 7 453 454 455 460
928 1 453 461 462 463
929 1 453 461 462 464
930 1 454 453 452 465
931 1 454 453 461 462
932 8 454 455 456 457
933 8 454 455 460 459
934 5 455 454 453 461
935 8 455 456 457 458
936 8 455 456 457 459
937 9 455 460 459 457
938 8 456 455 460 459
939 8 456 457 459 460
940 8 457 456 455 460
941 8 458 457 459 460
942 1 461 453 452 465
943 10 461 462 463 484
944 1 461 462 464 465
945 1 463 462 464 465
946 10 464 462 463 484
947 3 467 447 446 468
948 3 468 446 445 469
949 1 249 250 251 280
950 1 249 277 276 296
951 1 250 249 277 297
952 11 250 249 278 491
953 11 250 249 278 492
954 11 250 249 278 493
955 1 251 252 276 296
956 1 252 251 250 279
957 1 252 276 277 297
958 1 253 252 251 280
959 1 253 252 276 296
960 1 253 254 255 281
961 1 253 254 274 295
962 1 254 255 256 282
963 1 254 274 273 294
964 1 255 254 274 295
965 1 256 257 273 294
966 1 257 256 255 281
967 1 257 273 274 295
968 1 258 257 256 282
969 1 258 257 273 294
970 1 258 259 272 293
971 7 259 260 261 283
972 7 259 260 261 284
973 1 259 260 268 291
974 1 259 272 271 292
975 1 260 259 272 293
976 1 261 260 268 291
977 8 261 262 263 285
978 8 261 262 267 290
979 9 262 267 266 289
980 7 263 262 261 283
981 7 263 262 261 284
982 8 263 262 267 290
983 7 263 264 265 286
984 7 263 264 265 287
985 7 263 264 265 288
986 8 263 264 266 289
987 9 264 266 267 290
988 8 265 264 263 285
989 8 265 264 266 289
990 8 266 264 263 285
991 7 266 264 265 286
992 7 266 264 265 287
993 7 266 264 265 288
994 7 267 262 261 283
995 7 267 262 261 284
996 8 267 262 263 285
997 7 268 260 261 283
998 7 268 260 261 284
999 1 268 269 271 292
1000 1 269 271 272 293
1001 1 270 269 268 291
1002 1 270 269 271 292
1003 1 270 298 299 327
1004 1 270 298 326 345
1005 1 271 269 268 291
1006 1 273 257 256 282
1007 1 274 254 255 281
1008 1 276 252 251 280
1009 1 277 249 250 279
1010 11 277 249 278 491
1011 7 277 249 278 491
1012 11 277 249 278 492
1013 7 277 249 278 492
1014 11 277 249 278 493
1015 7 277 249 278 493
1016 1 278 249 250 279
1017 1 278 249 277 297
1018 1 279 250 251 280
1019 1 281 255 256 282
1020 9 289 266 267 290
1021 1 292 271 272 293
1022 1 294 273 274 295
1023 1 296 276 277 297
1024 1 298 299 300 328
1025 1 298 326 325 344
1026 1 299 298 326 345
1027 1 300 301 325 344
1028 1 301 300 299 327
1029 1 301 325 326 345
1030 1 302 301 300 328
1031 1 302 301 325 344
1032 1 302 303 304 329
1033 1 302 303 323 343
1034 1 303 304 305 330
1035 1 303 323 322 342
1036 1 304 303 323 343
1037 1 305 306 322 342
1038 1 306 305 304 329
1039 1 306 322 323 343
1040 1 307 306 305 330
1041 1 307 306 322 342
1042 1 307 308 321 341
1043 7 308 309 310 331
1044 7 308 309 310 332
1045 1 308 309 317 339
1046 1 308 321 320 340
1047 1 309 308 321 341
1048 1 310 309 317 339
1049 8 310 311 312 333
1050 8 310 311 316 338
1051 9 311 316 315 337
1052 7 312 311 310 331
1053 7 312 311 310 332
1054 8 312 311 316 338
1055 7 312 313 314 334
1056 7 312 313 314 335
1057 7 312 313 314 336
1058 8 312 313 315 337
1059 9 313 315 316 338
1060 8 314 313 312 333
1061 8 314 313 315 337
1062 8 315 313 312 333
1063 7 315 313 314 334
1064 7 315 313 314 335
1065 7 315 313 314 336
1066 7 316 311 310 331
1067 7 316 311 310 332
1068 8 316 311 312 333
1069 7 317 309 310 331
1070 7 317 309 310 332
1071 1 317 318 320 340
1072 1 318 320 321 341
1073 1 319 318 317 339
1074 1 319 318 320 340
1075 1 319 346 347 375
1076 1 319 346 374 393
1077 1 320 318 317 339
1078 1 322 306 305 330
1079 1 323 303 304 329
1080 1 325 301 300 328
1081 1 326 298 299 327
1082 1 327 299 300 328
1083 1 329 304 305 330
1084 9 337 315 316 338
1085 1 340 320 321 341
1086 1 342 322 323 343
1087 1 344 325 326 345
1088 1 346 347 348 376
1089 1 346 374 373 392
1090 1 347 346 374 393
1091 1 348 349 373 392
1092 1 349 348 347 375
1093 1 349 373 374 393
1094 1 350 349 348 376
1095 1 350 349 373 392
1096 1 350 351 352 377
1097 1 350 351 371 391
1098 1 351 352 353 378
1099 1 351 371 370 390
1100 1 352 351 371 391
1101 1 353 354 370 390
1102 1 354 353 352 377
1103 1 354 370 371 391
1104 1 355 354 353 378
1105 1 355 354 370 390
1106 1 355 356 369 389
1107 7 356 357 358 379
1108 7 356 357 358 380
1109 1 356 357 365 387
1110 1 356 369 368 388
1111 1 357 356 369 389
1112 1 358 357 365 387
1113 8 358 359 360 381
1114 8 358 359 364 386
1115 9 359 364 363 385
1116 7 360 359 358 379
1117 7 360 359 358 380
1118 8 360 359 364 386
1119 7 360 361 362 382
1120 7 360 361 362 383
1121 7 360 361 362 384
1122 8 360 361 363 385
1123 9 361 363 364 386
1124 8 362 361 360 381
1125 8 362 361 363 385
1126 8 363 361 360 381
1127 7 363 361 362 382
1128 7 363 361 362 383
1129 7 363 361 362 384
1130 7 364 359 358 379
1131 7 364 359 358 380
1132 8 364 359 360 381
1133 7 365 357 358 379
1134 7 365 357 358 380
1135 1 365 366 368 388
1136 1 366 368 369 389
1137 1 367 366 365 387
1138 1 367 366 368 388
1139 1 367 394 395 423
1140 1 367 394 422 441
1141 1 368 366 365 387
1142 1 370 354 353 378
1143 1 371 351 352 377
1144 1 373 349 348 376
1145 1 374 346 347 375
1146 1 375 347 348 376
1147 1 377 352 353 378
1148 9 385 363 364 386
1149 1 388 368 369 389
1150 1 390 370 371 391
1151 1 392 373 374 393
1152 1 394 395 396 424
1153 1 394 422 421 440
1154 1 395 394 422 441
1155 1 396 397 421 440
1156 1 397 396 395 423
1157 1 397 421 422 441
1158 1 398 397 396 424
1159 1 398 397 421 440
1160 1 398 399 400 425
1161 1 398 399 419 439
1162 1 399 400 401 426
1163 1 399 419 418 438
1164 1 400 399 419 439
1165 1 401 402 418 438
1166 1 402 401 400 425
1167 1 402 418 419 439
1168 1 403 402 401 426
1169 1 403 402 418 438
1170 1 403 404 417 437
1171 7 404 405 406 427
1172 7 404 405 406 428
1173 1 404 405 413 435
1174 1 404 417 416 436
1175 1 405 404 417 437
1176 1 406 405 413 435
1177 8 406 407 408 429
1178 8 406 407 412 434
1179 9 407 412 411 433
1180 7 408 407 406 427
1181 7 408 407 406 428
1182 8 408 407 412 434
1183 7 408 409 410 430
1184 7 408 409 410 431
1185 7 408 409 410 432
1186 8 408 409 411 433
1187 9 409 411 412 434
1188 8 410 409 408 429
1189 8 410 409 411 433
1190 8 411 409 408 429
1191 7 411 409 410 430
1192 7 411 409 410 431
1193 7 411 409 410 432
1194 7 412 407 406 427
1195 7 412 407 406 428
1196 8 412 407 408 429
1197 7 413 405 406 427
1198 7 413 405 406 428
1199 1 413 414 416 436
1200 1 414 416 417 437
1201 1 415 414 413 435
1202 1 415 414 416 436
1203 1 415 442 443 471
1204 1 415 442 470 490
1205 1 416 414 413 435
1206 1 418 402 401 426
1207 1 419 399 400 425
1208 1 421 397 396 424
1209 1 422 394 395 423
1210 1 423 395 396 424
1211 1 425 400 401 426
1212 9 433 411 412 434
1213 1 436 416 417 437
1214 1 438 418 419 439
1215 1 440 421 422 441
1216 1 442 443 444 472
1217 1 442 470 469 489
1218 1 443 442 470 490
1219 1 444 445 469 489
1220 1 445 444 443 471
1221 1 445 469 470 490
1222 1 446 445 444 472
1223 1 446 445 469 489
1224 1 446 447 448 473
1225 1 446 447 467 488
1226 1 447 448 449 474
1227 1 447 467 466 487
1228 1 448 447 467 488
1229 1 449 450 466 487
1230 1 450 449 448 473
1231 1 450 466 467 488
1232 1 451 450 449 474
1233 1 451 450 466 487
1234 1 451 452 465 486
1235 7 452 453 454 475
1236 7 452 453 454 476
1237 1 452 453 461 483
1238 1 452 465 464 485
1239 1 453 452 465 486
1240 1 454 453 461 483
1241 8 454 455 456 477
1242 8 454 455 460 482
1243 9 455 460 459 481
1244 7 456 455 454 475
1245 7 456 455 454 476
1246 8 456 455 460 482
1247 7 456 457 458 478
1248 7 456 457 458 479
1249 7 456 457 458 480
1250 8 456 457 459 481
1251 9 457 459 460 482
1252 8 458 457 456 477
1253 8 458 457 459 481
1254 8 459 457 456 477
1255 7 459 457 458 478
1256 7 459 457 458 479
1257 7 459 457 458 480
1258 7 460 455 454 475
1259 7 460 455 454 476
1260 8 460 455 456 477
1261 7 461 453 454 475
1262 7 461 453 454 476
1263 1 461 462 464 485
1264 12 462 463 484 494
1265 12 462 463 484 495
1266 12 462 463 484 496
1267 1 462 464 465 486
1268 1 463 462 461 483
1269 1 463 462 464 485
1270 1 464 462 461 483
1271 1 466 450 449 474
1272 1 467 447 448 473
1273 1 469 445 444 472
1274 1 470 442 443 471
1275 1 471 443 444 472
1276 1 473 448 449 474
1277 9 481 459 460 482
1278 1 485 464 465 486
1279 1 487 466 467 488
1280 1 489 469 470 490

Impropers

1 1 30 1 29 2
2 1 5 3 4 28
3 2 4 6 5 27
4 1 5 7 6 26
5 1 8 25 9 10
6 1 12 24 11 10
7 1 13 11 12 20
8 1 13 15 14 19
9 1 17 15 16 18
10 1 20 23 21 22
11 1 51 78 50 22
12 1 54 52 53 77
13 2 53 55 54 76
14 1 54 56 55 75
15 1 57 74 58 59
16 1 61 73 60 59
17 1 62 60 61 69
18 1 62 64 63 68
19 1 66 64 65 67
20 1 69 72 70 71
21 1 99 126 98 71
22 1 102 100 101 125
23 2 101 103 102 124
24 1 102 104 103 123
25 1 105 122 106 107
26 1 109 121 108 107
27 1 110 108 109 117
28 1 110 112 111 116
29 1 114 112 113 115
30 1 117 120 118 119
31 1 147 174 146 119
32 1 150 148 149 173
33 2 149 151 150 172
34 1 150 152 151 171
35 1 153 170 154 155
36 1 157 169 156 155
37 1 158 156 157 165
38 1 158 160 159 164
39 1 162 160 161 163
40 1 165 168 166 167
41 1 195 222 194 167
42 1 198 196 197 221
43 2 197 199 198 220
44 1 198 200 199 219
45 1 201 218 202 203
46 1 205 217 204 203
47 1 206 204 205 213
48 1 206 208 207 212
49 1 210 208 209 211
50 1 213 216 214 215
51 1 1 3 2 31
52 1 2 4 3 32
53 1 6 8 7 33
54 1 7 9 8 34
55 1 37 14 15 16
56 1 19 41 18 16
57 1 18 42 19 14
58 1 12 21 20 43
59 1 21 24 23 44
60 1 11 23 24 45
61 1 9 26 25 46
62 1 6 25 26 47
63 1 4 29 28 48
64 1 1 28 29 49
65 1 50 52 51 79
66 1 51 53 52 80
67 1 55 57 56 81
68 1 56 58 57 82
69 1 85 63 64 65
70 1 68 89 67 65
71 1 67 90 68 63
72 1 61 70 69 91
73 1 70 73 72 92
74 1 60 72 73 93
75 1 58 75 74 94
76 1 55 74 75 95
77 1 53 78 77 96
78 1 50 77 78 97
79 1 98 100 99 127
80 1 99 101 100 128
81 1 103 105 104 129
82 1 104 106 105 130
83 1 133 111 112 113
84 1 116 137 115 113
85 1 115 138 116 111
86 1 109 118 117 139
87 1 118 121 120 140
88 1 108 120 121 141
89 1 106 123 122 142
90 1 103 122 123 143
91 1 101 126 125 144
92 1 98 125 126 145
93 1 146 148 147 175
94 1 147 149 148 176
95 1 151 153 152 177
96 1 152 154 153 178
97 1 181 159 160 161
98 1 164 185 163 161
99 1 163 186 164 159
100 1 157 166 165 187
101 1 166 169 168 188
102 1 156 168 169 189
103 1 154 171 170 190
104 1 151 170 171 191
105 1 149 174 173 192
106 1 146 173 174 193
107 1 194 196 195 223
108 1 195 197 196 224
109 1 199 201 200 225
110 1 200 202 201 226
111 1 229 207 208 209
112 1 212 233 211 209
113 1 211 234 212 207
114 1 205 214 213 235
115 1 214 217 216 237
116 1 204 216 217 238
117 1 202 219 218 239
118 1 199 218 219 240
119 1 197 222 221 241
120 1 194 221 222 242
121 1 278 249 277 250
122 1 253 251 252 276
123 2 252 254 253 275
124 1 253 255 254 274
125 1 256 273 257 258
126 1 260 272 259 258
127 1 261 259 260 268
128 1 261 263 262 267
129 1 265 263 264 266
130 1 268 271 269 270
131 1 299 326 298 270
132 1 302 300 301 325
133 2 301 303 302 324
134 1 302 304 303 323
135 1 305 322 306 307
136 1 309 321 308 307
137 1 310 308 309 317
138 1 310 312 311 316
139 1 314 312 313 315
140 1 317 320 318 319
141 1 347 374 346 319
142 1 350 348 349 373
143 2 349 351 350 372
144 1 350 352 351 371
145 1 353 370 354 355
146 1 357 369 356 355
147 1 358 356 357 365
148 1 358 360 359 364
149 1 362 360 361 363
150 1 365 368 366 367
151 1 395 422 394 367
152 1 398 396 397 421
153 2 397 399 398 420
154 1 398 400 399 419
155 1 401 418 402 403
156 1 405 417 404 403
157 1 406 404 405 413
158 1 406 408 407 412
159 1 410 408 409 411
160 1 413 416 414 415
161 1 443 470 442 415
162 1 446 444 445 469
163 2 445 447 446 468
164 1 446 448 447 467
165 1 449 466 450 451
166 1 453 465 452 451
167 1 454 452 453 461
168 1 454 456 455 460
169 1 458 456 457 459
170 1 461 464 462 463
171 1 249 251 250 279
172 1 250 252 251 280
173 1 254 256 255 281
174 1 255 257 256 282
175 1 285 262 263 264
176 1 267 289 266 264
177 1 266 290 267 262
178 1 260 269 268 291
179 1 269 272 271 292
180 1 259 271 272 293
181 1 257 274 273 294
182 1 254 273 274 295
183 1 252 277 276 296
184 1 249 276 277 297
185 1 298 300 299 327
186 1 299 301 300 328
187 1 303 305 304 329
188 1 304 306 305 330
189 1 333 311 312 313
190 1 316 337 315 313
191 1 315 338 316 311
192 1 309 318 317 339
193 1 318 321 320 340
194 1 308 320 321 341
195 1 306 323 322 342
196 1 303 322 323 343
197 1 301 326 325 344
198 1 298 325 326 345
199 1 346 348 347 375
200 1 347 349 348 376
201 1 351 353 352 377
202 1 352 354 353 378
203 1 381 359 360 361
204 1 364 385 363 361
205 1 363 386 364 359
206 1 357 366 365 387
207 1 366 369 368 388
208 1 356 368 369 389
209 1 354 371 370 390
210 1 351 370 371 391
211 1 349 374 373 392
212 1 346 373 374 393
213 1 394 396 395 423
214 1 395 397 396 424
215 1 399 401 400 425
216 1 400 402 401 426
217 1 429 407 408 409
218 1 412 433 411 409
219 1 411 434 412 407
220 1 405 414 413 435
221 1 414 417 416 436
222 1 404 416 417 437
223 1 402 419 418 438
224 1 399 418 419 439
225 1 397 422 421 440
226 1 394 421 422 441
227 1 442 444 443 471
228 1 443 445 444 472
229 1 447 449 448 473
230 1 448 450 449 474
231 1 477 455 456 457
232 1 460 481 459 457
233 1 459 482 460 455
234 1 453 462 461 483
235 1 462 465 464 485
236 1 452 464 465 486
237 1 450 467 466 487
238 1 447 466 467 488
239 1 445 470 469 489
240 1 442 469 470 490
