LAMMPS (22 Jul 2025 - Update 5)
OMP_NUM_THREADS environment is not set. Defaulting to 1 thread.
  using 1 OpenMP thread(s) per MPI task
# iteration 1
# generated by aemwater -- do not edit; edit the template instead

units           real
atom_style      full
boundary        p p p

pair_style      lj/cut/coul/long 10.0 10.0
# GAFF2 is a Lorentz-Berthelot force field. The LAMMPS default for lj/cut is
# GEOMETRIC mixing, which silently changes every cross interaction.
pair_modify     mix arithmetic tail yes
kspace_style    pppm 0.0001
bond_style      harmonic
angle_style     harmonic
dihedral_style  charmm
improper_style  cvff
# Amber 1-4 scaling: LJ/2 and Coulomb/1.2. Applied here, so every CHARMM
# dihedral weight in the data file is 0.
special_bonds   lj 0.0 0.0 0.5 coul 0.0 0.0 0.8333333333

read_data       start.data
Reading data file ...
  orthogonal box = (0 0 0) to (38.874918 38.874918 38.874918)
  1 by 1 by 1 MPI processor grid
  reading atoms ...
  5304 atoms
  scanning bonds ...
  4 = max bonds/atom
  scanning angles ...
  6 = max angles/atom
  scanning dihedrals ...
  33 = max dihedrals/atom
  scanning impropers ...
  2 = max impropers/atom
  orthogonal box = (0 0 0) to (38.874918 38.874918 38.874918)
  1 by 1 by 1 MPI processor grid
  reading bonds ...
  5256 bonds
  reading angles ...
  9736 angles
  reading dihedrals ...
  15264 dihedrals
  reading impropers ...
  960 impropers
Finding 1-2 1-3 1-4 neighbors ...
  special bond factors lj:    0        0        0.5     
  special bond factors coul:  0        0        0.8333333333
     4 = max # of 1-2 neighbors
    12 = max # of 1-3 neighbors
    18 = max # of 1-4 neighbors
    22 = max # of special neighbors
  special bonds CPU = 0.002 seconds
  read_data CPU = 0.072 seconds
neighbor        2.0 bin
neigh_modify    delay 0 every 1 check yes
# The ghost-atom cutoff defaults to the pair cutoff + skin. Bonded partners must
# also be within it, and a stretched bond in a freshly packed cell can exceed it,
# which LAMMPS reports as a communication-cutoff warning before losing atoms.
comm_modify     cutoff 12.0

# Molecule IDs are assigned by the data writer in packing order: polymer chains
# first, then counterions, then any water added later. `<>` is LAMMPS's inclusive
# range operator.
group           polymer molecule <> 1 8
5024 atoms in group polymer
group           ions molecule <> 9 168
160 atoms in group ions
group           water type 8 9
120 atoms in group water

thermo          500
thermo_style    custom step temp press vol density etotal ke pe ebond eangle edihed evdwl ecoul elong
thermo_modify   flush yes

fix             shake_all all shake 0.0001 20 0 b 8 a 14
Finding SHAKE clusters ...
       0 = # of size 2 clusters
       0 = # of size 3 clusters
       0 = # of size 4 clusters
      40 = # of frozen angles
  find clusters CPU = 0.001 seconds

timestep        1.0
dump            traj all custom 1000 iter.lammpstrj id mol type q x y z
dump_modify     traj sort id

# ---------------------------------------------------------------- relax -------
# The newly inserted waters were placed in geometric voids, which is not the same
# as an energetically relaxed position. A short NVE/limit run absorbs the initial
# strain without letting any atom move far enough to cross a chain.
fix             nve_settle all nve/limit 0.05
fix             temp_settle all temp/rescale 10 300.0 300.0 10.0 1.0
run             5000
PPPM initialization ...
  using 12-bit tables for long-range coulomb
  G vector (1/distance) = 0.23799173
  grid = 15 15 15
  stencil order = 5
  estimated absolute RMS force accuracy = 0.018706825
  estimated relative force accuracy = 5.6335047e-05
  using double precision FFTW3
  3d grid and FFT values/proc = 8000 3375
Generated 36 of 36 mixed pair_coeff terms from arithmetic mixing rule
WARNING: Should not use fix nve/limit with fix shake or fix rattle (src/fix_nve_limit.cpp:76)
Neighbor list info ...
  update: every = 1 steps, delay = 0 steps, check = yes
  max neighbors/atom: 2000, page size: 100000
  master list distance cutoff = 12
  ghost atom cutoff = 12
  binsize = 6, bins = 7 7 7
  1 neighbor lists, perpetual/occasional/extra = 1 0 0
  (1) pair lj/cut/coul/long, perpetual
      attributes: half, newton on
      pair build: half/bin/newton
      stencil: half/bin/3d
      bin: standard
Per MPI rank memory allocation (min/avg/max) = 51.27 | 51.27 | 51.27 Mbytes
   Step          Temp          Press          Volume        Density         TotEng         KinEng         PotEng         E_bond        E_angle        E_dihed         E_vdwl         E_coul         E_long    
         0   0             -3553.7286      58750.079      0.98466235    -1318.2385      0             -1318.2385      1779.1539      2418.5579      1523.242      -1160.9738      8138.7142     -14054.832    
       500   294.69501     -784.87993      58750.079      0.98466235     3086.7675      4623.1763     -1536.4088      1578.8787      2406.2187      1571.5135     -1138.069       8080.5191     -14076.443    
      1000   290.78942      834.69213      58750.079      0.98466235     2975.1177      4561.9054     -1586.7877      1567.6952      2354.2475      1560.7586     -1067.2888      8026.3531     -14066.905    
      1500   291.67299      841.73966      58750.079      0.98466235     2914.3015      4575.7668     -1661.4653      1517.5474      2298.6213      1566.5857     -1079.4749      8059.6822     -14063.42     
      2000   291.91918     -172.88701      58750.079      0.98466235     2907.5561      4579.629      -1672.0729      1548.1299      2253.7064      1523.413      -1029.3728      8054.8594     -14059.159    
      2500   294.31091      446.0926       58750.079      0.98466235     2914.7704      4617.1505     -1702.3801      1501.3324      2263.4059      1536.3817     -1026.3025      8042.5495     -14055.374    
      3000   292.79155      1516.2741      58750.079      0.98466235     2922.2002      4593.3148     -1671.1145      1494.7194      2288.6536      1561.5405     -1004.8457      8016.0507     -14063.277    
      3500   296.81784      1228.8324      58750.079      0.98466235     2842.208       4656.4793     -1814.2713      1445.4749      2145.2003      1571.6453     -1019.4302      8060.5758     -14053.757    
      4000   300           -77.964655      58750.079      0.98466235     3077.1683      4706.401      -1629.2327      1476.6456      2212.9008      1615.7399     -1033.0364      8107.4571     -14045.28     
      4500   297.60982      894.92388      58750.079      0.98466235     2866.2865      4668.9039     -1802.6174      1448.5013      2185.832       1568.025      -980.17991      8007.1059     -14065.175    
      5000   290.97078      1883.3083      58750.079      0.98466235     2926.0923      4564.7505     -1638.6582      1441.6233      2208.1781      1620.0199     -1005.8801      8099.5478     -14039.788    
Loop time of 96.2054 on 1 procs for 5000 steps with 5304 atoms

Performance: 4.490 ns/day, 5.345 hours/ns, 51.972 timesteps/s, 275.660 katom-step/s
99.5% CPU use with 1 MPI tasks x 1 OpenMP threads

MPI task timing breakdown:
Section |  min time  |  avg time  |  max time  |%varavg| %total
---------------------------------------------------------------
Pair    | 76.449     | 76.449     | 76.449     |   0.0 | 79.46
Bond    | 3.7461     | 3.7461     | 3.7461     |   0.0 |  3.89
Kspace  | 6.9277     | 6.9277     | 6.9277     |   0.0 |  7.20
Neigh   | 8.3361     | 8.3361     | 8.3361     |   0.0 |  8.66
Comm    | 0.27812    | 0.27812    | 0.27812    |   0.0 |  0.29
Output  | 0.025221   | 0.025221   | 0.025221   |   0.0 |  0.03
Modify  | 0.38614    | 0.38614    | 0.38614    |   0.0 |  0.40
Other   |            | 0.05733    |            |       |  0.06

Nlocal:           5304 ave        5304 max        5304 min
Histogram: 1 0 0 0 0 0 0 0 0 0
Nghost:          17133 ave       17133 max       17133 min
Histogram: 1 0 0 0 0 0 0 0 0 0
Neighs:    1.77832e+06 ave 1.77832e+06 max 1.77832e+06 min
Histogram: 1 0 0 0 0 0 0 0 0 0

Total # of neighbors = 1778316
Ave neighs/atom = 335.27828
Ave special neighs/atom = 10.92911
Neighbor list builds = 202
Dangerous builds = 0
unfix           nve_settle
unfix           temp_settle

min_style       cg
minimize        1e-06 1e-06 20000 200000
PPPM initialization ...
  using 12-bit tables for long-range coulomb
  G vector (1/distance) = 0.23799173
  grid = 15 15 15
  stencil order = 5
  estimated absolute RMS force accuracy = 0.018706825
  estimated relative force accuracy = 5.6335047e-05
  using double precision FFTW3
  3d grid and FFT values/proc = 8000 3375
Generated 36 of 36 mixed pair_coeff terms from arithmetic mixing rule
WARNING: Using fix shake with minimization.
  Substituting constraints with harmonic restraint forces using kbond=1987206.7 (src/RIGID/fix_shake.cpp:385)
Per MPI rank memory allocation (min/avg/max) = 55.65 | 55.65 | 55.65 Mbytes
   Step          Temp          Press          Volume        Density         TotEng         KinEng         PotEng         E_bond        E_angle        E_dihed         E_vdwl         E_coul         E_long    
      5000   290.97078      4299.7269      58750.079      0.98466235     2928.516       4564.7505     -1636.2345      1441.6233      2208.1781      1620.0199     -1005.8801      8099.5478     -14039.788    
      5049   290.97078      4914.3801      58750.079      0.98466235     1316.2812      4564.7505     -3248.4693      534.40985      1667.3523      1518.4423     -1068.0229      8096.9137     -14041.068    
Loop time of 5.30618 on 1 procs for 49 steps with 5304 atoms

99.9% CPU use with 1 MPI tasks x 1 OpenMP threads

Minimization stats:
  Stopping criterion = energy tolerance
  Energy initial, next-to-last, final = 
     -1636.23449930186  -3248.46688660326  -3248.46931290754
  Force two-norm initial, final = 7607.5142 10957.619
  Force max component initial, final = 5565.4512 4731.9918
  Final line search alpha, max atom move = 8.7609816e-08 0.00041456893
  Iterations, force evaluations = 49 222

MPI task timing breakdown:
Section |  min time  |  avg time  |  max time  |%varavg| %total
---------------------------------------------------------------
Pair    | 4.7946     | 4.7946     | 4.7946     |   0.0 | 90.36
Bond    | 0.17273    | 0.17273    | 0.17273    |   0.0 |  3.26
Kspace  | 0.30884    | 0.30884    | 0.30884    |   0.0 |  5.82
Neigh   | 0          | 0          | 0          |   0.0 |  0.00
Comm    | 0.010678   | 0.010678   | 0.010678   |   0.0 |  0.20
Output  | 0          | 0          | 0          |   0.0 |  0.00
Modify  | 0.0041517  | 0.0041517  | 0.0041517  |   0.0 |  0.08
Other   |            | 0.01521    |            |       |  0.29

Nlocal:           5304 ave        5304 max        5304 min
Histogram: 1 0 0 0 0 0 0 0 0 0
Nghost:          17123 ave       17123 max       17123 min
Histogram: 1 0 0 0 0 0 0 0 0 0
Neighs:    1.77866e+06 ave 1.77866e+06 max 1.77866e+06 min
Histogram: 1 0 0 0 0 0 0 0 0 0

Total # of neighbors = 1778663
Ave neighs/atom = 335.3437
Ave special neighs/atom = 10.92911
Neighbor list builds = 0
Dangerous builds = 0

# ---------------------------------------------------------------- NPT ---------
# Swelling is the point: the box must be free to expand as water goes in, so the
# uptake is measured at constant pressure, not constant volume.
fix             npt_swell all npt temp 300.0 300.0 100.0 iso 1.0 1.0 1000.0
run             25000
PPPM initialization ...
  using 12-bit tables for long-range coulomb
  G vector (1/distance) = 0.23799173
  grid = 15 15 15
  stencil order = 5
  estimated absolute RMS force accuracy = 0.018706825
  estimated relative force accuracy = 5.6335047e-05
  using double precision FFTW3
  3d grid and FFT values/proc = 8000 3375
Generated 36 of 36 mixed pair_coeff terms from arithmetic mixing rule
Per MPI rank memory allocation (min/avg/max) = 53.4 | 53.4 | 53.4 Mbytes
   Step          Temp          Press          Volume        Density         TotEng         KinEng         PotEng         E_bond        E_angle        E_dihed         E_vdwl         E_coul         E_long    
      5049   290.97078      3298.8953      58750.079      0.98466235     1298.8463      4564.7505     -3265.9042      534.40985      1667.3523      1518.4423     -1068.0229      8096.9137     -14041.068    
      5500   291.78704      446.8319       60746.541      0.95230099     3026.9401      4577.5561     -1550.616       1270.5214      2253.8895      1618.8268     -929.8829       8232.8305     -14031.123    
      6000   293.91973     -1436.422       61428.856      0.94172341     3158.8174      4611.0136     -1452.1962      1324.4927      2245.494       1690.5554     -964.66822      8242.409      -14026.543    
      6500   298.3683       132.27336      61306.342      0.94360533     3210.3313      4680.8029     -1470.4716      1366.9534      2275.106       1618.4634     -932.29796      8203.3803     -14037.119    
      7000   295.53513     -609.08842      60524.045      0.95580181     3166.0134      4636.356      -1470.3426      1390.726       2305.3143      1703.4225     -1046.2183      8189.7543     -14050.916    
      7500   295.85222      290.95279      60100.973      0.96253004     3114.4908      4641.3307     -1526.8398      1347.3924      2347.0702      1650.0568     -1007.3317      8130.3194     -14035.735    
      8000   302.71822     -499.39866      60895.799      0.94996687     3214.936       4749.0444     -1534.1084      1472.1988      2273.6779      1617.5394     -993.46956      8095.8482     -14035.179    
      8500   300.62961      1192.2911      60436.361      0.95718852     3218.3111      4716.2784     -1497.9673      1478.7308      2319.4166      1581.6974     -1002.4989      8129.0498     -14039.702    
      9000   298.99681     -137.06771      60441.717      0.95710371     3167.1489      4690.6629     -1523.514       1460.8985      2331.6628      1612.8237     -961.29971      8045.5209     -14050.638    
      9500   299.10858     -702.18389      60077.978      0.96289844     3162.958       4692.4164     -1529.4584      1498.4298      2381.0375      1609.8427     -1077.7705      8065.2435     -14043.316    
     10000   304.90553      286.18237      60380.834      0.95806876     3187.2167      4783.3589     -1596.1422      1519.9083      2332.4501      1598.5083     -1026.5497      7998.0995     -14053.808    
     10500   298.81453      555.45829      60102.985      0.96249782     3121.0264      4687.8033     -1566.7769      1547.6355      2364.2767      1548.7603     -1036.8908      8031.9377     -14057.638    
     11000   296.13456      379.68644      59725.974      0.96857343     3021.9499      4645.76       -1623.8101      1514.2127      2329.4442      1570.5772     -1014.5894      7986.1989     -14048.686    
     11500   294.21841      348.82402      59811.928      0.96718152     3019.8112      4615.6993     -1595.8881      1516.3986      2390.0161      1579.1571     -1067.1693      8004.6728     -14055.782    
     12000   296.87541     -814.86016      60126.942      0.96211431     3026.0138      4657.3823     -1631.3685      1571.6526      2319.973       1573.3722     -1056.6788      7974.559      -14053.24     
     12500   295.77246      963.38906      59835.659      0.96679793     3030.7865      4640.0793     -1609.2928      1601.0877      2341.9041      1488.1159     -1026.9484      8006.6638     -14053.118    
     13000   297.02967     -1.4719684      60069.377      0.96303631     3146.0029      4659.8025     -1513.7996      1565.8968      2471.8598      1528.364      -1075.3772      8010.1178     -14050.393    
     13500   296.58148     -77.695129      59390.213      0.97404923     3045.5124      4652.7712     -1607.2588      1609.3455      2365.1534      1522.4622     -1078.4196      7992.2145     -14053.953    
     14000   300.33179     -67.604541      59490.84       0.97240166     3056.8835      4711.6061     -1654.7226      1579.5429      2328.7794      1541.1112     -1061.6662      7975.3895     -14056.598    
     14500   303.09987      661.71599      59909.196      0.96561121     3117.4907      4755.0318     -1637.5411      1622.8472      2323.6635      1531.2349     -1055.7223      7960.0644     -14056.619    
     15000   305.21828     -977.00999      60065.844      0.96309296     3216.2484      4788.2654     -1572.017       1658.4774      2407.0244      1520.7936     -1096.6853      7958.1627     -14054.861    
     15500   299.02512     -669.30393      59837.767      0.96676388     3181.8805      4691.107      -1509.2265      1710.5677      2413.0849      1543.9517     -1097.7785      7945.2246     -14060.614    
     16000   299.94174      1492.682       59791.628      0.96750988     3099.0488      4705.4871     -1606.4382      1688.4591      2304.7015      1520.3186     -1057.9096      7971.0197     -14067.265    
     16500   300.83505      827.41795      59741.804      0.96831678     3042.4767      4719.5013     -1677.0246      1627.602       2305.6914      1513.0679     -1109.1496      7997.5636     -14047.785    
     17000   296.54566     -1028.7523      59522.667      0.97188171     3125.0095      4652.2094     -1527.1998      1681.9455      2410.69        1534.0523     -1088.4927      7959.0823     -14064.059    
     17500   300.72629     -1092.9163      59775.067      0.96777795     3072.0769      4717.795      -1645.7181      1727.6166      2355.4353      1503.3906     -1102.7872      7902.0498     -14065.151    
     18000   301.59864      146.72837      59692.633      0.96911442     3154.8169      4731.4805     -1576.6636      1712.7792      2392.5311      1513.7162     -1154.0921      7982.2054     -14060.284    
     18500   309.02361     -36.200185      59696.367      0.9690538      3198.507       4847.9635     -1649.4565      1669.201       2335.4691      1525.5127     -1102.2302      7935.5461     -14049.275    
     19000   295.90395     -311.78205      59776.815      0.96774964     3049.9937      4642.1421     -1592.1484      1735.9979      2385.2367      1475.451      -1122.6264      7963.8285     -14062.75     
     19500   296.25908     -272.83323      59638.313      0.96999712     2994.1424      4647.7134     -1653.5711      1686.2131      2357.1129      1559.2673     -1116.7977      7879.2126     -14057.354    
     20000   305.52904      268.02357      59558.628      0.9712949      3243.8552      4793.1405     -1549.2853      1721.9335      2410.7953      1531.7492     -1081.4027      7884.4051     -14054.496    
     20500   302.15225     -232.67403      59614.752      0.97038048     3174.6572      4740.1654     -1565.5082      1730.9412      2382.4263      1529.7023     -1073.1083      7873.0791     -14045.477    
     21000   298.24538     -167.74393      59343.557      0.97481504     3125.9579      4678.8746     -1552.9166      1736.5621      2395.3224      1521.817      -1059.1603      7885.7065     -14070.949    
     21500   304.53724     -730.91881      59961.128      0.9647749      3098.1695      4777.5812     -1679.4117      1712.4163      2385.3709      1465.3261     -1120.8561      7903.6762     -14059.689    
     22000   294.6914      -52.32654       59103.982      0.97876639     3015.6151      4623.1197     -1607.5046      1706.221       2401.141       1513.9496     -1065.8023      7865.2623     -14064.541    
     22500   295.54244     -254.40079      59340.072      0.97487228     2899.7893      4636.4708     -1736.6815      1658.4211      2366.1937      1519.5119     -1117.8811      7863.2473     -14062.91     
     23000   297.72264      1979.5789      59606.48       0.97051515     3005.8335      4670.6737     -1664.8402      1635.6142      2402.6667      1531.0925     -1093.5797      7884.6302     -14061.822    
     23500   298.98573      1015.1759      59228.816      0.97670349     3058.1755      4690.4892     -1632.3137      1692.9842      2418.4234      1502.5402     -1103.7905      7877.2048     -14055.929    
     24000   300.2032      -1061.2677      59560.999      0.97125623     3098.2738      4709.5888     -1611.315       1726.9145      2392.6449      1514.6168     -1140.2869      7925.0907     -14065.538    
     24500   294.88193     -234.95348      59409.454      0.97373377     3006.5559      4626.1087     -1619.5528      1729.6533      2418.6614      1507.175      -1078.8601      7824.8759     -14056.534    
     25000   299.51334     -21.30927       59450.823      0.9730562      2987.1589      4698.7663     -1711.6074      1672.7015      2373.5464      1538.2942     -1175.7613      7914.3943     -14071.93     
     25500   300.64619      774.14038      59394.216      0.97398358     3020.4109      4716.5384     -1696.1275      1711.1187      2370.5358      1494.1815     -1152.676       7910.7679     -14063.783    
     26000   297.73284     -814.81472      59493.737      0.97235431     3055.6693      4670.8338     -1615.1646      1755.3205      2346.6625      1529.4952     -1133.1688      7911.612      -14061.208    
     26500   301.34765     -912.17086      59247.667      0.97639274     3098.5494      4727.5429     -1628.9936      1731.0036      2443.3636      1501.516      -1103.0334      7835.4531     -14072.138    
     27000   303.88626     -896.16108      59627.014      0.97018093     3155.7481      4767.3686     -1611.6205      1729.3444      2415.0304      1504.1999     -1126.2944      7891.6695     -14062.299    
     27500   297.34654     -815.90205      59587.082      0.97083108     3020.7276      4664.7735     -1644.046       1783.0475      2347.2026      1530.5663     -1147.4554      7871.071      -14067.153    
     28000   301.24166     -526.35311      59312.566      0.97532438     2983.9523      4725.8802     -1741.9279      1651.0946      2389.5833      1512.946      -1094.7969      7836.7334     -14073.57     
     28500   301.22307      212.51112      59617.86       0.97032989     3089.4475      4725.5885     -1636.141       1755.681       2401.8505      1457.9238     -1106.8322      7886.9196     -14066.544    
     29000   302.74668     -0.82177484     59490.17       0.9724126      3043.1978      4749.4909     -1706.2931      1695.5489      2389.6808      1496.7402     -1131.1605      7885.6734     -14077.137    
     29500   297.91725     -605.23746      59071.48       0.97930493     3001.3659      4673.7268     -1672.3609      1747.4541      2387.2954      1501.9381     -1118.9899      7841.5627     -14067.995    
     30000   303.47872      1160.2135      59357.722      0.9745824      3119.4999      4760.9752     -1641.4752      1743.4839      2374.9272      1495.9929     -1080.685       7850.8116     -14061.837    
     30049   304.93073      291.69135      59290.059      0.97569462     3040.9152      4783.7543     -1742.8391      1668.6044      2383.4101      1514.4077     -1109.8879      7826.8504     -14061.849    
Loop time of 487.597 on 1 procs for 25000 steps with 5304 atoms

Performance: 4.430 ns/day, 5.418 hours/ns, 51.272 timesteps/s, 271.946 katom-step/s
99.7% CPU use with 1 MPI tasks x 1 OpenMP threads

MPI task timing breakdown:
Section |  min time  |  avg time  |  max time  |%varavg| %total
---------------------------------------------------------------
Pair    | 381.59     | 381.59     | 381.59     |   0.0 | 78.26
Bond    | 21.149     | 21.149     | 21.149     |   0.0 |  4.34
Kspace  | 34.718     | 34.718     | 34.718     |   0.0 |  7.12
Neigh   | 40.978     | 40.978     | 40.978     |   0.0 |  8.40
Comm    | 1.3481     | 1.3481     | 1.3481     |   0.0 |  0.28
Output  | 0.12212    | 0.12212    | 0.12212    |   0.0 |  0.03
Modify  | 7.4281     | 7.4281     | 7.4281     |   0.0 |  1.52
Other   |            | 0.2597     |            |       |  0.05

Nlocal:           5304 ave        5304 max        5304 min
Histogram: 1 0 0 0 0 0 0 0 0 0
Nghost:          17032 ave       17032 max       17032 min
Histogram: 1 0 0 0 0 0 0 0 0 0
Neighs:    1.77456e+06 ave 1.77456e+06 max 1.77456e+06 min
Histogram: 1 0 0 0 0 0 0 0 0 0

Total # of neighbors = 1774562
Ave neighs/atom = 334.57051
Ave special neighs/atom = 10.92911
Neighbor list builds = 1002
Dangerous builds = 0

variable        dens equal density
variable        vol_ equal vol
fix             avg all ave/time 500 10 5000 v_dens v_vol_ file density.dat
run             25000
PPPM initialization ...
  using 12-bit tables for long-range coulomb
  G vector (1/distance) = 0.2377136
  grid = 15 15 15
  stencil order = 5
  estimated absolute RMS force accuracy = 0.018869469
  estimated relative force accuracy = 5.6824846e-05
  using double precision FFTW3
  3d grid and FFT values/proc = 8000 3375
Generated 36 of 36 mixed pair_coeff terms from arithmetic mixing rule
Per MPI rank memory allocation (min/avg/max) = 53.4 | 53.4 | 53.4 Mbytes
   Step          Temp          Press          Volume        Density         TotEng         KinEng         PotEng         E_bond        E_angle        E_dihed         E_vdwl         E_coul         E_long    
     30049   304.93073      290.79627      59290.059      0.97569462     3040.9484      4783.7543     -1742.8059      1668.6044      2383.4101      1514.4077     -1109.8879      7811.4226     -14046.388    
     30500   305.35053      110.57316      59483.037      0.97252921     3077.8981      4790.3401     -1712.4421      1709.5852      2373.3384      1501.2107     -1123.311       7839.3572     -14047.954    
     31000   299.00983     -817.9769       59645.529      0.96987976     3051.1019      4690.8672     -1639.7653      1737.4196      2390.4175      1501.9355     -1103.1557      7846.4303     -14050.496    
     31500   300.67681      369.66707      59728.411      0.96853391     2983.6382      4717.0187     -1733.3805      1666.9495      2372.3302      1530.8728     -1101.558       7807.1523     -14045.014    
     32000   292.81659     -336.9174       59700.81       0.96898168     2864.0733      4593.7076     -1729.6343      1728.8051      2337.3596      1497.9378     -1150.5511      7865.4425     -14044.782    
     32500   301.00993     -750.84786      58976.632      0.98087988     3101.2753      4722.2448     -1620.9694      1763.8579      2436.7571      1520.632      -1137.6509      7812.1041     -14053.019    
     33000   299.55858      1632.2504      59520.272      0.97192081     3095.6007      4699.4759     -1603.8753      1704.2227      2435.0305      1497.0285     -1058.1522      7825.0614     -14040.965    
     33500   300.62997     -1037.858       59302.896      0.97548342     3026.0962      4716.284      -1690.1878      1734.742       2389.2932      1510.7528     -1099.6935      7791.6801     -14050.482    
     34000   301.08748     -240.83959      59537.343      0.97164213     2994.6818      4723.4614     -1728.7796      1630.0368      2406.795       1504.9619     -1089.4597      7828.4295     -14044.593    
     34500   299.28292      247.02357      59545.637      0.97150681     3086.9232      4695.1514     -1608.2281      1720.8236      2411.4059      1514.565      -1083.6746      7840.0157     -14047.831    
     35000   299.40377     -307.3068       59176.016      0.97757497     3082.5799      4697.0473     -1614.4674      1750.7336      2439.2158      1537.4145     -1158.9779      7822.5804     -14044.383    
     35500   301.77384      480.04737      58872.732      0.98261095     3025.925       4734.229      -1708.304       1695.3859      2410.9369      1507.7855     -1107.8187      7797.9674     -14047.146    
     36000   299.49973      454.81052      59187.664      0.97738258     3026.4083      4698.5527     -1672.1444      1716.7496      2454.9825      1479.8381     -1067.7237      7759.2845     -14052.018    
     36500   299.3814      -182.77353      58991.981      0.98062467     2925.6271      4696.6964     -1771.0693      1715.6905      2363.0193      1498.5588     -1147.6742      7811.2002     -14050.286    
     37000   303.65634     -813.51367      59289.498      0.97570384     3008.027       4763.7616     -1755.7346      1668.6936      2401.5659      1505.5403     -1117.733       7802.4946     -14049.434    
     37500   300.90778      103.43872      59109.798      0.97867009     3036.7764      4720.6422     -1683.8658      1747.76        2397.2119      1518.1733     -1127.6499      7786.6997     -14044.27     
     38000   304.44719     -79.579166      59056.627      0.97955123     3008.9735      4776.1685     -1767.1951      1713.361       2374.9258      1473.2322     -1137.0596      7827.6686     -14053.742    
     38500   297.36409     -771.37771      59471.853      0.97271211     2921.0329      4665.0488     -1744.0159      1684.0738      2444.1844      1481.2498     -1158.2255      7813.0667     -14045.714    
     39000   297.6175      -255.26747      59554.28       0.97136581     2908.144       4669.0243     -1760.8803      1712.9834      2364.4263      1486.9489     -1125.0494      7815.009      -14048.524    
     39500   305.11642     -489.8414       59371.207      0.97436104     3017.3092      4786.6674     -1769.3582      1719.6903      2377.6015      1509.1216     -1162.201       7796.322      -14046.478    
     40000   294.49825      195.38487      58755.001      0.98457987     2880.7792      4620.0895     -1739.3103      1701.608       2425.588       1479.3832     -1165.1157      7827.209      -14042.61     
     40500   297.25663     -385.3573       58994.376      0.98058485     2962.064       4663.3629     -1701.299       1717.73        2417.1583      1484.2852     -1158.9521      7836.2502     -14032.919    
     41000   293.58389      256.89592      59410.395      0.97371835     2928.0039      4605.745      -1677.7411      1719.5984      2417.6676      1509.7882     -1092.9966      7781.7739     -14047.866    
     41500   297.40458      666.29349      59195.844      0.97724752     3020.219       4665.684      -1645.4649      1785.2078      2409.8517      1541.8443     -1105.0985      7736.2823     -14052.174    
     42000   303.85654     -410.97508      59555.847      0.97134025     3012.6232      4766.9024     -1754.2792      1726.3818      2355.7313      1493.8951     -1063.8001      7746.8479     -14048.695    
     42500   302.73296     -494.99438      59442.435      0.97319349     2996.3098      4749.2757     -1752.9659      1740.1021      2376.0025      1478.0657     -1151.904       7822.6928     -14051.171    
     43000   296.33581      893.80647      59156.04       0.97790508     2923.1581      4648.9172     -1725.7591      1728.445       2408.9767      1472.7355     -1130.7515      7812.1139     -14050.483    
     43500   299.66746      359.64488      59049.505      0.97966937     2866.4181      4701.1841     -1834.766       1708.2537      2325.7517      1528.4965     -1145.5313      7759.1678     -14045.069    
     44000   302.12978      2199.1389      59548.455      0.97146083     2933.4117      4739.8129     -1806.4012      1683.8462      2369.2983      1470.3123     -1138.6472      7824.4254     -14049.927    
     44500   299.95692     -1266.8722      59137.564      0.97821059     2951.494       4705.7252     -1754.2312      1778.6265      2396.4683      1484.7362     -1117.8386      7723.3283     -14055.264    
     45000   300.69934      445.76466      59161.819      0.97780955     3086.9051      4717.3722     -1630.4671      1725.6709      2453.1151      1511.8948     -1105.3677      7799.2067     -14050.277    
     45500   308.85303     -168.18861      58969.672      0.98099565     3143.2805      4845.2874     -1702.0069      1780.3241      2412.7187      1466.0585     -1107.4002      7762.8673     -14049.592    
     46000   300.20072      798.43397      59410.59       0.97371515     3029.3759      4709.5499     -1680.1739      1733.0097      2451.9387      1486.8051     -1151.9872      7812.3565     -14047.83     
     46500   303.35829     -672.87138      59283.186      0.97580774     2968.1799      4759.0858     -1790.9059      1711.9878      2413.0355      1467.8698     -1151.9436      7786.1556     -14054.764    
     47000   304.85095     -647.70334      59112.036      0.97863303     3075.0493      4782.5027     -1707.4534      1735.9388      2411.6108      1519.5924     -1183.2372      7819.3744     -14048.836    
     47500   303.33522      186.68892      59070.487      0.9793214      3113.0103      4758.7239     -1645.7136      1807.6159      2420.0643      1510.8062     -1091.2685      7719.0125     -14049.029    
     48000   298.33009     -476.57774      59605.98       0.97052329     2973.1045      4680.2035     -1707.099       1768.9408      2360.3824      1517.2019     -1153.9657      7814.8718     -14051.567    
     48500   296.70855     -540.60736      59492.383      0.97237644     2907.2673      4654.7647     -1747.4974      1754.6793      2386.5284      1507.4043     -1137.1108      7763.9313     -14058.645    
     49000   298.76794      805.27326      59067.164      0.97937648     3004.9174      4687.0724     -1682.155       1753.0317      2408.2634      1492.8404     -1104.197       7776.3282     -14044.718    
     49500   300.42939     -298.3382       59471.989      0.97270988     3065.6516      4713.1373     -1647.4857      1770.0979      2368.0898      1534.0834     -1102.1225      7800.5999     -14057.119    
     50000   297.27812      75.312882      58962.757      0.98111069     2945.9459      4663.7002     -1717.7543      1719.7403      2371.2464      1528.5393     -1121.2467      7797.0526     -14049.287    
     50500   305.2137      -632.13772      59457.414      0.97294833     3078.6355      4788.1935     -1709.5581      1748.0918      2357.2286      1517.8645     -1145.2729      7826.547      -14055.781    
     51000   296.78743      957.65118      59090.533      0.97898917     2966.8194      4656.0021     -1689.1827      1768.0613      2353.1485      1522.3285     -1115.3228      7795.3888     -14048.508    
     51500   296.44037     -375.98873      58828.809      0.98334459     2964.2811      4650.5574     -1686.2764      1756.6556      2413.6017      1519.0946     -1154.7519      7797.7819     -14058.213    
     52000   304.80788     -247.23644      59420.136      0.97355872     3080.5259      4781.827      -1701.3011      1768.7226      2381.9679      1444.0806     -1146.1465      7870.951      -14053.689    
     52500   305.08632     -1168.2009      59262.77       0.9761439      3122.4753      4786.1952     -1663.7199      1825.6808      2414.0642      1487.2177     -1161.2368      7786.8444     -14050.909    
     53000   300.45632      1037.8479      59251.613      0.97632771     3038.4145      4713.5597     -1675.1452      1725.2326      2454.5981      1497.3533     -1167.8897      7836.6721     -14056.412    
     53500   297.24324     -1982.4181      58931.636      0.98162881     2992.3479      4663.1529     -1670.8049      1767.7964      2475.3129      1492.0118     -1194.9668      7812.4272     -14057.921    
     54000   301.10103      402.19246      58806.415      0.98371907     2952.7126      4723.674      -1770.9614      1746.4199      2365.9408      1477.1665     -1111.4379      7761.7634     -14045.461    
     54500   296.79232      153.59107      59365.19       0.97445981     2931.5079      4656.0789     -1724.571       1733.9959      2381.5763      1461.0552     -1108.7382      7828.8406     -14054.755    
     55000   296.01973      1078.9357      59009.264      0.98033745     2921.9394      4643.9585     -1722.0192      1706.6332      2364.0954      1501.4657     -1116.308       7834.1251     -14046.646    
     55049   297.88595      1142.4538      58930.468      0.98164825     2898.1373      4673.2358     -1775.0985      1654.0482      2409.0011      1467.2999     -1078.3124      7786.3894     -14048.327    
Loop time of 484.397 on 1 procs for 25000 steps with 5304 atoms

Performance: 4.459 ns/day, 5.382 hours/ns, 51.611 timesteps/s, 273.743 katom-step/s
99.6% CPU use with 1 MPI tasks x 1 OpenMP threads

MPI task timing breakdown:
Section |  min time  |  avg time  |  max time  |%varavg| %total
---------------------------------------------------------------
Pair    | 382.93     | 382.93     | 382.93     |   0.0 | 79.05
Bond    | 21.246     | 21.246     | 21.246     |   0.0 |  4.39
Kspace  | 34.962     | 34.962     | 34.962     |   0.0 |  7.22
Neigh   | 35.927     | 35.927     | 35.927     |   0.0 |  7.42
Comm    | 1.3607     | 1.3607     | 1.3607     |   0.0 |  0.28
Output  | 0.12974    | 0.12974    | 0.12974    |   0.0 |  0.03
Modify  | 7.577      | 7.577      | 7.577      |   0.0 |  1.56
Other   |            | 0.2638     |            |       |  0.05

Nlocal:           5304 ave        5304 max        5304 min
Histogram: 1 0 0 0 0 0 0 0 0 0
Nghost:          17220 ave       17220 max       17220 min
Histogram: 1 0 0 0 0 0 0 0 0 0
Neighs:    1.78486e+06 ave 1.78486e+06 max 1.78486e+06 min
Histogram: 1 0 0 0 0 0 0 0 0 0

Total # of neighbors = 1784856
Ave neighs/atom = 336.51131
Ave special neighs/atom = 10.92911
Neighbor list builds = 876
Dangerous builds = 0

# ------------------------------------------------------------- chemical pot ---
# Widom insertion of a test water into the swollen membrane, to be compared with
# the same quantity in bulk water. The comparison is only meaningful if both
# sides use identical cutoff, kspace accuracy and water model -- see bulk.in.j2.
#
# The test particle is inserted but never kept, so this measures the free energy
# the *next* water would pay, which is exactly the saturation question.
molecule        h2o h2o.mol
Read molecule template h2o:
# Rigid water for Widom test insertions.
  1 molecules
  0 fragments
  0 bodies
  3 atoms with max type 9
  2 bonds with max type 8
  1 angles with max type 14
  0 dihedrals with max type 0
  0 impropers with max type 0
fix             w all widom 100 400 0 87232 300.0 mol h2o full_energy
WARNING: Molecule attributes do not match system attributes
For more information see https://docs.lammps.org/err0026 (src/molecule.cpp:3637)
variable        muex equal f_w[1]
variable        boltz equal f_w[2]
variable        wvol equal f_w[3]
fix             muavg all ave/time 100 100 10000 v_muex v_boltz v_wvol file mu.dat
run             50000
PPPM initialization ...
  using 12-bit tables for long-range coulomb
  G vector (1/distance) = 0.23789855
  grid = 15 15 15
  stencil order = 5
  estimated absolute RMS force accuracy = 0.018761183
  estimated relative force accuracy = 5.6498745e-05
  using double precision FFTW3
  3d grid and FFT values/proc = 8000 3375
Generated 36 of 36 mixed pair_coeff terms from arithmetic mixing rule
0 atoms in group FixWidom:widom_exclusion_group:w
0 atoms in group FixWidom:rotation_gas_atoms:w
WARNING: Neighbor exclusions used with KSpace solver may give inconsistent Coulombic energies (src/neighbor.cpp:671)
Per MPI rank memory allocation (min/avg/max) = 53.4 | 53.4 | 53.4 Mbytes
   Step          Temp          Press          Volume        Density         TotEng         KinEng         PotEng         E_bond        E_angle        E_dihed         E_vdwl         E_coul         E_long    
     55049   297.88595      1141.8695      58930.468      0.98164825     2898.1091      4673.2358     -1775.1267      1654.0482      2409.0011      1467.2999     -1078.3124      7796.6522     -14058.618    
     55500   299.75011     -1381.8171      59366.203      0.97444317     2993.2276      4702.4807     -1709.2531      1726.1638      2375.5069      1510.5668     -1139.0285      7846.626      -14066.713    
     56000   302.2976      -877.32052      58773.334      0.98427275     3034.764       4742.4458     -1707.6818      1739.4961      2402.1096      1503.2203     -1150.1943      7823.3233     -14062.317    
     56500   302.27368      274.49752      59519.346      0.97193595     2998.388       4742.0705     -1743.6825      1721.7824      2405.2394      1475.157      -1141.4001      7818.4653     -14057.635    
     57000   297.57621     -1655.2818      59003.984      0.98042517     2886.7217      4668.3766     -1781.655       1768.9026      2366.7634      1473.2332     -1181.5652      7808.7421     -14052.774    
     57500   295.67879     -331.65487      58920.04       0.98182199     2926.6521      4638.6098     -1711.9576      1749.5544      2416.9095      1498.4501     -1197.626       7839.4252     -14055.456    
     58000   300.78156     -978.7003       58908.744      0.98201027     2968.0734      4718.6621     -1750.5887      1825.1766      2322.409       1489.725      -1092.6983      7722.8026     -14051.782    
     58500   301.29824      397.80879      59231.778      0.97665465     3016.1437      4726.7677     -1710.6241      1737.5001      2443.3997      1481.0489     -1156.1396      7803.0223     -14053.467    
     59000   303.33203     -655.76156      59490.048      0.9724146      3033.2742      4758.6739     -1725.3997      1768.7734      2335.7556      1487.2414     -1139.0304      7830.2685     -14042.855    
     59500   301.62359      920.63716      59035.602      0.97990009     2998.8093      4731.8719     -1733.0626      1722.0528      2390.2752      1495.2173     -1102.5262      7783.4565     -14057.462    
     60000   302.89689      579.30141      58730.313      0.98499376     2971.1956      4751.8474     -1780.6518      1697.3178      2359.5519      1509.397      -1086.9817      7764.1715     -14059.664    
     60500   300.08757      1045.436       59357.895      0.97457957     3045.2698      4707.7748     -1662.505       1732.6203      2374.7531      1536.5677     -1071.6213      7791.4906     -14062.923    
     61000   301.1689      -310.54262      59158.779      0.97785979     2934.0926      4724.7387     -1790.6461      1703.0949      2403.1886      1507.2875     -1138.9116      7762.9166     -14064.763    
     61500   297.98982     -415.81908      59825.43       0.96696323     2957.0165      4674.8653     -1717.8488      1717.0418      2373.4908      1496.7718     -1178.0891      7888.7529     -14051.784    
     62000   293.9369       718.61588      59183.954      0.97744385     2873.6201      4611.2831     -1737.6629      1709.1795      2384.6455      1521.236      -1106.5368      7771.3058     -14054.771    
     62500   300.16094      593.68304      59047.249      0.97970681     2981.9548      4708.9257     -1726.971       1686.2371      2393.0806      1542.8551     -1127.7943      7805.9503     -14065.158    
     63000   301.23504      1023.7802      58797.106      0.9838748      3017.1404      4725.7762     -1708.6358      1755.1836      2387.8439      1487.5845     -1057.7531      7750.9398     -14067.557    
     63500   291.4244      -90.68382       59058.029      0.97952797     2930.0539      4571.867      -1641.8131      1737.487       2466.1592      1506.8096     -1147.359       7827.2146     -14068.91     
     64000   297.01999     -414.85326      59467.327      0.97278614     3052.8325      4659.6505     -1606.818       1763.4603      2469.1911      1517.2648     -1118.9812      7786.792      -14061.287    
     64500   294.67398      885.21382      59140.761      0.97815772     2908.3865      4622.8464     -1714.4598      1757.9982      2397.3464      1469.0459     -1112.8984      7798.2021     -14058.055    
     65000   294.59671     -1633.6978      59166.745      0.97772814     2858.1475      4621.6341     -1763.4867      1781.0043      2354.6608      1504.5687     -1134.0998      7764.4933     -14068.963    
     65500   296.46043      417.04021      59048.615      0.97968414     2961.1928      4650.8722     -1689.6794      1736.3306      2413.4754      1510.91       -1152.1543      7809.8313     -14045.628    
     66000   305.9215       1414.0231      58815.829      0.98356162     3072.341       4799.2974     -1726.9565      1682.3688      2440.6499      1479.6914     -1048.9426      7742.2578     -14057.888    
     66500   302.03233     -726.77765      58788.733      0.98401494     3037.1014      4738.2842     -1701.1828      1764.9974      2395.9845      1500.5983     -1148.5416      7811.0261     -14059.655    
     67000   296.80412      516.72786      59200.825      0.97716529     2997.2034      4656.264      -1659.0606      1714.1471      2472.2747      1504.1782     -1108.6523      7798.9987     -14074.635    
     67500   305.81911      672.99392      59505.902      0.97215552     3095.7587      4797.6912     -1701.9324      1713.1878      2422.2757      1492.8297     -1145.4492      7837.3856     -14055.643    
     68000   304.04068      162.45449      58401.886      0.99053294     2999.5488      4769.7911     -1770.2423      1750.0029      2362.3033      1527.1612     -1088.4921      7699.8102     -14057.11     
     68500   301.97889      484.09459      59204.611      0.97710281     2993.0286      4737.4458     -1744.4173      1692.7761      2440.2882      1495.2402     -1156.378       7806.4815     -14059.742    
     69000   299.11804      111.59659      58729.52       0.98500705     3018.3386      4692.5647     -1674.2261      1746.7424      2472.2717      1494.561      -1090.7676      7729.0587     -14060.955    
     69500   299.44184     -539.96045      58751.473      0.98463899     2995.759       4697.6446     -1701.8856      1748.1983      2446.4703      1479.7568     -1133.9676      7785.6135     -14060.805    
     70000   299.28441      374.03704      58743.171      0.98477815     3014.4915      4695.1748     -1680.6833      1718.5478      2439.0677      1510.0256     -1091.2929      7771.474      -14063.367    
     70500   298.50249      62.508485      59132.06       0.97830164     2950.8705      4682.908      -1732.0376      1720.6621      2414.6757      1509.6944     -1141.6902      7785.4702     -14058.194    
     71000   297.5684      -111.28268      58557.963      0.98789282     2965.3711      4668.2541     -1702.883       1726.3979      2487.426       1476.6437     -1118.8872      7746.6804     -14056.687    
     71500   298.0599      -781.08248      59489.615      0.97242168     3044.7335      4675.9646     -1631.2311      1788.0035      2442.0532      1483.2304     -1120.3321      7807.3866     -14065.616    
     72000   300.91777     -332.67117      59080.519      0.9791551      2993.9972      4720.7989     -1726.8017      1700.9893      2404.5296      1505.6277     -1078.753       7767.9216     -14063.574    
     72500   298.30398     -911.30624      58795.046      0.98390928     2925.296       4679.7938     -1754.4977      1738.1476      2445.3599      1482.217      -1187.2604      7786.332      -14055.512    
     73000   294.95223     -423.22317      59120.539      0.97849229     2976.9565      4627.2116     -1650.2551      1762.8506      2417.9554      1492.1622     -1159.0235      7853.086      -14051.767    
     73500   299.0782       597.01009      59064.861      0.97941467     3017.3429      4691.9398     -1674.5969      1717.3031      2469.4635      1466.123      -1100.4003      7797.4658     -14060.365    
     74000   299.04615     -113.31466      59200.662      0.97716798     2908.7652      4691.437      -1782.6718      1719.8448      2405.2379      1470.8707     -1175.2848      7825.1283     -14063.861    
     74500   297.76876     -741.35404      59017.36       0.98020298     3001.0535      4671.3972     -1670.3438      1767.7366      2415.3219      1502.3903     -1054.5755      7711.7504     -14048.697    
     75000   304.13612      705.24014      59425.952      0.97346343     2994.834       4771.2884     -1776.4544      1720.778       2401.9672      1468.2788     -1082.0704      7747.3218     -14066.327    
     75500   295.82279     -1170.0645      59149.838      0.97800761     2860.1021      4640.8688     -1780.7667      1728.4712      2385.2899      1486.4183     -1133.0335      7776.7765     -14059.844    
     76000   297.79435     -207.56242      59564.531      0.97119864     2913.6145      4671.7987     -1758.1842      1746.6815      2401.757       1483.8183     -1152.7827      7804.4339     -14075.72     
     76500   294.02635     -655.4674       59444.103      0.97316619     2918.8688      4612.6863     -1693.8175      1762.3972      2431.1995      1472.0016     -1111.5747      7780.0912     -14060.859    
     77000   301.46332      436.33703      58758.378      0.98452328     2992.6759      4729.3576     -1736.6817      1758.4654      2394.2752      1475.8967     -1112.7594      7773.7193     -14061.102    
     77500   304.79375      135.07862      59373.371      0.97432553     3077.2691      4781.6053     -1704.3362      1766.3721      2446.7024      1481.8511     -1118.5238      7743.4486     -14058.706    
     78000   300.44285     -315.75488      59295.922      0.97559814     2994.2332      4713.3484     -1719.1152      1771.9852      2350.8439      1500.6137     -1149.9628      7834.3168     -14061.992    
     78500   302.75108     -1056.3218      59102.864      0.97878492     2908.4365      4749.56       -1841.1235      1762.8305      2358.3935      1459.483      -1166.3989      7767.633      -14057.946    
     79000   296.56162     -533.78224      58985.594      0.98073084     2973.5422      4652.4597     -1678.9175      1742.1539      2414.1362      1532.4586     -1078.8052      7736.2952     -14061.441    
     79500   303.49356      1755.3687      59081.548      0.97913804     3101.9375      4761.208      -1659.2705      1813.0553      2399.4651      1475.1352     -1094.0019      7777.459      -14063.584    
     80000   299.20127      201.39307      59250.499      0.97634606     2954.9794      4693.8704     -1738.8911      1740.4505      2403.6968      1482.604      -1142.9745      7798.0505     -14058.088    
     80500   306.46442      1007.8197      59458.708      0.97292715     3120.5662      4807.8148     -1687.2486      1739.84        2457.6482      1447.3002     -1095.1272      7793.9998     -14064.947    
     81000   305.20094     -756.68735      59216.903      0.97689999     3081.3446      4787.9934     -1706.6488      1751.0002      2381.4662      1501.3222     -1144.2276      7822.8468     -14054.919    
     81500   300.54646      228.36332      58873.727      0.98259435     2994.6485      4714.9739     -1720.3253      1755.1092      2412.2687      1480.1239     -1062.9224      7720.5654     -14059.541    
     82000   294.02928      207.73755      59194.899      0.97726312     2919.8703      4612.7324     -1692.8621      1763.0617      2368.0012      1493.8065     -1083.9232      7785.9567     -14054.124    
     82500   297.07665     -1302.5036      59113.578      0.97860752     2977.5227      4660.5394     -1683.0167      1795.5859      2428.9056      1485.5033     -1153.5465      7787.2177     -14060.465    
     83000   302.82442     -519.69993      59083.036      0.97911339     3026.2411      4750.7105     -1724.4694      1764.469       2421.1112      1444.8872     -1117.0797      7781.1176     -14051.657    
     83500   297.62562      1617.1275      59045.09       0.97974262     2933.8095      4669.1517     -1735.3422      1791.8357      2361.1002      1477.386      -1152.149       7813.0925     -14059.429    
     84000   302.36856     -1058.4616      59330.843      0.97502393     3104.2476      4743.559      -1639.3114      1838.3597      2448.3782      1464.4208     -1157.4156      7792.2032     -14057.065    
     84500   301.18985      394.4007       58795.499      0.9839017      3046.1687      4725.0674     -1678.8987      1809.5001      2367.8581      1468.3016     -1075.1483      7783.5718     -14067.326    
     85000   296.73013      11.96971       58946.789      0.98137647     2983.5538      4655.1032     -1671.5495      1745.032       2424.7664      1509.1819     -1153.3527      7820.0191     -14054.891    
     85500   304.12704      1184.3862      58852.354      0.98295119     3023.6772      4771.146      -1747.4687      1760.0617      2366.3094      1490.976      -1115.9016      7772.349      -14056.276    
     86000   295.02659      166.21708      58852.227      0.98295331     2877.4894      4628.3781     -1750.8887      1746.2771      2399.1363      1469.0484     -1115.5462      7777.2345     -14062.605    
     86500   300.97158     -1055.779       58894.029      0.98225562     3008.118       4721.6431     -1713.5251      1763.277       2390.5743      1498.8535     -1175.505       7822.8203     -14049.07     
     87000   303.97763      175.22501      58883.263      0.98243522     3060.9559      4768.802      -1707.8462      1761.2726      2385.1765      1471.3211     -1143.7899      7832.153      -14048.3      
     87500   302.52607      69.713241      58497.269      0.98891781     3074.4775      4746.03       -1671.5526      1759.2508      2451.4431      1501.3225     -1144.4554      7783.4512     -14057.866    
     88000   301.10194     -491.71959      59229.183      0.97669744     3034.3952      4723.6882     -1689.293       1799.3461      2391.4817      1505.9834     -1163.3165      7792.6932     -14052.383    
     88500   297.96685      285.09042      59124.712      0.97842322     2975.4698      4674.5049     -1699.0351      1700.3772      2481.3258      1464.4952     -1075.5244      7754.431      -14060.459    
     89000   300.02527     -602.64577      58701.54       0.98547655     2953.6938      4706.7974     -1753.1036      1730.1699      2401.5101      1487.9257     -1144.8673      7792.7482     -14057.457    
     89500   301.61558     -519.55559      59179.423      0.97751868     3015.7204      4731.7463     -1716.0259      1723.0907      2416.0418      1500.9745     -1143.9974      7806.5505     -14053.727    
     90000   297.78201      922.16626      59337.116      0.97492085     3035.3204      4671.6052     -1636.2848      1809.0931      2466.4565      1477.1886     -1151.9936      7791.3166     -14062.676    
     90500   293.83285      1150.6183      59252.399      0.97631475     2960.522       4609.6508     -1649.1288      1734.258       2458.2878      1481.9303     -1081.9747      7792.2142     -14069.505    
     91000   291.72559     -747.70152      58661.382      0.98615119     2866.1769      4576.592      -1710.4151      1735.0376      2441.1104      1486.707      -1156.7844      7809.0932     -14060.823    
     91500   297.30774      395.944        59109.705      0.97867163     2947.5742      4664.1648     -1716.5907      1753.8327      2409.2634      1488.4982     -1122.6396      7778.0197     -14059.003    
     92000   299.18397      643.25778      59525.126      0.97184156     3023.1082      4693.5991     -1670.4909      1745.7754      2397.031       1511.3634     -1165.8012      7860.4233     -14054.515    
     92500   302.09506     -660.14847      58996.976      0.98054164     3038.3911      4739.2682     -1700.8771      1767.2923      2420.0937      1485.8463     -1143.3597      7800.4169     -14066.854    
     93000   301.16437     -262.88725      59054.272      0.9795903      3090.5308      4724.6676     -1634.1368      1787.6644      2420.3007      1474.7527     -1139.2846      7846.4219     -14057.099    
     93500   295.0574       638.09817      58817.548      0.98353286     2932.3205      4628.8615     -1696.541       1729.6878      2444.6779      1477.3274     -1137.5899      7815.4793     -14060.8      
     94000   295.66109     -34.193443      59278.199      0.97588983     2878.4143      4638.3322     -1759.9179      1706.2854      2407.7589      1472.4799     -1157.4858      7831.5287     -14054.718    
     94500   304.92405      246.8137       58565.776      0.98776104     2956.4059      4783.6495     -1827.2436      1720.1762      2376.8438      1480.8596     -1159.195       7783.9245     -14067.196    
     95000   307.65866      1967.7016      58788.149      0.98402471     3009.7487      4826.5501     -1816.8014      1646.1599      2420.7797      1455.7766     -1129.7896      7817.0415     -14061.119    
     95500   302.17213      45.092534      59268.29       0.97605299     3026.2424      4740.4774     -1714.235       1746.4062      2395.5953      1487.259      -1127.0999      7808.1156     -14060.586    
     96000   298.03519     -1101.6846      59137.046      0.97821916     2948.7788      4675.577      -1726.7982      1791.4324      2394.3768      1479.9133     -1177.9123      7817.2776     -14067.547    
     96500   296.78279      276.50632      59480.68       0.97256775     2948.2181      4655.9294     -1707.7113      1741.1312      2444.0169      1482.8258     -1136.5448      7787.0288     -14060.248    
     97000   301.09875      950.74651      58783.989      0.98409436     2989.25        4723.6381     -1734.3881      1759.4014      2371.2765      1505.9083     -1132.7316      7787.7035     -14061.335    
     97500   303.61433      52.424208      59114.42       0.97859357     3112.0861      4763.1026     -1651.0164      1796.6696      2460.2795      1487.4385     -1116.8093      7750.9029     -14064.985    
     98000   305.31067     -784.13084      59038.48       0.97985231     3104.966       4789.7148     -1684.7488      1758.8281      2395.3122      1519.0564     -1166.8339      7836.0875     -14062.459    
     98500   304.43411      505.05608      58992.68       0.98061305     2916.7393      4775.9633     -1859.224       1664.0141      2382.2254      1478.3112     -1105.6459      7744.459      -14057.343    
     99000   296.88365     -879.21292      59595.391      0.97069573     2896.2335      4657.5117     -1761.2782      1686.2648      2420.6903      1486.8323     -1145.8044      7811.5505     -14057.207    
     99500   302.80681     -790.96328      58954.249      0.98125228     3019.4221      4750.4343     -1731.0122      1724.2214      2402.694       1516.6835     -1177.2979      7811.5484     -14047.428    
    100000   300.13494      1825.5767      58726.915      0.98505074     3013.1865      4708.5179     -1695.3314      1659.6235      2435.376       1516.3268     -1109.4103      7812.6613     -14047.384    
    100500   290.47338     -591.20551      58951.639      0.98129572     2917.4549      4556.9473     -1639.4924      1813.75        2388.525       1484.6729     -1105.884       7794.0907     -14047.351    
    101000   295.93331      262.79345      59239.113      0.97653372     2890.4912      4642.6027     -1752.1114      1717.1418      2405.8468      1476.616      -1125.406       7796.9533     -14058.512    
    101500   301.76278      417.927        59054.164      0.97959209     2915.2828      4734.0555     -1818.7727      1692.1366      2410.5097      1449.5339     -1099.3203      7764.055      -14068.871    
    102000   303.09237      706.58357      58880.237      0.98248571     2958.5434      4754.914      -1796.3706      1733.6739      2343.1585      1491.9065     -1093.6541      7763.1031     -14069.264    
    102500   302.20253      819.27918      59068.325      0.97935723     3067.5287      4740.9542     -1673.4255      1783.6744      2389.3005      1504.0161     -1107.3662      7785.3281     -14064.939    
    103000   307.0272      -415.23418      58726.96       0.98504999     3134.4666      4816.6437     -1682.177       1782.8271      2387.1752      1518.2911     -1159.5318      7808.3855     -14055.151    
    103500   295.24801     -294.59614      58817.141      0.98353967     2940.9985      4631.8517     -1690.8532      1711.0462      2447.7394      1490.2192     -1115.0763      7796.8691     -14058.73     
    104000   298.69034     -1187.2781      59309.438      0.97537582     2924.2901      4685.855      -1761.5649      1708.1896      2374.9896      1497.3367     -1154.1356      7836.7387     -14059.773    
    104500   296.56065     -340.3693       59273.892      0.97596073     3005.4643      4652.4445     -1646.9802      1739.6012      2441.8453      1505.794      -1152.601       7833.5857     -14052.075    
    105000   295.86887     -712.0981       58941.198      0.98146955     2857.9906      4641.5919     -1783.6013      1739.6044      2370.7943      1482.4146     -1137.5533      7787.7415     -14062.742    
    105049   302.42262     -659.09388      58860.603      0.98281343     2913.3003      4744.407      -1831.1067      1723.2926      2390.3372      1496.2439     -1140.9001      7727.3458     -14064.647    
Loop time of 16120.7 on 1 procs for 50000 steps with 5304 atoms

Performance: 0.268 ns/day, 89.560 hours/ns, 3.102 timesteps/s, 16.451 katom-step/s
99.6% CPU use with 1 MPI tasks x 1 OpenMP threads

MPI task timing breakdown:
Section |  min time  |  avg time  |  max time  |%varavg| %total
---------------------------------------------------------------
Pair    | 766.42     | 766.42     | 766.42     |   0.0 |  4.75
Bond    | 42.112     | 42.112     | 42.112     |   0.0 |  0.26
Kspace  | 69.371     | 69.371     | 69.371     |   0.0 |  0.43
Neigh   | 102.71     | 102.71     | 102.71     |   0.0 |  0.64
Comm    | 2.759      | 2.759      | 2.759      |   0.0 |  0.02
Output  | 0.30902    | 0.30902    | 0.30902    |   0.0 |  0.00
Modify  | 15137      | 15137      | 15137      |   0.0 | 93.89
Other   |            | 0.5251     |            |       |  0.00

Nlocal:           5304 ave        5304 max        5304 min
Histogram: 1 0 0 0 0 0 0 0 0 0
Nghost:          17741 ave       17741 max       17741 min
Histogram: 1 0 0 0 0 0 0 0 0 0
Neighs:      1.788e+06 ave   1.788e+06 max   1.788e+06 min
Histogram: 1 0 0 0 0 0 0 0 0 0

Total # of neighbors = 1788004
Ave neighs/atom = 337.10483
Ave special neighs/atom = 10.92911
Neighbor list builds = 202516
Dangerous builds = 0
unfix           w
unfix           muavg

# Written WITH coefficients: each stage reads the previous stage's data file, so
# the file has to be self-contained. `nocoeff` would force every downstream stage
# to re-derive the force field, and any drift between the two paths would be
# silent.
write_data      relaxed.data
System init for write_data ...
PPPM initialization ...
  using 12-bit tables for long-range coulomb
  G vector (1/distance) = 0.23793461
  grid = 15 15 15
  stencil order = 5
  estimated absolute RMS force accuracy = 0.018740133
  estimated relative force accuracy = 5.6435353e-05
  using double precision FFTW3
  3d grid and FFT values/proc = 8000 3375
Generated 36 of 36 mixed pair_coeff terms from arithmetic mixing rule
write_restart   relaxed.restart
System init for write_restart ...
PPPM initialization ...
  using 12-bit tables for long-range coulomb
  G vector (1/distance) = 0.23793461
  grid = 15 15 15
  stencil order = 5
  estimated absolute RMS force accuracy = 0.018740133
  estimated relative force accuracy = 5.6435353e-05
  using double precision FFTW3
  3d grid and FFT values/proc = 8000 3375
Generated 36 of 36 mixed pair_coeff terms from arithmetic mixing rule
Total wall time: 4:46:34
