LAMMPS (22 Jul 2025 - Update 5)
OMP_NUM_THREADS environment is not set. Defaulting to 1 thread.
  using 1 OpenMP thread(s) per MPI task
# BTMA-PS: 8 chains x 20 units
# generated by aemwater -- do not edit; edit the template instead

units           real
atom_style      full
boundary        p p p

pair_style      lj/cut/coul/long 10.0 10.0
# GAFF2 is a Lorentz-Berthelot force field. The LAMMPS default for lj/cut is
# GEOMETRIC mixing, which silently changes every cross interaction.
pair_modify     mix arithmetic tail yes
kspace_style    pppm 0.0001
bond_style      harmonic
angle_style     harmonic
dihedral_style  charmm
improper_style  cvff
# Amber 1-4 scaling: LJ/2 and Coulomb/1.2. Applied here, so every CHARMM
# dihedral weight in the data file is 0.
special_bonds   lj 0.0 0.0 0.5 coul 0.0 0.0 0.8333333333

read_data       min.data
Reading data file ...
  orthogonal box = (0 0 0) to (65.675322 65.675322 65.675322)
  1 by 1 by 1 MPI processor grid
  reading atoms ...
  5184 atoms
  reading velocities ...
  5184 velocities
  scanning bonds ...
  4 = max bonds/atom
  scanning angles ...
  6 = max angles/atom
  scanning dihedrals ...
  33 = max dihedrals/atom
  scanning impropers ...
  2 = max impropers/atom
  orthogonal box = (0 0 0) to (65.675322 65.675322 65.675322)
  1 by 1 by 1 MPI processor grid
  reading bonds ...
  5176 bonds
  reading angles ...
  9696 angles
  reading dihedrals ...
  15264 dihedrals
  reading impropers ...
  960 impropers
Finding 1-2 1-3 1-4 neighbors ...
  special bond factors lj:    0        0        0.5     
  special bond factors coul:  0        0        0.8333333333
     4 = max # of 1-2 neighbors
    12 = max # of 1-3 neighbors
    18 = max # of 1-4 neighbors
    22 = max # of special neighbors
  special bonds CPU = 0.002 seconds
  read_data CPU = 0.091 seconds
neighbor        2.0 bin
neigh_modify    delay 0 every 1 check yes
# The ghost-atom cutoff defaults to the pair cutoff + skin. Bonded partners must
# also be within it, and a stretched bond in a freshly packed cell can exceed it,
# which LAMMPS reports as a communication-cutoff warning before losing atoms.
comm_modify     cutoff 12.0

# Molecule IDs are assigned by the data writer in packing order: polymer chains
# first, then counterions, then any water added later. `<>` is LAMMPS's inclusive
# range operator.
group           polymer molecule <> 1 8
5024 atoms in group polymer
group           ions molecule <> 9 168
160 atoms in group ions

thermo          500
thermo_style    custom step temp press vol density etotal ke pe ebond eangle edihed evdwl ecoul elong
thermo_modify   flush yes


timestep        1.0
velocity        all create 300.0 20260817 mom yes rot yes dist gaussian

# ---------------------------------------------------------------- stage 3 ----
# NVT at the packing volume: let the melt lose the memory of the packing
# algorithm before the barostat starts changing the box.
fix             nvt_relax all nvt temp 300.0 300.0 100.0
run             5000
PPPM initialization ...
  using 12-bit tables for long-range coulomb
  G vector (1/distance) = 0.20590234
  grid = 18 18 18
  stencil order = 5
  estimated absolute RMS force accuracy = 0.030993696
  estimated relative force accuracy = 9.3336595e-05
  using double precision FFTW3
  3d grid and FFT values/proc = 12167 5832
Generated 21 of 21 mixed pair_coeff terms from arithmetic mixing rule
Neighbor list info ...
  update: every = 1 steps, delay = 0 steps, check = yes
  max neighbors/atom: 2000, page size: 100000
  master list distance cutoff = 12
  ghost atom cutoff = 12
  binsize = 6, bins = 11 11 11
  1 neighbor lists, perpetual/occasional/extra = 1 0 0
  (1) pair lj/cut/coul/long, perpetual
      attributes: half, newton on
      pair build: half/bin/newton
      stencil: half/bin/3d
      bin: standard
Per MPI rank memory allocation (min/avg/max) = 25.08 | 25.08 | 25.08 Mbytes
   Step          Temp          Press          Volume        Density         TotEng         KinEng         PotEng         E_bond        E_angle        E_dihed         E_vdwl         E_coul         E_long    
         0   300            617.58797      283273.95      0.1999915      1506.3928      4634.8615     -3128.4688      141.39135      340.21326      894.24067     -278.33468      6059.8941     -10290.725    
       500   225.78044     -361.0708       283273.95      0.1999915      4505.9364      3488.2037      1017.7327      1661.472       2015.2022      1380.034      -135.01066      6338.6815     -10274.689    
      1000   305.86359     -429.40418      283273.95      0.1999915      6357.6321      4725.4512      1632.1809      1794.6799      2308.7077      1462.6173     -92.681806      6378.5466     -10257.481    
      1500   305.64152     -217.48346      283273.95      0.1999915      6315.3909      4722.0204      1593.3706      1759.3953      2332.1263      1466.6911     -101.07934      6362.8336     -10264.29     
      2000   302.83934     -159.98633      283273.95      0.1999915      6058.8161      4678.7281      1380.088       1697.8903      2257.3103      1468.1693     -130.34066      6326.7955     -10275.984    
      2500   292.44127      52.758648      283273.95      0.1999915      5879.5087      4518.0826      1361.426       1721.8792      2229.0892      1478.5335     -135.97939      6324.2529     -10291.313    
      3000   296.56166     -64.637038      283273.95      0.1999915      5790.3546      4581.7408      1208.6137      1685.8198      2160.6891      1488.1299     -99.823217      6222.0132     -10282.723    
      3500   301.14041     -30.834713      283273.95      0.1999915      5914.5733      4652.4804      1262.093       1718.7776      2246.2042      1478.6196     -181.55373      6262.2597     -10297.955    
      4000   302.70855     -486.25922      283273.95      0.1999915      5885.372       4676.7074      1208.6646      1794.0928      2253.3146      1438.4888     -180.64186      6182.3245     -10312.118    
      4500   304.75572     -83.251573      283273.95      0.1999915      5926.1466      4708.3352      1217.8114      1699.7821      2310.1436      1494.0911     -166.77865      6185.6416     -10340.217    
      5000   301.07487      1.7059116      283273.95      0.1999915      5755.7277      4651.4679      1104.2598      1647.8391      2295.7563      1450.6698     -160.116        6184.8022     -10347.949    
Loop time of 45.5558 on 1 procs for 5000 steps with 5184 atoms

Performance: 9.483 ns/day, 2.531 hours/ns, 109.756 timesteps/s, 568.973 katom-step/s
97.2% CPU use with 1 MPI tasks x 1 OpenMP threads

MPI task timing breakdown:
Section |  min time  |  avg time  |  max time  |%varavg| %total
---------------------------------------------------------------
Pair    | 31.014     | 31.014     | 31.014     |   0.0 | 68.08
Bond    | 3.873      | 3.873      | 3.873      |   0.0 |  8.50
Kspace  | 7.9556     | 7.9556     | 7.9556     |   0.0 | 17.46
Neigh   | 2.2003     | 2.2003     | 2.2003     |   0.0 |  4.83
Comm    | 0.19556    | 0.19556    | 0.19556    |   0.0 |  0.43
Output  | 0.0015828  | 0.0015828  | 0.0015828  |   0.0 |  0.00
Modify  | 0.26345    | 0.26345    | 0.26345    |   0.0 |  0.58
Other   |            | 0.05277    |            |       |  0.12

Nlocal:           5184 ave        5184 max        5184 min
Histogram: 1 0 0 0 0 0 0 0 0 0
Nghost:          11044 ave       11044 max       11044 min
Histogram: 1 0 0 0 0 0 0 0 0 0
Neighs:         742799 ave      742799 max      742799 min
Histogram: 1 0 0 0 0 0 0 0 0 0

Total # of neighbors = 742799
Ave neighs/atom = 143.28684
Ave special neighs/atom = 11.135802
Neighbor list builds = 163
Dangerous builds = 0
unfix           nvt_relax

# ---------------------------------------------------------------- stage 4 ----
# High-temperature anneal. The packed conformations are not melt conformations;
# heating above Tg lets chains interpenetrate, which is what sets the void
# structure that water will later occupy.
fix             nvt_anneal all nvt temp 300.0 600.0 100.0
run             10000
PPPM initialization ...
  using 12-bit tables for long-range coulomb
  G vector (1/distance) = 0.20590234
  grid = 18 18 18
  stencil order = 5
  estimated absolute RMS force accuracy = 0.030993696
  estimated relative force accuracy = 9.3336595e-05
  using double precision FFTW3
  3d grid and FFT values/proc = 12167 5832
Generated 21 of 21 mixed pair_coeff terms from arithmetic mixing rule
Per MPI rank memory allocation (min/avg/max) = 25.47 | 25.47 | 25.47 Mbytes
   Step          Temp          Press          Volume        Density         TotEng         KinEng         PotEng         E_bond        E_angle        E_dihed         E_vdwl         E_coul         E_long    
      5000   301.07487      1.7059116      283273.95      0.1999915      5755.7277      4651.4679      1104.2598      1647.8391      2295.7563      1450.6698     -160.116        6184.8022     -10347.949    
      5500   313.23988      94.167602      283273.95      0.1999915      6148.1744      4839.4115      1308.7629      1738.8253      2371.9212      1471.6395     -163.10124      6203.2427     -10348.633    
      6000   326.10994      15.650074      283273.95      0.1999915      6542.7454      5038.248       1504.4974      1826.0287      2442.6025      1504.6247     -162.4761       6211.061      -10353.252    
      6500   339.99191     -29.21723       283273.95      0.1999915      6959.3349      5252.7181      1706.6168      1912.0787      2522.8314      1543.2214     -209.30276      6249.0709     -10349.106    
      7000   354.00404     -374.23968      283273.95      0.1999915      7448.8154      5469.1991      1979.6163      2093.2387      2601.1175      1582.8724     -245.56574      6263.4269     -10357.203    
      7500   371.89157     -312.10384      283273.95      0.1999915      7917.1294      5745.5531      2171.5762      2095.3723      2783.9499      1628.5401     -237.34779      6221.1535     -10361.387    
      8000   383.15744     -436.92799      283273.95      0.1999915      8359.9132      5919.6057      2440.3076      2154.5081      2898.8023      1667.4197     -208.7528       6235.6537     -10350.961    
      8500   404.48086     -120.86406      283273.95      0.1999915      8855.2995      6249.0426      2606.2569      2248.6733      2916.3571      1662.2878     -168.93657      6235.3431     -10330.342    
      9000   417.25903     -239.36669      283273.95      0.1999915      9284.4411      6446.4594      2837.9817      2339.3548      3060.884       1719.0902     -208.01459      6227.2177     -10345.471    
      9500   436.54226     -522.16083      283273.95      0.1999915      9824.0212      6744.3764      3079.6447      2433.815       3145.542       1737.6055     -177.31384      6220.5006     -10328.896    
     10000   454.96751      65.200165      283273.95      0.1999915      10302.079      7029.0381      3273.0409      2468.7525      3212.4285      1783.577      -128.89474      6217.9305     -10332.063    
     10500   462.97091     -108.61774      283273.95      0.1999915      10760.514      7152.6869      3607.8269      2530.6221      3360.7916      1833.4188     -77.144411      6239.5208     -10332.406    
     11000   483.90253     -194.66951      283273.95      0.1999915      11202.369      7476.0708      3726.2979      2592.8135      3387.4399      1851.4816     -63.186107      6257.8961     -10351.574    
     11500   500.08975     -246.09451      283273.95      0.1999915      11771.366      7726.1558      4045.2102      2696.361       3556.9269      1918.4681     -118.27039      6277.298      -10341.731    
     12000   510.31721     -263.84323      283273.95      0.1999915      12133.502      7884.1654      4249.337       2837.2382      3677.1255      1845.5176     -29.518196      6201.939      -10335.75     
     12500   520.41766     -411.91366      283273.95      0.1999915      12507.722      8040.2127      4467.5091      2900.8502      3756.0974      1912.902      -71.575501      6249.3177     -10333.388    
     13000   534.95704     -642.85472      283273.95      0.1999915      13075.017      8264.8394      4810.1779      3082.8543      3921.8828      1921.8921     -92.982585      6264.4732     -10343.436    
     13500   550.57422     -239.9606       283273.95      0.1999915      13358.198      8506.1176      4852.0808      3069.8321      3867.3646      1975.2621     -66.255552      6293.4846     -10349.681    
     14000   575.38063     -75.325312      283273.95      0.1999915      14058.823      8889.3651      5169.458       3138.7684      4063.368       2040.6656     -59.072518      6278.8037     -10358.315    
     14500   591.05903     -582.0018       283273.95      0.1999915      14620.983      9131.5892      5489.3934      3372.2789      4170.7931      2003.4214     -88.590204      6321.0069     -10355.936    
     15000   596.82113     -339.8858       283273.95      0.1999915      14969.393      9220.6109      5748.7825      3394.6202      4326.1664      1994.3265     -42.374933      6359.7266     -10346.679    
Loop time of 104.726 on 1 procs for 10000 steps with 5184 atoms

Performance: 8.250 ns/day, 2.909 hours/ns, 95.488 timesteps/s, 495.007 katom-step/s
98.5% CPU use with 1 MPI tasks x 1 OpenMP threads

MPI task timing breakdown:
Section |  min time  |  avg time  |  max time  |%varavg| %total
---------------------------------------------------------------
Pair    | 72.613     | 72.613     | 72.613     |   0.0 | 69.34
Bond    | 7.7447     | 7.7447     | 7.7447     |   0.0 |  7.40
Kspace  | 15.891     | 15.891     | 15.891     |   0.0 | 15.17
Neigh   | 7.4062     | 7.4062     | 7.4062     |   0.0 |  7.07
Comm    | 0.43288    | 0.43288    | 0.43288    |   0.0 |  0.41
Output  | 0.0035471  | 0.0035471  | 0.0035471  |   0.0 |  0.00
Modify  | 0.5223     | 0.5223     | 0.5223     |   0.0 |  0.50
Other   |            | 0.1125     |            |       |  0.11

Nlocal:           5184 ave        5184 max        5184 min
Histogram: 1 0 0 0 0 0 0 0 0 0
Nghost:          11479 ave       11479 max       11479 min
Histogram: 1 0 0 0 0 0 0 0 0 0
Neighs:         839576 ave      839576 max      839576 min
Histogram: 1 0 0 0 0 0 0 0 0 0

Total # of neighbors = 839576
Ave neighs/atom = 161.95525
Ave special neighs/atom = 11.135802
Neighbor list builds = 466
Dangerous builds = 0
unfix           nvt_anneal
fix             nvt_hold all nvt temp 600.0 600.0 100.0
run             50000
PPPM initialization ...
  using 12-bit tables for long-range coulomb
  G vector (1/distance) = 0.20590234
  grid = 18 18 18
  stencil order = 5
  estimated absolute RMS force accuracy = 0.030993696
  estimated relative force accuracy = 9.3336595e-05
  using double precision FFTW3
  3d grid and FFT values/proc = 12167 5832
Generated 21 of 21 mixed pair_coeff terms from arithmetic mixing rule
Per MPI rank memory allocation (min/avg/max) = 45.67 | 45.67 | 45.67 Mbytes
   Step          Temp          Press          Volume        Density         TotEng         KinEng         PotEng         E_bond        E_angle        E_dihed         E_vdwl         E_coul         E_long    
     15000   596.82113     -339.8858       283273.95      0.1999915      14969.393      9220.6109      5748.7825      3394.6202      4326.1664      1994.3265     -42.374933      6359.7266     -10346.679    
     15500   601.35089      185.65155      283273.95      0.1999915      14871.245      9290.5937      5580.6512      3313.4206      4290.1396      2014.2147      9.2515685      6246.1189     -10355.534    
     16000   603.34933     -611.44514      283273.95      0.1999915      15091.498      9321.4687      5770.029       3473.7271      4251.9591      2095.951      -59.112501      6285.6671     -10351.066    
     16500   602.39295     -369.76052      283273.95      0.1999915      14869.293      9306.693       5562.6004      3373.8832      4288.7907      1993.3597     -88.192356      6291.2745     -10359.904    
     17000   598.53981      271.95215      283273.95      0.1999915      14758.475      9247.1638      5511.3117      3263.8851      4269.2207      2004.0937     -52.194449      6317.4003     -10351.558    
     17500   607.63631     -274.91701      283273.95      0.1999915      14952.421      9387.7005      5564.72        3327.5414      4272.9691      2023.1565     -83.980283      6308.1088     -10347.416    
     18000   607.41659     -91.562945      283273.95      0.1999915      14844.149      9384.306       5459.843       3351.1161      4237.8207      2032.9477     -114.27169      6248.4797     -10361.549    
     18500   612.2204      -232.60826      283273.95      0.1999915      15281.592      9458.5226      5823.0691      3488.4275      4275.8435      2098.611      -81.283261      6331.7384     -10358.802    
     19000   599.50688     -329.01674      283273.95      0.1999915      14869.715      9262.1046      5607.6099      3379.2288      4281.4512      1998.9459     -95.427426      6337.3758     -10352.447    
     19500   598.17575     -534.98783      283273.95      0.1999915      14804.435      9241.5393      5562.8962      3369.2522      4245.2644      2055.8572     -138.15688      6308.7309     -10344.604    
     20000   596.26378     -60.745904      283273.95      0.1999915      14877.167      9212.0002      5665.1666      3384.5822      4364.8664      2041.8161     -23.425933      6195.978      -10365.821    
     20500   610.37982      16.643009      283273.95      0.1999915      14878.94       9430.0865      5448.8534      3286.7951      4235.5581      2090.7372     -111.32244      6259.5343     -10380.448    
     21000   599.38932     -93.38197       283273.95      0.1999915      14814.55       9260.2884      5554.2613      3454.529       4293.3412      1950.9913     -63.536323      6218.256      -10360.308    
     21500   594.7609      -145.18173      283273.95      0.1999915      14805.056      9188.7815      5616.2746      3334.086       4326.092       2084.945      -87.281604      6257.6547     -10369.099    
     22000   596.00418     -281.51198      283273.95      0.1999915      14964.161      9207.9895      5756.1712      3417.0268      4397.1293      2073.8241     -37.039319      6199.1253     -10363.71     
     22500   606.46274     -405.87791      283273.95      0.1999915      15071.275      9369.5695      5701.7056      3368.5006      4391.2157      2090.5922     -140.65599      6277.3462     -10351.053    
     23000   606.48839     -102.59203      283273.95      0.1999915      14970.514      9369.9657      5600.548       3378.7384      4301.9396      2093.7097     -112.94777      6256.4928     -10383.285    
     23500   598.43932     -171.75756      283273.95      0.1999915      14820.809      9245.6114      5575.1978      3390.0266      4309.7307      2033.5997     -129.38119      6274.673      -10369.443    
     24000   600.05373     -17.423377      283273.95      0.1999915      14745.968      9270.5533      5475.4152      3342.584       4315.1844      1997.2768     -40.43517       6169.0316     -10375.035    
     24500   595.19132     -20.963568      283273.95      0.1999915      14593.456      9195.4313      5398.0245      3371.9038      4244.9656      1970.3758     -72.607082      6193.6895     -10374.082    
     25000   585.00779     -325.83019      283273.95      0.1999915      14461.55       9038.1003      5423.4493      3508.5248      4167.4093      2052.3329     -89.625731      6112.5513     -10395.434    
     25500   602.90117     -169.04768      283273.95      0.1999915      14628.418      9314.5448      5313.8734      3350.5004      4202.5213      2021.2416     -177.16152      6234.9891     -10382.445    
     26000   599.58419     -25.018978      283273.95      0.1999915      14816.552      9263.2991      5553.2524      3360.3357      4336.2779      2050.7573     -67.458968      6196.624      -10392.9      
     26500   589.86227     -60.729203      283273.95      0.1999915      14600.972      9113.0998      5487.8722      3426.6785      4240.7112      2060.9108     -149.84922      6233.1612     -10389.048    
     27000   593.08088     -53.449064      283273.95      0.1999915      14639.941      9162.8259      5477.1153      3305.3465      4432.9105      2008.3768     -138.66604      6186.7996     -10383.521    
     27500   599.05916     -167.77279      283273.95      0.1999915      14702.826      9255.1876      5447.6384      3394.9043      4304.3483      2052.4678     -91.743002      6119.1809     -10399.593    
     28000   593.94484     -175.58349      283273.95      0.1999915      14682.607      9176.1736      5506.433       3428.6082      4305.6522      2069.4575     -155.42043      6184.9903     -10393.042    
     28500   605.96062     -34.381618      283273.95      0.1999915      14702.589      9361.812       5340.7766      3252.4563      4345.6542      2028.1327     -147.70386      6188.6979     -10392.731    
     29000   607.25094      76.296638      283273.95      0.1999915      14898.499      9381.7468      5516.7526      3362.0601      4329.7966      2043.406      -62.343346      6167.9794     -10390.578    
     29500   600.05241     -254.38252      283273.95      0.1999915      14827.049      9270.5328      5556.5159      3426.1073      4319.7567      2088.937      -129.8409       6178.2899     -10391.506    
     30000   595.222       -239.07334      283273.95      0.1999915      14634.823      9195.9053      5438.9172      3277.6049      4375.1401      2081.1002     -195.9349       6231.0822     -10399.331    
     30500   607.52013      26.97837       283273.95      0.1999915      14567.661      9385.9057      5181.7549      3279.6115      4241.6653      2032.4203     -164.20847      6116.585      -10388.696    
     31000   599.38953      234.46292      283273.95      0.1999915      14724.075      9260.2916      5463.7837      3405.4708      4260.4997      2087.1118     -76.906801      6117.9304     -10398.921    
     31500   595.33661     -548.64857      283273.95      0.1999915      14797.192      9197.6758      5599.5157      3439.2647      4433.9304      2091.4988     -175.46305      6135.5446     -10393.668    
     32000   602.50818     -164.96768      283273.95      0.1999915      14439.006      9308.4734      5130.5328      3247.4201      4330.8044      1946.3083     -189.5809       6132.3876     -10395.351    
     32500   595.8181      -230.06655      283273.95      0.1999915      14532.726      9205.1147      5327.6112      3396.8784      4216.2389      2065.2756     -192.81232      6168.3328     -10392.818    
     33000   605.29774     -109.32042      283273.95      0.1999915      14632.638      9351.5707      5281.0677      3346.7743      4257.3802      2056.8976     -214.14145      6144.6129     -10376.732    
     33500   607.76658      23.610003      283273.95      0.1999915      14681.187      9389.7131      5291.4737      3300.859       4264.1004      2077.2667     -161.50886      6138.9184     -10396.396    
     34000   608.2826       4.6642454      283273.95      0.1999915      14847.574      9397.6854      5449.8888      3392.3874      4353.1281      2124.3338     -181.87955      6090.0055     -10397.79     
     34500   606.72283     -291.05608      283273.95      0.1999915      15012.403      9373.5878      5638.8155      3358.7749      4425.4178      2099.968      -135.38524      6225.4786     -10407.57     
     35000   595.07744     -61.612688      283273.95      0.1999915      14546.2        9193.6718      5352.5277      3334.8978      4305.1459      2113.6817     -130.62949      6046.6769     -10391.884    
     35500   591.00529      135.2245       283273.95      0.1999915      14462.111      9130.7589      5331.3523      3314.2119      4296.4664      2073.6152     -166.95105      6147.9292     -10401.933    
     36000   605.61697      64.676438      283273.95      0.1999915      14955.26       9356.5027      5598.7575      3427.4425      4356.5192      2119.7437     -163.80916      6183.2721     -10395.842    
     36500   609.96558     -91.314967      283273.95      0.1999915      14911.516      9423.6867      5487.8293      3396.493       4329.0383      2120.2929     -156.73818      6133.8166     -10408.363    
     37000   601.90758      16.373473      283273.95      0.1999915      14619.506      9299.1943      5320.312       3313.4383      4323.8279      1991.5374     -173.48214      6202.2932     -10403.653    
     37500   605.89823     -98.892337      283273.95      0.1999915      14726.88       9360.8481      5366.0318      3337.4994      4346.0532      2040.1377     -128.36952      6110.9135     -10412.148    
     38000   601.45365     -255.32029      283273.95      0.1999915      14652.603      9292.1812      5360.4216      3515.0047      4160.1397      2013.9828     -146.82988      6151.3242     -10399.005    
     38500   605.62789      59.124129      283273.95      0.1999915      14648.481      9356.6715      5291.8097      3358.594       4284.6458      2057.5015     -171.14454      6103.078      -10407.371    
     39000   597.26755     -219.17435      283273.95      0.1999915      14622.111      9227.508       5394.6026      3491.489       4184.0598      2064.9059     -163.71491      6164.4341     -10411.473    
     39500   594.56098     -115.91118      283273.95      0.1999915      14453.579      9185.6927      5267.8862      3331.9428      4218.7854      2024.1288     -88.917004      6117.1468     -10398.469    
     40000   617.04698     -61.614462      283273.95      0.1999915      14784.881      9533.0911      5251.7901      3336.6485      4164.9697      2083.5479     -90.976001      6072.9248     -10382.905    
     40500   589.14484      82.118626      283273.95      0.1999915      14221.917      9102.0158      5119.9012      3277.2296      4105.4986      2045.5257     -106.99376      6137.7866     -10404.388    
     41000   601.61425     -433.00717      283273.95      0.1999915      14456.758      9294.6626      5162.0959      3302.3224      4241.4178      1968.9556     -133.64312      6110.4294     -10387.792    
     41500   601.04324     -207.07162      283273.95      0.1999915      14442.055      9285.8407      5156.2146      3297.4554      4198.0678      1972.9559     -114.14085      6132.6753     -10393.526    
     42000   601.58419     -108.23675      283273.95      0.1999915      14664.678      9294.1981      5370.4796      3389.5131      4332.9724      2042.7501     -100.25323      6037.2925     -10399.799    
     42500   601.43681     -186.94369      283273.95      0.1999915      14667.27       9291.9212      5375.3484      3396.7174      4252.3035      2019.9183     -140.25687      6159.4034     -10376.638    
     43000   589.42472     -286.16502      283273.95      0.1999915      14516.496      9106.3399      5410.1564      3392.9161      4310.3413      2051.1296     -182.69023      6163.1582     -10390.938    
     43500   603.13939     -357.55954      283273.95      0.1999915      14631.547      9318.2252      5313.3217      3316.3889      4364.3943      2011.659      -164.83518      6105.0088     -10381.455    
     44000   596.41931     -317.36611      283273.95      0.1999915      14517.973      9214.4031      5303.5699      3342.5201      4379.4521      1945.3993     -156.0306       6114.9077     -10389.566    
     44500   604.46918     -244.12437      283273.95      0.1999915      14481.013      9338.7699      5142.2428      3312.4443      4316.7167      1977.5494     -171.93666      6057.4291     -10409.246    
     45000   605.77433     -74.443856      283273.95      0.1999915      14858.374      9358.9339      5499.4397      3482.8907      4291.9922      2043.072      -136.6662       6160.8505     -10407.598    
     45500   600.15896     -229.23014      283273.95      0.1999915      14717.859      9272.1789      5445.6796      3391.5569      4370.2542      2044.2986     -174.7277       6132.4731     -10385.664    
     46000   600.08423     -285.06084      283273.95      0.1999915      14471.383      9271.0244      5200.3588      3414.8139      4199.1077      2004.1587     -84.796814      6003.2876     -10397.527    
     46500   587.42701     -443.18138      283273.95      0.1999915      14375.171      9075.4762      5299.6948      3401.5149      4323.4188      2023.9371     -216.33949      6104.3593     -10402.975    
     47000   606.5905      -354.05589      283273.95      0.1999915      14747.041      9371.5432      5375.4974      3502.6323      4287.9918      2011.6031     -150.59994      6064.232      -10406.948    
     47500   609.16878     -169.81612      283273.95      0.1999915      14704.382      9411.3765      5293.0053      3345.7371      4293.1125      2040.8499     -186.76279      6122.1612     -10387.962    
     48000   597.38498     -89.482421      283273.95      0.1999915      14417.611      9229.3222      5188.2885      3300.204       4274.464       2058.3496     -145.46225      6055.7634     -10423.058    
     48500   597.74262      49.997365      283273.95      0.1999915      14450.675      9234.8477      5215.8274      3291.2295      4288.9762      1998.6201     -191.95409      6156.1444     -10386.848    
     49000   587.19419      138.33031      283273.95      0.1999915      14412.86       9071.8792      5340.9812      3387.6742      4305.1302      2015.9957     -172.60979      6145.3845     -10405.541    
     49500   599.53631     -108.47832      283273.95      0.1999915      14342.459      9262.5593      5079.8993      3290.3321      4281.6211      1949.918      -181.53143      6091.7421     -10415.587    
     50000   600.67253     -210.68237      283273.95      0.1999915      14483.99       9280.1133      5203.8771      3380.0033      4298.4498      2031.9419     -235.5067       6064.7952     -10401.2      
     50500   604.17268     -336.57083      283273.95      0.1999915      14635.452      9334.1891      5301.2632      3334.8649      4334.8037      2041.1624     -186.02419      6080.0447     -10369.642    
     51000   598.21733      289.83575      283273.95      0.1999915      14673.66       9242.1817      5431.4779      3436.3676      4298.1423      1981.7988     -89.937967      6136.7702     -10394.096    
     51500   596.45319     -84.876736      283273.95      0.1999915      14452.538      9214.9266      5237.6113      3391.4265      4301.7394      1968.7355     -183.12667      6086.5288     -10391.674    
     52000   599.49843     -48.011179      283273.95      0.1999915      14328.655      9261.974       5066.6812      3298.6954      4202.462       2027.7804     -145.26742      6030.3497     -10411.538    
     52500   597.6956      -871.495        283273.95      0.1999915      14403.21       9234.1212      5169.0884      3332.0841      4277.0635      2043.4148     -271.1397       6130.5437     -10407.779    
     53000   605.85065      179.86753      283273.95      0.1999915      14565.238      9360.1129      5205.1252      3400.7712      4223.8037      1961.6285     -156.64493      6122.3745     -10406.207    
     53500   601.14823      59.93781       283273.95      0.1999915      14547.004      9287.4627      5259.5412      3335.5585      4333.5028      2058.3804     -183.5928       6063.2409     -10417.672    
     54000   614.03353     -81.941158      283273.95      0.1999915      14790.773      9486.5346      5304.2385      3433.1575      4321.2298      1996.697      -169.22933      6043.0241     -10382.91     
     54500   599.96319     -109.78897      283273.95      0.1999915      14755.921      9269.1544      5486.7664      3407.7946      4397.6162      2091.202      -119.41097      6046.2805     -10406.092    
     55000   598.0626      -282.02713      283273.95      0.1999915      14505.06       9239.7912      5265.2685      3339.1271      4272.7286      2095.1858     -179.70812      6069.2821     -10398.633    
     55500   601.40524      216.00735      283273.95      0.1999915      14509.823      9291.4334      5218.3892      3286.245       4372.4868      2015.9949     -151.26473      6032.4278     -10400.619    
     56000   606.17436     -107.81818      283273.95      0.1999915      14689.536      9365.1141      5324.4218      3394.1512      4303.8085      2028.0302     -156.54446      6100.425      -10413.088    
     56500   600.91506      162.58807      283273.95      0.1999915      14715.557      9283.8603      5431.6968      3323.2794      4360.2265      2116.9084     -116.85111      6069.9918     -10395.268    
     57000   600.69233     -196.34846      283273.95      0.1999915      14511.144      9280.4193      5230.7243      3334.125       4364.2546      1999.799      -133.8798       6015.0152     -10413.18     
     57500   598.65879     -501.54368      283273.95      0.1999915      14556.278      9249.0021      5307.2762      3376.3165      4286.6174      2083.6754     -178.12998      6087.9739     -10416.605    
     58000   600.11869      21.502711      283273.95      0.1999915      14523.163      9271.5567      5251.6061      3324.9879      4305.4723      2033.3372     -227.50636      6127.3185     -10380.045    
     58500   587.29622     -32.645259      283273.95      0.1999915      14152.545      9073.4555      5079.0892      3292.255       4189.9136      2042.2669     -146.06743      6038.0909     -10404.289    
     59000   598.0124      -256.25582      283273.95      0.1999915      14433.168      9239.0156      5194.1523      3352.7964      4326.5502      2034.1206     -193.14858      6039.8091     -10429.395    
     59500   580.99782      118.55104      283273.95      0.1999915      14325.415      8976.1482      5349.2668      3404.7772      4338.6276      2026.9557     -224.70986      6159.2258     -10419.106    
     60000   592.09869     -323.85574      283273.95      0.1999915      14419.15       9147.6516      5271.4988      3409.0155      4360.8533      2046.1213     -186.06145      5992.0509     -10419.568    
     60500   592.84976     -272.74346      283273.95      0.1999915      14655.93       9159.2552      5496.6753      3419.7574      4508.7551      2012.3639     -218.32932      6116.3653     -10408.362    
     61000   606.09512     -414.49074      283273.95      0.1999915      14825.597      9363.8899      5461.7075      3465.4076      4361.1285      2082.4366     -225.69776      6124.6794     -10412.132    
     61500   602.06073      117.51444      283273.95      0.1999915      14387.519      9301.5604      5085.9589      3302.992       4204.0817      2015.7497     -213.24635      6121.3493     -10409.206    
     62000   604.46732     -267.90837      283273.95      0.1999915      14583.474      9338.7411      5244.7324      3347.114       4387.5671      2023.5245     -171.65931      5998.6391     -10406.034    
     62500   601.1833      -151.94568      283273.95      0.1999915      14538.162      9288.0045      5250.158       3404.8258      4311.1603      2067.2402     -246.09558      6070.0736     -10424.102    
     63000   614.15997     -101.06282      283273.95      0.1999915      14584.097      9488.4881      5095.6085      3243.029       4269.5347      2037.7791     -184.80768      6085.8361     -10419.723    
     63500   606.86943     -226.72862      283273.95      0.1999915      14519.303      9375.8526      5143.4508      3282.4869      4331.2341      2043.5932     -302.87308      6143.3342     -10421.946    
     64000   592.99567     -113.33327      283273.95      0.1999915      14296.126      9161.5094      5134.6162      3340.0305      4272.0286      2026.0773     -208.17932      6044.4456     -10409.362    
     64500   586.39723     -72.423573      283273.95      0.1999915      14205.376      9059.5666      5145.8091      3312.9476      4335.4162      2039.1384     -211.2037       6023.323      -10422.561    
     65000   609.33311      294.72124      283273.95      0.1999915      14569.406      9413.9153      5155.491       3326.9082      4269.8467      2046.6742     -136.95815      6009.0055     -10427.636    
Loop time of 603.009 on 1 procs for 50000 steps with 5184 atoms

Performance: 7.164 ns/day, 3.350 hours/ns, 82.918 timesteps/s, 429.845 katom-step/s
97.8% CPU use with 1 MPI tasks x 1 OpenMP threads

MPI task timing breakdown:
Section |  min time  |  avg time  |  max time  |%varavg| %total
---------------------------------------------------------------
Pair    | 424.82     | 424.82     | 424.82     |   0.0 | 70.45
Bond    | 39.032     | 39.032     | 39.032     |   0.0 |  6.47
Kspace  | 79.648     | 79.648     | 79.648     |   0.0 | 13.21
Neigh   | 53.987     | 53.987     | 53.987     |   0.0 |  8.95
Comm    | 2.2099     | 2.2099     | 2.2099     |   0.0 |  0.37
Output  | 0.013335   | 0.013335   | 0.013335   |   0.0 |  0.00
Modify  | 2.6617     | 2.6617     | 2.6617     |   0.0 |  0.44
Other   |            | 0.637      |            |       |  0.11

Nlocal:           5184 ave        5184 max        5184 min
Histogram: 1 0 0 0 0 0 0 0 0 0
Nghost:          11360 ave       11360 max       11360 min
Histogram: 1 0 0 0 0 0 0 0 0 0
Neighs:         999144 ave      999144 max      999144 min
Histogram: 1 0 0 0 0 0 0 0 0 0

Total # of neighbors = 999144
Ave neighs/atom = 192.73611
Ave special neighs/atom = 11.135802
Neighbor list builds = 2896
Dangerous builds = 0
unfix           nvt_hold

# ---------------------------------------------------------------- stage 5 ----
# NPT compression to the operating state, at elevated pressure.
#
# This has to be done under load. Collapsing a 0.35 g/cm3 packing to melt
# density at 1 atm is barostat-limited: the driving force is the ambient
# pressure itself, and the cell creeps. Measured on the validation system, 30k
# steps of iso 1.0 reached 0.70 g/cm3 and stopped climbing -- 35% below a real
# dry AEM, which would have been reported as a converged dry membrane and
# inflated every uptake number downstream, since the water goes into the voids
# that should not be there.
#
# The fix is the standard melt-densification cycle: compress hot and hard, then
# release to the operating pressure and let the density relax back up to its
# equilibrium value from the dense side rather than creeping toward it from the
# dilute side.
fix             npt_squeeze all npt temp 600.0 600.0 100.0 iso 1000.0 1000.0 1000.0
run             20000
PPPM initialization ...
  using 12-bit tables for long-range coulomb
  G vector (1/distance) = 0.20590234
  grid = 18 18 18
  stencil order = 5
  estimated absolute RMS force accuracy = 0.030993696
  estimated relative force accuracy = 9.3336595e-05
  using double precision FFTW3
  3d grid and FFT values/proc = 12167 5832
Generated 21 of 21 mixed pair_coeff terms from arithmetic mixing rule
Per MPI rank memory allocation (min/avg/max) = 46.67 | 46.67 | 46.67 Mbytes
   Step          Temp          Press          Volume        Density         TotEng         KinEng         PotEng         E_bond        E_angle        E_dihed         E_vdwl         E_coul         E_long    
     65000   609.33311      294.72124      283273.95      0.1999915      14569.406      9413.9153      5155.491       3326.9082      4269.8467      2046.6742     -136.95815      6009.0055     -10427.636    
     65500   591.18719     -10.830144      258255.03      0.21936603     14360.589      9133.5692      5227.0195      3414.8046      4327.8897      2059.259      -158.95454      5941.768      -10421.556    
     66000   601.45234      151.3133       237321.01      0.23871624     14330.692      9292.1611      5038.5307      3288.1529      4269.6742      2039.9368     -193.51007      5996.8731     -10427.824    
     66500   609.29738      395.44001      220717         0.2566743      14541.94       9413.3633      5128.5765      3372.3811      4281.3631      2028.4463     -182.971        5991.6624     -10425.504    
     67000   595.06895      335.14075      206656.04      0.27413852     14368.761      9193.5406      5175.2205      3354.4881      4286.3157      2081.2689     -195.32272      6012.0377     -10427.641    
     67500   590.70192      400.75198      194068.29      0.29191981     14281.351      9126.0721      5155.2787      3305.3006      4332.5913      2006.4752     -183.25132      6061.2722     -10433.182    
     68000   615.17016      601.11414      183323.72      0.30902918     14601.709      9504.0951      5097.6141      3302.7742      4286.1004      2072.8572     -187.30529      5983.3225     -10428.535    
     68500   613.7539      -280.82696      173560.97      0.32641199     14677.409      9482.2146      5195.1941      3391.9727      4311.784       2068.2579     -277.30658      6052.5565     -10422.37     
     69000   597.85226     -247.94608      164729.28      0.34391202     14247.621      9236.5415      5011.079       3305.5581      4240.974       2055.5181     -282.00714      6048.5866     -10425.604    
     69500   598.93717      71.99535       156208.9       0.36267063     14415.253      9253.3029      5161.9503      3421.244       4199.0144      2065.6908     -200.50586      6027.0982     -10418.667    
     70000   599.41879     -237.72514      149181.95      0.37975359     14467.996      9260.7437      5207.2525      3390.0108      4337.7588      2034.5024     -230.43046      6028.399      -10421.567    
     70500   603.19638     -1123.2804      141530.5       0.40028391     14658.403      9319.1057      5339.2976      3321.3325      4478.3784      2141.1409     -249.99526      6011.9192     -10433.145    
     71000   602.75937     -176.56078      134097.93      0.42247022     14585.183      9312.3541      5272.829       3364.8616      4394.4176      2097.1419     -247.48741      6017.3666     -10425.685    
     71500   605.55599      531.09206      127421.25      0.44460699     14332.154      9355.5606      4976.593       3225.8697      4241.0826      2131.1277     -243.09591      5996.7608     -10441.322    
     72000   597.18159     -373.83886      122041.2       0.464207       14294.378      9226.1799      5068.1977      3289.6053      4341.9237      2077.0868     -359.78301      6091.1061     -10444.292    
     72500   599.06248      419.0965       116423.04      0.48660797     14155.191      9255.2388      4899.9518      3290.0899      4311.3254      1978.6798     -319.79119      6010.2072     -10432.566    
     73000   607.44997     -94.259766      111134.47      0.50976425     14354.625      9384.8217      4969.8031      3408.8777      4308.2233      2060.5523     -379.11067      5941.5801     -10435.936    
     73500   604.02477     -3.6967637      106852.88      0.53019047     14240.891      9331.9039      4908.9875      3327.3916      4317.4644      2056.684      -311.12645      5914.1304     -10463.786    
     74000   592.36018      503.6904       102257.53      0.55401669     14037.496      9151.6914      4885.8044      3235.1177      4392.2866      2045.3275     -365.17392      5971.7106     -10458.722    
     74500   589.43974      619.95102      98309.435      0.57626595     14015.976      9106.5719      4909.4046      3380.7141      4257.2103      2054.7557     -354.19892      5976.8398     -10470.77     
     75000   604.66335      1004.4999      94719.72       0.59810544     14226.971      9341.7696      4885.2015      3352.0631      4278.5189      2108.627      -358.86636      5922.8047     -10483.186    
     75500   599.15648     -145.87772      91387.549      0.61991356     14182.189      9256.6911      4925.4982      3362.877       4403.2394      2084.5707     -401.92562      5863.6074     -10452.197    
     76000   600.17126      740.35731      89005.465      0.63650452     14029.795      9272.369       4757.4262      3202.6687      4429.4951      2050.1658     -379.35958      5860.8504     -10471.279    
     76500   591.06033      260.39558      86427.062      0.65549354     13916.516      9131.6094      4784.9062      3336.7072      4270.3315      2149.0215     -314.05479      5776.355      -10497.99     
     77000   598.5478       1750.1113      85063.798      0.66599872     13919.014      9247.2873      4671.7271      3381.8136      4257.1438      2035.8345     -381.04812      5810.5498     -10495.179    
     77500   594.52014     -164.43776      83332.116      0.67983849     13950.783      9185.0618      4765.7211      3310.9887      4380.7428      2148.419      -440.11815      5785.2092     -10487.879    
     78000   606.69851      1020.8509      82026.773      0.69065719     13944.233      9373.212       4571.021       3230.729       4383.0452      2010.2001     -426.74748      5798.5831     -10487.648    
     78500   599.47755      2095.7318      80037.923      0.70781923     14063.167      9261.6514      4801.5152      3313.8928      4362.678       2058.2614     -339.24789      5816.1767     -10476.501    
     79000   600.74551     -1019.5327      78422.437      0.72240015     13830.964      9281.2409      4549.7229      3251.7398      4369.0986      2107.6671     -539.77587      5791.4852     -10499.307    
     79500   599.58891      207.2827       77122.275      0.7345787      14038.864      9263.3719      4775.492       3358.4814      4410.827       2055.5778     -422.3506       5793.5392     -10483.123    
     80000   599.76796      2190.6526      75427.388      0.75108501     13779.493      9266.1381      4513.3549      3357.4575      4322.8448      2028.0495     -462.34336      5710.0147     -10507.273    
     80500   602.7466       418.58937      74363.355      0.76183196     13998.416      9312.1568      4686.2589      3412.4567      4308.5527      2128.1921     -522.62564      5792.0916     -10499.049    
     81000   600.55705     -273.05095      73716.212      0.76851996     13918.271      9278.3293      4639.942       3377.9155      4345.0675      2079.5296     -510.48373      5780.1342     -10497.937    
     81500   597.54845      7.1440552      72546.953      0.7809064      13756.422      9231.8478      4524.574       3370.6546      4372.1852      2037.6727     -485.32149      5655.6701     -10488.478    
     82000   607.49772      1357.5681      71364.172      0.79384906     13939.428      9385.5595      4553.8687      3359.5776      4327.5088      2105.3236     -502.73806      5688.3302     -10489.656    
     82500   598.29412      688.92257      70502.43       0.80355217     13587.568      9243.3681      4344.2003      3250.8625      4312.1449      2103.7891     -496.08524      5613.0009     -10502.164    
     83000   603.03746      535.73669      69778.719      0.81188622     13833.27       9316.6505      4516.6193      3345.296       4380.3812      2103.8985     -512.7408       5645.185      -10510.59     
     83500   599.60467      438.6728       68488.486      0.82718109     13649.857      9263.6154      4386.2418      3346.6261      4297.5907      2107.8332     -529.08141      5606.785      -10508.135    
     84000   598.59321     -390.34187      68390.476      0.82836651     13526.802      9247.9889      4278.8129      3264.736       4328.1352      2163.4066     -644.84099      5611.3438     -10510.687    
     84500   600.02123      1487.9398      67163.824      0.84349546     13450.614      9270.051       4180.5634      3215.0911      4276.9727      2093.4068     -542.10791      5592.3257     -10527.147    
     85000   591.95296      1066.6601      67449.368      0.83992456     13448.515      9145.4         4303.1154      3297.3469      4286.3747      2110.6564     -508.38014      5588.4601     -10539.868    
Loop time of 320.731 on 1 procs for 20000 steps with 5184 atoms

Performance: 5.388 ns/day, 4.455 hours/ns, 62.358 timesteps/s, 323.262 katom-step/s
97.9% CPU use with 1 MPI tasks x 1 OpenMP threads

MPI task timing breakdown:
Section |  min time  |  avg time  |  max time  |%varavg| %total
---------------------------------------------------------------
Pair    | 227.85     | 227.85     | 227.85     |   0.0 | 71.04
Bond    | 17.763     | 17.763     | 17.763     |   0.0 |  5.54
Kspace  | 32.118     | 32.118     | 32.118     |   0.0 | 10.01
Neigh   | 34.107     | 34.107     | 34.107     |   0.0 | 10.63
Comm    | 1.1386     | 1.1386     | 1.1386     |   0.0 |  0.36
Output  | 0.0067647  | 0.0067647  | 0.0067647  |   0.0 |  0.00
Modify  | 7.5031     | 7.5031     | 7.5031     |   0.0 |  2.34
Other   |            | 0.2448     |            |       |  0.08

Nlocal:           5184 ave        5184 max        5184 min
Histogram: 1 0 0 0 0 0 0 0 0 0
Nghost:          17411 ave       17411 max       17411 min
Histogram: 1 0 0 0 0 0 0 0 0 0
Neighs:     1.5319e+06 ave  1.5319e+06 max  1.5319e+06 min
Histogram: 1 0 0 0 0 0 0 0 0 0

Total # of neighbors = 1531902
Ave neighs/atom = 295.50579
Ave special neighs/atom = 11.135802
Neighbor list builds = 1201
Dangerous builds = 0
unfix           npt_squeeze

# Cool to the operating temperature while still under load, so the chains lose
# mobility at the compressed volume rather than at the dilute one.
fix             npt_cool all npt temp 600.0 300.0 100.0 iso 1000.0 1.0 1000.0
run             10000
PPPM initialization ...
  using 12-bit tables for long-range coulomb
  G vector (1/distance) = 0.233776
  grid = 15 15 15
  stencil order = 5
  estimated absolute RMS force accuracy = 0.0186483
  estimated relative force accuracy = 5.6158801e-05
  using double precision FFTW3
  3d grid and FFT values/proc = 8000 3375
Generated 21 of 21 mixed pair_coeff terms from arithmetic mixing rule
Per MPI rank memory allocation (min/avg/max) = 48.29 | 48.29 | 48.29 Mbytes
   Step          Temp          Press          Volume        Density         TotEng         KinEng         PotEng         E_bond        E_angle        E_dihed         E_vdwl         E_coul         E_long    
     85000   591.95296      1075.0052      67449.368      0.83992456     13446.555      9145.4         4301.1553      3297.3469      4286.3747      2110.6564     -508.38014      6913.0535     -11866.421    
     85500   588.94575      1841.3439      66401.514      0.85317905     13214.301      9098.9401      4115.3613      3221.775       4250.6976      2091.7669     -566.34282      6910.379      -11858.365    
     86000   570.31556      1167.813       65790.556      0.86110202     12443.392      8811.1121      3632.2803      3098.9557      4130.3237      2009.8542     -635.23531      6832.9395     -11863.332    
     86500   559.59598      44.323259      65009.206      0.87145166     12630.978      8645.4996      3985.4781      3179.1474      4260.7896      2091.9103     -633.72867      6890.2407     -11866.822    
     87000   540.8868       2077.3214      64454.895      0.87894613     11604.532      8356.4515      3248.0809      2926.8189      3967.1235      2051.2961     -704.34056      6803.9099     -11863.356    
     87500   528.51651      637.59529      64484.44       0.87854343     11049.224      8165.3361      2883.8876      2755.2731      3882.472       1957.4586     -698.72297      6802.5409     -11875.787    
     88000   504.87024      730.97312      64486.443      0.87851613     10627.255      7800.0122      2827.2423      2848.0959      3782.8846      1927.7597     -725.21374      6818.8426     -11884.076    
     88500   493.63871     -128.43497      64227.373      0.88205975     10210.304      7626.4902      2583.8136      2774.3519      3679.0759      1939.6873     -752.66929      6772.7082     -11889.851    
     89000   487.29571      782.05895      63591.115      0.89088516     9805.9303      7528.4938      2277.4365      2694.038       3545.0063      1897.0196     -793.36728      6765.5279     -11887.345    
     89500   469.86934      1796.7456      62496.854      0.90648372     9297.7835      7259.2644      2038.5191      2553.6601      3500.0713      1848.7915     -777.33184      6736.3029     -11877.365    
     90000   448.6292       1332.4885      62515.123      0.90621882     8814.0523      6931.1142      1882.9382      2589.4703      3423.0463      1788.1595     -782.37079      6710.7499     -11895.48     
     90500   440.98021     -799.63915      62736.599      0.90301963     8424.6559      6812.9407      1611.7151      2510.0795      3278.8777      1778.3333     -884.05513      6762.9183     -11883.035    
     91000   421.53279     -1059.1704      62576.129      0.90533533     7861.7997      6512.487       1349.3127      2436.0009      3179.0659      1776.2178     -882.81152      6704.7935     -11912.916    
     91500   410.47804      689.45015      61864.599      0.91574796     7368.0651      6341.6963      1026.3689      2297.5449      3052.0309      1766.6492     -922.18416      6690.9152     -11908.538    
     92000   394.19713      64.853704      61203.752      0.92563575     6885.2767      6090.1638      795.11295      2223.4742      3006.1522      1712.3825     -966.89695      6685.0192     -11910.329    
     92500   377.71858      1027.5653      60650.691      0.93407643     6353.106       5835.5777      517.52831      2131.0325      2905.401       1701.9279     -965.54359      6617.4282     -11916.018    
     93000   357.7114       1115.4345      61251.419      0.9249154      5917.0426      5526.4761      390.5665       2071.4468      2846.6292      1667.0055     -975.38573      6650.9187     -11912.311    
     93500   350.50025     -905.53678      61494.447      0.92126011     5467.6841      5415.0671      52.617027      2001.4984      2705.1498      1614.9888     -1009.6994      6611.948      -11910.75     
     94000   331.68886     -1226.3754      60962.562      0.9292979      4924.225       5124.4398     -200.21484      1943.1922      2577.2733      1633.8396     -1041.617       6569.3155     -11924.733    
     94500   314.97644     -502.93536      60845.861      0.93108027     4473.2401      4866.2406     -393.00052      1881.3949      2482.6245      1555.762      -1045.7074      6609.5201     -11915.211    
     95000   300.54072     -1009.4957      60319.574      0.93920392     3992.893       4643.2155     -650.32254      1783.0802      2455.8645      1563.7925     -1045.7632      6475.907      -11923.145    
Loop time of 190.708 on 1 procs for 10000 steps with 5184 atoms

Performance: 4.530 ns/day, 5.297 hours/ns, 52.436 timesteps/s, 271.829 katom-step/s
97.8% CPU use with 1 MPI tasks x 1 OpenMP threads

MPI task timing breakdown:
Section |  min time  |  avg time  |  max time  |%varavg| %total
---------------------------------------------------------------
Pair    | 146.08     | 146.08     | 146.08     |   0.0 | 76.60
Bond    | 8.8974     | 8.8974     | 8.8974     |   0.0 |  4.67
Kspace  | 14.25      | 14.25      | 14.25      |   0.0 |  7.47
Neigh   | 18.078     | 18.078     | 18.078     |   0.0 |  9.48
Comm    | 0.63229    | 0.63229    | 0.63229    |   0.0 |  0.33
Output  | 0.0031522  | 0.0031522  | 0.0031522  |   0.0 |  0.00
Modify  | 2.6471     | 2.6471     | 2.6471     |   0.0 |  1.39
Other   |            | 0.1235     |            |       |  0.06

Nlocal:           5184 ave        5184 max        5184 min
Histogram: 1 0 0 0 0 0 0 0 0 0
Nghost:          17888 ave       17888 max       17888 min
Histogram: 1 0 0 0 0 0 0 0 0 0
Neighs:     1.6756e+06 ave  1.6756e+06 max  1.6756e+06 min
Histogram: 1 0 0 0 0 0 0 0 0 0

Total # of neighbors = 1675597
Ave neighs/atom = 323.22473
Ave special neighs/atom = 11.135802
Neighbor list builds = 451
Dangerous builds = 0
unfix           npt_cool

fix             npt_eq all npt temp 300.0 300.0 100.0 iso 1.0 1.0 1000.0
run             100000
PPPM initialization ...
  using 12-bit tables for long-range coulomb
  G vector (1/distance) = 0.23718949
  grid = 15 15 15
  stencil order = 5
  estimated absolute RMS force accuracy = 0.016790923
  estimated relative force accuracy = 5.0565366e-05
  using double precision FFTW3
  3d grid and FFT values/proc = 8000 3375
Generated 21 of 21 mixed pair_coeff terms from arithmetic mixing rule
Per MPI rank memory allocation (min/avg/max) = 49.06 | 49.06 | 49.06 Mbytes
   Step          Temp          Press          Volume        Density         TotEng         KinEng         PotEng         E_bond        E_angle        E_dihed         E_vdwl         E_coul         E_long    
     95000   300.54072     -1008.5498      60319.574      0.93920392     3992.6288      4643.2155     -650.58673      1783.0802      2455.8645      1563.7925     -1045.7632      6636.887      -12084.389    
     95500   299.81836      790.83267      60425.201      0.93756213     3888.2027      4632.0552     -743.85256      1749.2834      2340.1353      1568.2875     -1054.615       6705.4533     -12092.65     
     96000   298.87922     -780.04717      61041.189      0.92810087     3852.1794      4617.5461     -765.36668      1748.1283      2322.6151      1574.2235     -1117.7263      6754.1507     -12085.482    
     96500   294.11554     -346.28628      60369.729      0.93842363     3785.9736      4543.9494     -757.97582      1761.2151      2362.2896      1557.9801     -1059.9181      6676.2046     -12095.56     
     97000   305.5465      -1028.6453      60274.288      0.93990957     3846.9478      4720.5524     -873.60458      1721.1794      2309.8244      1555.6264     -1086.4284      6680.6359     -12093.678    
     97500   299.8838       946.95561      60152.463      0.94181316     3906.8964      4633.0662     -726.16982      1745.098       2408.9629      1557.9206     -1060.0556      6665.0473     -12082.226    
     98000   301.33672      17.409518      60242.265      0.9404092      3804.5686      4655.5133     -850.94476      1742.7556      2357.7342      1529.4173     -1075.2736      6647.1284     -12087.184    
     98500   296.97416      47.281987      60048.867      0.94343795     3755.3577      4588.1137     -832.75601      1767.626       2354.605       1538.3292     -1086.3956      6657.8286     -12099.873    
     99000   298.60516     -1067.0655      60044.841      0.94350122     3902.2084      4613.312      -711.10358      1787.2325      2431.5463      1537.1005     -1086.0532      6668.8301     -12086.384    
     99500   298.38066     -657.06108      60117.301      0.94236401     3832.3478      4609.8436     -777.49578      1746.4317      2393.585       1529.4013     -1124.3817      6727.1552     -12087.403    
    100000   302.62875      1948.5952      60084.563      0.94287747     3810.5557      4675.4745     -864.91879      1685.9394      2374.8835      1518.5873     -1101.0309      6710.7909     -12089.385    
    100500   299.61909     -53.501786      60177.718      0.9414179      3760.382       4628.9767     -868.59471      1720.1843      2340.8855      1526.6211     -1086.2317      6694.5143     -12101.425    
    101000   304.09509     -415.70137      60173.585      0.94148256     4069.4861      4698.1288     -628.64263      1746.892       2522.1939      1571.2467     -1097.6203      6694.1437     -12104.588    
    101500   301.40016      673.41416      60556.626      0.93552737     3850.0896      4656.4934     -806.40382      1753.4395      2407.6263      1486.3656     -1047.6885      6651.6059     -12091.388    
    102000   300.50927      248.13214      60228.315      0.94062703     3772.2627      4642.7295     -870.46673      1671.732       2406.4585      1526.9446     -1078.1807      6660.2806     -12094.255    
    102500   299.46576     -1117.4283      60562.393      0.93543827     3804.936       4626.6078     -821.67176      1754.4829      2349.0823      1521.6296     -1080.8875      6691.9565     -12095.571    
    103000   299.65186      388.00179      60287.805      0.93969885     3718.7974      4629.4829     -910.68555      1705.0876      2323.1708      1539.9729     -1099.6985      6677.1713     -12095.348    
    103500   295.2952      -875.72985      60073.424      0.9430523      3798.8141      4562.1746     -763.36051      1769.1928      2443.8298      1549.6777     -1141.6701      6669.331      -12092.282    
    104000   303.44741     -761.04596      60200.49       0.94106178     3857.0544      4688.1224     -831.06803      1746.6257      2408.8722      1512.4922     -1109.6842      6663.1131     -12089.923    
    104500   301.62473      617.9702       60765.973      0.93230434     3894.1153      4659.9629     -765.84763      1812.8502      2374.69        1510.1839     -1063.7392      6651.7908     -12086.58     
    105000   300.50597      571.98859      60085.57       0.94286166     3803.3809      4642.6786     -839.29767      1772.4724      2389.7989      1473.8371     -1072.0439      6651.7558     -12089.039    
    105500   302.0579       397.8107       60289.112      0.93967847     3798.6602      4666.6552     -867.99501      1748.5233      2328.1268      1510.3394     -1059.9741      6660.8108     -12090.968    
    106000   298.06072     -1196.0298      60928.787      0.92981303     3827.7456      4604.9005     -777.15492      1744.5697      2393.2163      1503.7985     -1121.068       6756.2464     -12092.072    
    106500   305.84232     -419.57773      60599.998      0.9348578      3978.098       4725.1228     -747.02476      1781.2785      2442.4976      1509.0243     -1092.0672      6676.5357     -12102.119    
    107000   302.43125     -1312.5794      60504.301      0.93633641     3917.4174      4672.4232     -755.00577      1808.5703      2422.9928      1510.5274     -1091.9283      6660.5995     -12100.315    
    107500   297.5145      -468.46737      60238.552      0.94046716     3778.1655      4596.4617     -818.29617      1788.725       2379.8822      1491.0026     -1140.8014      6720.9497     -12091.75     
    108000   299.88056      358.63374      60116.521      0.94237623     3751.4337      4633.0163     -881.58257      1754.6209      2375.4217      1498.3223     -1069.9614      6634.8922     -12111.125    
    108500   305.21766      1012.1348      60385.83       0.93817342     3840.1971      4715.472      -875.27493      1726.3097      2368.7466      1524.9284     -1096.7166      6669.6617     -12103.762    
    109000   303.82375     -673.87172      60390.439      0.93810181     3856.274       4693.9368     -837.66277      1767.6303      2410.1952      1509.9112     -1073.5362      6611.1745     -12099.561    
    109500   300.08435     -365.89895      60497.953      0.93643467     3845.4537      4636.1647     -790.711        1762.5202      2410.4441      1526.5761     -1138.5267      6715.1437     -12104.271    
    110000   296.42701     -1422.1706      60326.092      0.93910245     3638.9605      4579.6605     -940.7          1782.5607      2346.7693      1494.6611     -1153.1296      6665.2915     -12111.851    
    110500   298.52751     -119.14474      60195.47       0.94114026     3700.2456      4612.1123     -911.86662      1719.7932      2366.0619      1519.0097     -1141.8327      6696.5837     -12109.93     
    111000   296.64842      71.441358      60355.175      0.93864993     3719.3141      4583.0812     -863.76708      1796.7188      2373.7351      1510.7008     -1137.1835      6654.4572     -12098.034    
    111500   296.19363      1089.484       60060.513      0.94325503     3719.5188      4576.0548     -856.536        1747.0232      2420.2183      1465.8929     -1109.538       6687.0856     -12102.097    
    112000   303.33771     -693.30944      60614.083      0.93464055     3834.4049      4686.4276     -852.02265      1776.721       2397.6272      1486.4482     -1133.9821      6693.7823     -12106.433    
    112500   302.34599      148.70769      60169.891      0.94154036     3862.4241      4671.106      -808.68193      1790.8462      2369.4525      1530.9232     -1084.2863      6647.2716     -12101.431    
    113000   307.52582      856.21795      60193.805      0.9411663      3933.4891      4751.132      -817.64287      1760.6248      2419.6988      1487.6552     -1096.5543      6670.2499     -12095.748    
    113500   297.45899      325.01819      60286.089      0.93972559     3739.4014      4595.6041     -856.20273      1722.6547      2398.6445      1519.7186     -1106.9299      6674.7789     -12103.049    
    114000   296.66333      826.82065      60432.475      0.93744929     3734.5899      4583.3115     -848.72153      1738.6993      2400.2617      1496.4959     -1097.39        6674.1867     -12095.87     
    114500   298.89934     -350.10573      60255.263      0.94020634     3779.9317      4617.8568     -837.9251       1795.1395      2437.8233      1500.6357     -1073.9614      6562.5585     -12094.113    
    115000   301.30175      1341.7655      60132.272      0.94212939     3789.1734      4654.973      -865.79958      1744.9317      2388.3422      1513.6089     -1080.9719      6627.621      -12093.726    
    115500   300.49587     -1215.9687      60430.049      0.93748692     3776.0609      4642.5225     -866.46155      1768.6813      2418.8079      1506.5787     -1067.8812      6565.959      -12093.869    
    116000   298.64256      3.1213348      60177.853      0.94141578     3640.548       4613.8897     -973.34176      1759.5174      2343.9878      1519.2876     -1108.164       6578.309      -12102.283    
    116500   295.75158      407.92908      60730.279      0.93285229     3661.1359      4569.2254     -908.08942      1729.8838      2418.9301      1487.708      -1142.2281      6658.7124     -12097.378    
    117000   301.09422     -44.216701      60476.619      0.93676501     3694.3219      4651.7667     -957.44481      1719.2931      2337.8248      1532.6918     -1148.1763      6656.0339     -12093.816    
    117500   300.83927     -528.94593      60430.442      0.93748083     3709.7706      4647.8278     -938.05722      1745.1065      2372.6795      1532.0509     -1133.1998      6603.4494     -12094.046    
    118000   302.77774      1625.2605      60269.89       0.93997816     3732.1129      4677.7763     -945.66337      1655.1132      2417.6632      1503.6587     -1079.1148      6614.5326     -12094.184    
    118500   300.22688      375.71908      60128.491      0.94218863     3809.5657      4638.3668     -828.80114      1749.4455      2420.7578      1540.7292     -1108.5138      6638.161      -12106.288    
    119000   298.77371      956.20958      60202.988      0.94102274     3784.1771      4615.9159     -831.73879      1772.6413      2440.5339      1525.2338     -1124.169       6620.7459     -12102.011    
    119500   299.78654      431.07928      60292.798      0.93962102     3750.2321      4631.5637     -881.33162      1731.0252      2401.0352      1497.4586     -1056.7433      6620.0869     -12109.699    
    120000   290.31606      29.397707      60276.032      0.93988239     3604.5039      4485.2491     -880.74519      1756.4876      2399.5494      1503.2538     -1116.34        6648.6063     -12111.605    
    120500   299.732        1513.7134      60045.177      0.94349593     3661.1324      4630.7211     -969.5887       1702.7264      2352.5622      1511.0892     -1068.6279      6596.5421     -12100.452    
    121000   304.11589     -575.1002       60313.103      0.93930469     3832.0146      4698.4502     -866.43553      1784.4606      2361.7323      1503.118      -1052.6054      6609.3278     -12107.329    
    121500   296.75687      881.48381      59778.621      0.94770304     3773.2145      4584.7566     -811.54209      1729.7458      2499.2607      1524.758      -1106.299       6603.6384     -12097.781    
    122000   302.0473      -75.217909      60020.929      0.94387711     3766.3128      4666.4913     -900.17852      1698.6396      2441.8562      1531.3227     -1095.9236      6586.92       -12102.707    
    122500   301.81354     -1384.059       60333.346      0.93898954     3696.5411      4662.8799     -966.33876      1797.9944      2317.9886      1507.4857     -1152.5302      6628.5368     -12098.488    
    123000   294.89598      876.98384      60477.667      0.93674878     3602.6691      4556.0068     -953.33774      1705.9969      2376.7114      1528.2351     -1099.0896      6594.4111     -12094.628    
    123500   297.26747      694.59263      60104.047      0.94257182     3817.7781      4592.6452     -774.86702      1752.5673      2436.2469      1589.8126     -1089.0745      6590.4859     -12098.305    
    124000   301.39793     -1730.0099      60045.152      0.94349634     3805.3105      4656.4589     -851.14837      1803.3964      2388.5994      1512.0697     -1176.7111      6685.9781     -12100.112    
    124500   295.04961      177.85226      59925.682      0.94537732     3661.2732      4558.3804     -897.10717      1753.0296      2341.6829      1569.3318     -1126.7929      6628.527      -12102.486    
    125000   303.27583     -534.12161      60574.661      0.93524883     3836.872       4685.4717     -848.59971      1812.1666      2347.4421      1515.6016     -1105.003       6645.5441     -12100.545    
    125500   301.6802       289.47043      60220.878      0.94074319     3876.629       4660.8198     -784.19086      1774.4942      2430.5833      1513.8847     -1091.9381      6656.4948     -12102.194    
    126000   301.01985     -152.60164      60184.952      0.94130474     3737.548       4650.6178     -913.06973      1708.2575      2385.0872      1550.5458     -1129.6183      6633.605      -12098.631    
    126500   298.75488     -567.04476      60101.093      0.94261814     3705.9819      4615.625      -909.64311      1748.4611      2403.2992      1519.1789     -1085.5374      6569.5936     -12101.424    
    127000   302.45499      195.53425      60171.658      0.9415127      3739.87        4672.79       -932.92003      1758.2512      2370.2833      1520.9224     -1142.0239      6632.2709     -12108.157    
    127500   302.22015     -58.454931      60270.43       0.93996974     3805.558       4669.1618     -863.60378      1714.674       2417.857       1530.807      -1049.2415      6587.094      -12102        
    128000   301.38985      896.73468      60282.058      0.93978843     3724.8418      4656.3341     -931.49234      1739.4038      2386.8627      1514.7598     -1082.4004      6575.0431     -12102.742    
    128500   297.65722      53.279261      59808.871      0.9472237      3694.7485      4598.6667     -903.91824      1735.6734      2415.215       1515.4733     -1135.7474      6629.7278     -12101.394    
    129000   305.88947      1185.0895      59842.378      0.94669334     3710.366       4725.8512     -1015.4852      1690.2354      2416.1766      1483.5035     -1146.5875      6613.6955     -12106.863    
    129500   306.32188      421.42933      60132.032      0.94213315     3837.0653      4732.5317     -895.46647      1731.1667      2395.0143      1527.2396     -1129.5386      6640.8827     -12099.075    
    130000   302.44508      312.00244      59874.492      0.94618557     3740.5266      4672.637      -932.11042      1715.6931      2371.649       1524.1642     -1076.6283      6595.6577     -12099.695    
    130500   295.25282     -502.45935      60104.307      0.94256773     3689.6575      4561.5198     -871.86228      1795.7568      2373.2878      1515.5828     -1134.0243      6642.2508     -12101.66     
    131000   296.34348      364.80092      59616.736      0.95027646     3665.6762      4578.37       -912.69385      1739.3891      2368.2002      1536.7301     -1114.6754      6618.6693     -12099.687    
    131500   302.33353     -450.74055      60141.105      0.94199101     3734.8891      4670.9135     -936.02443      1787.7189      2370.3034      1511.4253     -1132.0968      6595.1602     -12104.494    
    132000   299.24079     -129.35545      60152.061      0.94181945     3627.1237      4623.1321     -996.00839      1670.1765      2408.3362      1478.165      -1083.748       6603.8554     -12105.32     
    132500   299.16472     -495.03081      60120.17       0.94231904     3670.4706      4621.9569     -951.4863       1741.8823      2361.4524      1530.072      -1117.9083      6598.4346     -12101.552    
    133000   299.75152     -631.1538       60297.546      0.93954703     3676.2469      4631.0226     -954.77569      1744.8767      2390.032       1489.5635     -1096.7413      6581.8764     -12101.103    
    133500   296.81989      989.87882      60286.819      0.93971422     3685.5737      4585.7303     -900.15655      1714.8349      2390.6439      1530.5964     -1074.8957      6602.1225     -12100.479    
    134000   305.0156      -618.35465      60237.146      0.94048912     3769.3446      4712.3502     -943.0056       1781.7813      2350.2532      1506.2743     -1125.4423      6610.6445     -12103.06     
    134500   301.41394     -546.09318      59966.84       0.94472847     3762.6596      4656.7062     -894.04669      1808.7813      2379.1707      1519.1205     -1131.5109      6584.7704     -12091.972    
    135000   301.24141      176.77911      60679.457      0.93363361     3723.1719      4654.0407     -930.86882      1721.175       2402.2622      1501.7312     -1142.0075      6650.4158     -12101.461    
    135500   296.754        731.7662       60672.537      0.9337401      3704.8893      4584.7124     -879.82302      1718.7834      2403.5089      1496.1363     -1070.9818      6651.4308     -12112.715    
    136000   297.75627     -168.72562      60229.932      0.94060177     3651.7496      4600.197      -948.44738      1698.8808      2368.3868      1527.9208     -1087.8918      6604.6559     -12098.639    
    136500   299.62457     -518.98135      60290.226      0.93966111     3728.4727      4629.0613     -900.58867      1737.1973      2392.0417      1540.802      -1131.3293      6624.759      -12103.823    
    137000   303.02947      366.16701      60346.618      0.93878303     3827.2173      4681.6655     -854.44818      1733.0173      2424.0921      1513.7915     -1076.3568      6608.5315     -12094.862    
    137500   304.20668      685.7196       60012.169      0.94401487     3760.926       4699.8528     -938.92688      1698.2994      2374.8103      1503.8336     -1069.7789      6614.9061     -12097.539    
    138000   297.24554      371.16557      60181.179      0.94136376     3664.5105      4592.3064     -927.79585      1692.2505      2401.7049      1499.6163     -1074.2213      6611.2561     -12092.834    
    138500   299.59535      759.1846       60196.531      0.94112367     3661.8436      4628.6099     -966.76634      1694.8257      2364.4313      1491.5912     -1083.7145      6637.2392     -12105.137    
    139000   294.99988      196.74998      60206.445      0.94096871     3587.5401      4557.612      -970.07181      1677.9829      2391.459       1509.965      -1147.1307      6652.1965     -12089.563    
    139500   299.14475      465.94256      60051.895      0.94339039     3628.4611      4621.6483     -993.18719      1728.9374      2327.5923      1506.4011     -1070.8172      6584.6469     -12104.839    
    140000   303.58077      1471.7174      59865.023      0.94633524     3797.4052      4690.1829     -892.77766      1702.3279      2461.6511      1517.5331     -1105.2509      6596.6474     -12103.912    
    140500   304.8809      -447.71125      60224.144      0.94069216     3756.0733      4710.2693     -954.1959       1725.1323      2375.4817      1519.4163     -1073.3588      6567.64       -12104.488    
    141000   297.95753     -649.15925      59932.042      0.94527699     3614.5406      4603.3063     -988.76566      1699.7647      2363.2906      1516.9693     -1109.3889      6613.1371     -12107.809    
    141500   296.07189      861.51738      60164.237      0.94162884     3588.773       4574.174      -985.40107      1683.1638      2394.7168      1522.1848     -1108.8663      6594.6606     -12106.41     
    142000   297.94992      1174.8156      60002.384      0.94416883     3648.6899      4603.1887     -954.49878      1679.3265      2413.6869      1514.207      -1091.154       6593.45       -12098.592    
    142500   297.59264     -342.47485      60242.908      0.94039917     3722.7442      4597.669      -874.92477      1724.8082      2420.5931      1522.1028     -1090.4337      6614.0054     -12102.114    
    143000   304.78909     -248.22616      60177.626      0.94141933     3871.1923      4708.8507     -837.65839      1722.9697      2430.4085      1547.6266     -1062.0611      6584.9401     -12100.142    
    143500   305.72743     -45.191836      60289.015      0.93967999     3890.3363      4723.3477     -833.01141      1761.3727      2396.2785      1547.198      -1095.8749      6624.2189     -12105.071    
    144000   302.32891     -820.84095      60238.493      0.9404681      3815.4986      4670.8421     -855.34351      1823.0333      2372.0706      1522.408      -1098.9418      6591.9499     -12102.856    
    144500   300.72535      1375.2408      60116.594      0.94237509     3759.3138      4646.0679     -886.75402      1720.165       2442.3677      1508.5922     -1100.3899      6612.0866     -12105.704    
    145000   299.45349     -82.194278      60102.903      0.94258976     3734.8801      4626.4183     -891.53813      1758.6973      2388.0177      1505.2251     -1159.1671      6687.4329     -12107.061    
    145500   296.49796     -234.97783      60141.206      0.94198944     3727.7951      4580.7567     -852.96164      1736.6164      2405.8801      1548.3699     -1085.7151      6599.0153     -12094.924    
    146000   297.7242       914.7577       60239.65       0.94045002     3583.1182      4599.7014     -1016.5833      1676.7497      2311.5963      1524.8467     -1054.0817      6585.2723     -12097.628    
    146500   294.25702     -65.019477      60276.617      0.93987326     3668.6016      4546.1351     -877.53356      1724.8412      2410.6738      1531.4214     -1105.9924      6636.3967     -12112.949    
    147000   298.4418       350.33913      60070.14       0.94310386     3761.3121      4610.7881     -849.47596      1712.5193      2412.7433      1539.2915     -1068.8836      6618.8814     -12102.265    
    147500   300.19132     -88.340884      60545.001      0.93570699     3779.0425      4637.8173     -858.77478      1746.882       2402.0826      1508.1058     -1113.1848      6665.0799     -12103.928    
    148000   302.61295      89.476059      60176.09       0.94144337     3790.6987      4675.2304     -884.53173      1721.5322      2393.025       1520.3719     -1120.259       6664.4703     -12099.53     
    148500   293.66027      346.11516      59774.554      0.94776751     3674.4517      4536.9156     -862.46386      1753.8854      2429.3557      1522.7026     -1092.5934      6585.8289     -12099.651    
    149000   295.25144     -262.46335      60067.354      0.94314759     3601.3307      4561.4984     -960.16773      1705.5957      2364.3233      1504.9763     -1028.0079      6563.7177     -12106.965    
    149500   299.30873      144.71762      60172.108      0.94150567     3773.1945      4624.1817     -850.98714      1734.4594      2419.1906      1495.5155     -1084.2465      6644.9593     -12097.635    
    150000   299.3498      -1141.751       60451.731      0.93715067     3750.0544      4624.8162     -874.76186      1753.4649      2430.0328      1525.4172     -1105.5225      6591.1909     -12105.697    
    150500   302.34788      254.99233      60399.385      0.93796287     3788.456       4671.1352     -882.67923      1736.3228      2394.4786      1508.5986     -1098.0429      6645.8037     -12106.522    
    151000   294.20776     -1248.3596      60009.854      0.9440513      3551.7579      4545.3742     -993.6163       1720.5711      2356.0851      1545.8564     -1169.0461      6624.5295     -12109.487    
    151500   302.95211      432.01112      60117.652      0.9423585      3808.7502      4680.4703     -871.72008      1754.922       2386.2595      1500.8505     -1061.5452      6611.7486     -12100.7      
    152000   297.57217     -550.85429      60288.775      0.93968372     3803.0603      4597.3526     -794.29234      1802.1166      2418.3517      1532.4205     -1079.6768      6597.8787     -12103.038    
    152500   298.52355      539.04099      60055.024      0.94334124     3640.1925      4612.0511     -971.85853      1704.8013      2370.2458      1497.3156     -1075.7629      6599.1251     -12102.177    
    153000   290.63846     -108.32426      59784.203      0.94761455     3568.6587      4490.23       -921.57132      1740.8605      2362.6746      1526.4326     -1057.9873      6569.8463     -12099.97     
    153500   297.81928      102.5087       60278.278      0.93984736     3696.3985      4601.1704     -904.77196      1732.1725      2412.9744      1517.8277     -1109.1367      6605.7638     -12099.966    
    154000   299.7469      -219.79165      59955.847      0.94490168     3758.6015      4630.9513     -872.34982      1777.1997      2412.2367      1489.1202     -1070.6858      6583.3303     -12097.872    
    154500   297.82419      129.63608      60339.519      0.93889348     3657.2753      4601.2463     -943.97104      1733.6899      2376.0793      1503.6615     -1079.641       6594.2071     -12108.95     
    155000   298.28379      352.3401       59837.808      0.94676564     3627.1823      4608.3469     -981.16462      1690.9475      2420.9373      1489.857      -1103.7554      6581.6674     -12096.111    
    155500   296.71741     -1134.6402      60724.649      0.93293879     3750.5735      4584.1471     -833.57362      1799.3283      2423.7841      1482.8877     -1132.5216      6650.4633     -12091.68     
    156000   303.9534       694.45032      59751.483      0.94813347     3821.373       4695.9397     -874.5668       1695.4726      2508.4665      1533.0294     -1136.0141      6595.7873     -12106.831    
    156500   301.37141      430.08239      60092.539      0.94275232     3782.5286      4656.0492     -873.52061      1763.228       2353.908       1532.7209     -1070.0996      6618.0098     -12110.225    
    157000   299.54178     -1037.8183      60303.736      0.93945059     3773.394       4627.7822     -854.38825      1797.8594      2414.8997      1505.582      -1113.3137      6615.4942     -12109.689    
    157500   295.77189     -300.86677      60303.16       0.93945956     3583.6301      4569.5392     -985.90914      1706.3688      2388.7363      1509.0993     -1143.2486      6616.7883     -12099.755    
    158000   303.38252      1239.1175      60084.716      0.94287507     3737.952       4687.12       -949.16794      1747.4757      2367.0625      1502.0367     -1123.9867      6623.8214     -12101.931    
    158500   303.59389      838.71541      59964.258      0.94476914     3771.5398      4690.3855     -918.84562      1707.8198      2429.0814      1523.2168     -1133.9022      6613.3368     -12095.595    
    159000   307.35721     -1188.0361      60420.823      0.93763007     3865.5522      4748.527      -882.97489      1803.2296      2424.8322      1508.7789     -1145.6927      6599.9136     -12109.567    
    159500   300.94665     -239.70609      60241.459      0.94042178     3822.7486      4649.4868     -826.73817      1780.7924      2478.4474      1496.071      -1118.0981      6602.6514     -12103.482    
    160000   299.26717     -512.20402      60123.705      0.94226364     3703.3221      4623.5396     -920.21753      1746.5477      2347.9361      1492.6611     -1102.177       6653.7452     -12094.744    
    160500   301.47364      305.28272      59967.113      0.94472416     3723.4311      4657.6287     -934.19757      1761.7199      2362.5151      1502.022      -1135.9857      6633.958      -12095.079    
    161000   302.03143      390.77628      60296.688      0.93956041     3832.6113      4666.2462     -833.63488      1755.1959      2456.2635      1487.5921     -1098.5229      6625.8999     -12096.212    
    161500   297.8678      -5.9427795      59985.397      0.94443621     3764.7223      4601.9201     -837.19782      1749.5779      2435.3764      1538.9134     -1113.7613      6615.6341     -12102.051    
    162000   301.63242     -444.37526      60178.92       0.94139909     3798.8606      4660.0816     -861.22103      1820.7103      2389.8127      1521.0998     -1138.6501      6606.9009     -12099.058    
    162500   303.75215      500.88382      60325.505      0.93911159     3808.1776      4692.8305     -884.65296      1808.991       2360.4989      1482.101      -1099.8315      6627.5341     -12098.864    
    163000   302.51755     -152.8085       60484.028      0.93665027     3710.9337      4673.7565     -962.82274      1757.8607      2317.6366      1503.2253     -1147.4657      6677.4428     -12104.982    
    163500   300.83015     -741.71077      60234.569      0.94052936     3687.8069      4647.6871     -959.88012      1728.5175      2372.0609      1518.2661     -1143.6702      6625.3913     -12097.038    
    164000   298.59771      188.16069      60123.126      0.94227271     3724.731       4613.1967     -888.4657       1807.3049      2380.6827      1531.8997     -1134.5837      6592.4576     -12102.377    
    164500   301.79515     -786.49976      60020.133      0.94388962     3744.6045      4662.5957     -917.99123      1750.3684      2408.1223      1496.3241     -1124.8955      6620.4932     -12103.365    
    165000   298.14695      1390.3883      60477.877      0.93674552     3677.1097      4606.2328     -929.12311      1771.1556      2347.7762      1503.16       -1090.1793      6611.2006     -12105.027    
    165500   298.65729      386.28245      60310.32       0.93934804     3585.0742      4614.1173     -1029.0431      1687.5832      2323.4909      1525.9052     -1079.2073      6575.0851     -12097.882    
    166000   299.92229      861.47792      60267.028      0.9400228      3617.202       4633.6609     -1016.4589      1728.2096      2366.2195      1442.8968     -1080.3774      6597.1472     -12102.62     
    166500   297.50914     -1519.552       60419.103      0.93765676     3672.7333      4596.3789     -923.64566      1754.1397      2414.0218      1481.2144     -1147.8096      6648.0932     -12106.058    
    167000   299.63322     -143.17556      60416.178      0.93770216     3779.6639      4629.1949     -849.53108      1781.2119      2395.1717      1531.9592     -1120.3307      6624.6656     -12100.465    
    167500   295.9226       214.13333      59811.001      0.94718998     3704.9338      4571.8676     -866.93376      1768.2887      2396.0036      1531.7947     -1106.8328      6612.2932     -12105.87     
    168000   297.62031     -780.74034      59938.266      0.94517884     3668.0899      4598.0964     -930.00649      1779.5845      2358.8667      1554.6506     -1144.0544      6594.549      -12112.29     
    168500   296.24684     -757.3078       59652.714      0.94970332     3563.4261      4576.877      -1013.4509      1738.2113      2325.8171      1498.6699     -1175.7906      6666.6081     -12100.597    
    169000   298.85606     -314.81602      60616.777      0.93459902     3593.0085      4617.1882     -1024.1797      1736.525       2330.1377      1470.3129     -1137.1567      6646.6277     -12104.995    
    169500   303.91298     -162.08035      60117.8        0.94235618     3766.5538      4695.3153     -928.76155      1759.5371      2337.4867      1543.6046     -1085.935       6580.8499     -12102.413    
    170000   300.16711      46.61345       60066.246      0.94316499     3688.2104      4637.4434     -949.23297      1741.4762      2381.4022      1478.207      -1083.0885      6604.4284     -12105.987    
    170500   292.69571      109.81756      60153.59       0.94179551     3680.9653      4522.0137     -841.04834      1797.5986      2407.4679      1545.6853     -1177.2896      6643.1627     -12095.916    
    171000   293.83319     -1503.0384      60205.039      0.94099068     3660.4364      4539.5872     -879.15082      1786.8806      2384.8497      1504.4425     -1094.4015      6597.2849     -12092.937    
    171500   299.67735      671.29157      60470.248      0.93686371     3800.1782      4629.8768     -829.69863      1788.2688      2411.9942      1497.105      -1065.4483      6604.9048     -12104.829    
    172000   303.1588      -244.39144      59767.07       0.9478862      3783.5176      4683.6636     -900.14597      1778.3004      2366.6993      1528.5786     -1118.8185      6609.4894     -12102.641    
    172500   299.06245     -49.195782      59950.686      0.94498302     3709.669       4620.3768     -910.7078       1716.8565      2403.498       1509.6203     -1086.5241      6607.7015     -12097.868    
    173000   296.47186     -462.3121       59914.857      0.94554812     3633.2539      4580.3534     -947.09951      1765.3521      2361.6823      1487.7152     -1120.1421      6621.1159     -12099.039    
    173500   297.57748      576.18978      59946.365      0.94505114     3661.8695      4597.4348     -935.56529      1731.4864      2396.9665      1481.8461     -1125.0519      6651.8908     -12108.21     
    174000   295.89606      331.86346      60205.994      0.94097576     3721.6451      4571.4575     -849.81245      1772.0337      2406.9698      1502.6456     -1086.7855      6617.6794     -12100.215    
    174500   301.37065      47.386077      59822.311      0.94701089     3744.9738      4656.0375     -911.06373      1735.2306      2422.1733      1514.6483     -1093.4647      6571.675      -12099.841    
    175000   304.57254     -858.52909      59865.082      0.9463343      3836.4592      4705.5052     -869.046        1831.6032      2405.5151      1483.9421     -1108.9699      6589.0822     -12105.857    
    175500   300.65903     -61.234631      60075.107      0.94302588     3789.2495      4645.0433     -855.79378      1778.1577      2400.5058      1511.6526     -1124.1116      6645.2961     -12103.887    
    176000   296.49228      416.52791      60250.997      0.94027291     3687.2509      4580.6689     -893.41803      1723.161       2421.1305      1479.7138     -1135.9255      6678.4451     -12094.784    
    176500   298.49216      1080.1754      60248.461      0.94031249     3651.6967      4611.5661     -959.86942      1691.4719      2415.0566      1486.8422     -1092.1007      6603.131      -12100.399    
    177000   301.13318      65.589233      59888.391      0.94596598     3740.5405      4652.3687     -911.82817      1700.1385      2422.226       1510.1482     -1085.6983      6603.6747     -12098.321    
    177500   302.25442      215.10524      60348.967      0.93874649     3794.1295      4669.6912     -875.56174      1751.6724      2384.6364      1499.8965     -1086.7199      6638.2418     -12099.529    
    178000   300.92374      673.16199      60335.16       0.9389613      3739.8184      4649.1329     -909.31456      1728.2142      2399.9496      1505.5935     -1057.0576      6580.9635     -12103.714    
    178500   300.41912      122.66213      59915.338      0.94554053     3669.8342      4641.3367     -971.50255      1751.4663      2376.4938      1465.4261     -1095.0643      6594.3243     -12098.258    
    179000   295.03726     -378.45289      59613.571      0.95032691     3601.5653      4558.1895     -956.62421      1731.5964      2359.5726      1538.6204     -1128.1991      6595.7461     -12090.684    
    179500   298.22467     -571.99692      60204.179      0.94100412     3664.2189      4607.4335     -943.21457      1700.4929      2408.4055      1497.0323     -1130.1867      6644.4493     -12100.897    
    180000   298.67987      264.21713      60009.249      0.94406082     3694.8865      4614.4661     -919.57968      1731.0519      2448.9589      1497.3065     -1104.7299      6579.9491     -12105.86     
    180500   305.6474       469.17414      59828.718      0.94690948     3837.0399      4722.1112     -885.07133      1734.6501      2410.9055      1530.8693     -1146.6563      6648.6313     -12101.932    
    181000   303.7662      -512.25461      59973.151      0.94462905     3786.7749      4693.0477     -906.27278      1745.4156      2407.6688      1507.9468     -1143.4645      6635.8944     -12096.467    
    181500   296.8754       24.913052      60094.043      0.94272872     3671.0399      4586.588      -915.54812      1736.2821      2433.4259      1504.1899     -1111.2933      6590.8947     -12104.376    
    182000   295.92722     -226.53911      60615.695      0.93461571     3633.0835      4571.9391     -938.85555      1747.5411      2410.5028      1496.8823     -1137.7731      6616.926      -12106.991    
    182500   292.36357      986.6188       60147.896      0.94188465     3507.9035      4516.8822     -1008.9787      1709.4118      2318.8805      1509.1343     -1097.6404      6614.5798     -12101.009    
    183000   298.69202     -557.78653      60459.749      0.9370264      3743.0365      4614.6539     -871.6174       1766.4225      2452.1237      1482.5057     -1104.8722      6601.1268     -12102.525    
    183500   305.9834       684.31012      60410.398      0.93779188     3798.9101      4727.3024     -928.39223      1719.9384      2381.3664      1502.4279     -1093.5205      6624.5149     -12100.895    
    184000   297.35118     -95.363245      60330.533      0.93903331     3745.2416      4593.9385     -848.6969       1773.5395      2435.3686      1493.4164     -1084.5672      6594.1601     -12097.645    
    184500   294.56453      889.78671      60219.245      0.94076869     3621.4811      4550.886      -929.40485      1692.2013      2447.5395      1492.3497     -1075.0515      6588.3332     -12110.824    
    185000   297.66601     -278.3489       60453.336      0.9371258      3697.8818      4598.8026     -900.9208       1747.6159      2382.193       1529.7648     -1091.5979      6595.181      -12101.83     
    185500   295.17995      384.37235      60073.647      0.9430488      3790.9036      4560.394      -769.49035      1715.4965      2490.2513      1526.4998     -1061.0847      6626.2044     -12102.254    
    186000   306.01912      242.76421      60366.265      0.93847748     3833.8355      4727.8541     -894.01865      1791.463       2393.8973      1500.0597     -1127.2059      6620.0832     -12108.04     
    186500   295.93556      404.01137      60567.524      0.93535903     3728.232       4572.0678     -843.83581      1753.6147      2403.6143      1511.0905     -1080.0392      6623.2053     -12093.33     
    187000   303.89213      84.915466      60368.637      0.93844062     3691.1341      4694.9931     -1003.859       1700.6546      2388.6386      1504.4788     -1154.6206      6616.553      -12096.869    
    187500   295.62304     -907.40929      60235.859      0.94050922     3660.375       4567.2395     -906.86448      1709.584       2397.7739      1552.0245     -1101.6072      6600.2664     -12102.146    
    188000   299.06121     -625.49323      60666.797      0.93382844     3589.3238      4620.3577     -1031.0339      1721.8272      2385.5562      1485.7262     -1183.2093      6619.7402     -12095.863    
    188500   297.98828     -679.42039      60220.465      0.94074964     3532.9321      4603.7814     -1070.8494      1662.8285      2380.0132      1498.3101     -1132.2513      6589.1969     -12105.723    
    189000   299.89624      225.24475      59367.214      0.9542705      3691.5831      4633.2585     -941.67545      1724.9611      2371.9648      1512.822      -1063.0192      6572.6969     -12100.717    
    189500   298.70359     -451.81881      60040.075      0.94357612     3770.8544      4614.8326     -843.97822      1716.122       2477.4924      1510.3317     -1116.2245      6633.8233     -12102.748    
    190000   301.28712     -2015.6569      60646.225      0.93414521     3719.2983      4654.7469     -935.44863      1779.0352      2379.3696      1506.5005     -1150.9334      6604.1376     -12093.892    
    190500   300.56114      485.82052      60236.297      0.94050238     3794.8993      4643.5309     -848.63152      1762.5092      2416.2922      1511.6578     -1081.9199      6607.2158     -12099.343    
    191000   302.93168     -1104.4951      60747.816      0.932583       3874.603       4680.1546     -805.55161      1777.8493      2459.4884      1512.1308     -1167.7186      6662.0043     -12086.414    
    191500   298.96449      113.0425       60020.184      0.94388882     3710.299       4618.8633     -908.56432      1730.0218      2428.9411      1532.1469     -1150.3955      6618.3417     -12103.941    
    192000   295.47189     -1158.0738      60443.836      0.93727308     3665.9902      4564.9043     -898.91404      1769.6658      2390.6602      1515.6986     -1156.8044      6643.9762     -12098.764    
    192500   296.80007      822.6426       60187.189      0.94126975     3660.0654      4585.4241     -925.35868      1761.6895      2376.072       1518.5756     -1097.3923      6581.6835     -12103.491    
    193000   298.74734      524.71601      60475.142      0.93678789     3754.7701      4615.5085     -860.73841      1742.7173      2405.7376      1528.9128     -1095.8326      6621.744      -12100.81     
    193500   299.23612      143.53033      60356.096      0.9386356      3749.6848      4623.06       -873.3752       1733.5115      2405.5853      1524.7522     -1133.5101      6662.565      -12103.071    
    194000   302.59188     -565.09282      60341.68       0.93885985     3745.4679      4674.9048     -929.43691      1778.5242      2322.4103      1533.2122     -1100.4206      6603.6427     -12102.859    
    194500   299.56363      839.99449      60383.103      0.93821579     3677.4447      4628.1199     -950.67517      1694.6516      2374.3008      1528.0176     -1133.0293      6648.3806     -12099.579    
    195000   296.92337     -176.42581      60337.549      0.93892412     3679.5489      4587.329      -907.78014      1736.49        2394.9895      1544.4731     -1094.7349      6575.1468     -12101.622    
Loop time of 1873.3 on 1 procs for 100000 steps with 5184 atoms

Performance: 4.612 ns/day, 5.204 hours/ns, 53.382 timesteps/s, 276.731 katom-step/s
99.3% CPU use with 1 MPI tasks x 1 OpenMP threads

MPI task timing breakdown:
Section |  min time  |  avg time  |  max time  |%varavg| %total
---------------------------------------------------------------
Pair    | 1479.5     | 1479.5     | 1479.5     |   0.0 | 78.98
Bond    | 85.903     | 85.903     | 85.903     |   0.0 |  4.59
Kspace  | 137.7      | 137.7      | 137.7      |   0.0 |  7.35
Neigh   | 137.93     | 137.93     | 137.93     |   0.0 |  7.36
Comm    | 5.8319     | 5.8319     | 5.8319     |   0.0 |  0.31
Output  | 0.068135   | 0.068135   | 0.068135   |   0.0 |  0.00
Modify  | 25.303     | 25.303     | 25.303     |   0.0 |  1.35
Other   |            | 1.118      |            |       |  0.06

Nlocal:           5184 ave        5184 max        5184 min
Histogram: 1 0 0 0 0 0 0 0 0 0
Nghost:          17847 ave       17847 max       17847 min
Histogram: 1 0 0 0 0 0 0 0 0 0
Neighs:    1.68054e+06 ave 1.68054e+06 max 1.68054e+06 min
Histogram: 1 0 0 0 0 0 0 0 0 0

Total # of neighbors = 1680543
Ave neighs/atom = 324.17882
Ave special neighs/atom = 11.135802
Neighbor list builds = 3426
Dangerous builds = 0

# Averages over the production window only, so the compression transient does
# not contaminate the reported density.
variable        dens equal density
variable        vol_ equal vol
fix             avg_dens all ave/time 500 40 20000 v_dens v_vol_ file dry_density.dat
run             100000
PPPM initialization ...
  using 12-bit tables for long-range coulomb
  G vector (1/distance) = 0.23718042
  grid = 15 15 15
  stencil order = 5
  estimated absolute RMS force accuracy = 0.016795648
  estimated relative force accuracy = 5.0579594e-05
  using double precision FFTW3
  3d grid and FFT values/proc = 8000 3375
Generated 21 of 21 mixed pair_coeff terms from arithmetic mixing rule
Per MPI rank memory allocation (min/avg/max) = 49.06 | 49.06 | 49.06 Mbytes
   Step          Temp          Press          Volume        Density         TotEng         KinEng         PotEng         E_bond        E_angle        E_dihed         E_vdwl         E_coul         E_long    
    195000   296.92337     -176.42825      60337.549      0.93892412     3679.5504      4587.329      -907.77864      1736.49        2394.9895      1544.4731     -1094.7349      6574.7183     -12101.192    
    195500   301.03083      687.01207      59965.753      0.94474558     3711.1146      4650.7873     -939.67272      1713.5129      2405.7519      1524.8097     -1118.4599      6595.194      -12099.005    
    196000   302.42556      178.76801      60158.003      0.94172642     3736.6959      4672.3354     -935.6395       1692.2985      2396.3492      1524.334      -1119.5099      6625.6619     -12091.684    
    196500   299.73356     -338.81051      60412.318      0.93776208     3697.5394      4630.7451     -933.20574      1767.2578      2364.5872      1486.9552     -1082.6895      6591.346      -12096.119    
    197000   299.02006      57.931208      60009.49       0.94405702     3709.3768      4619.722      -910.34517      1720.2869      2389.0063      1507.1222     -1079.5339      6612.1919     -12098.045    
    197500   297.59927     -1079.2494      60180.314      0.94137728     3756.9408      4597.7714     -840.83062      1810.0685      2409.0283      1514.5411     -1083.9504      6577.0493     -12102.656    
    198000   305.37219      860.88695      60126.113      0.94222589     3839.3752      4717.8593     -878.48411      1802.5927      2368.1843      1510.4701     -1089.3364      6592.2085     -12099.122    
    198500   303.73117      137.92678      60599.644      0.93486326     3767.5442      4692.5064     -924.96229      1706.6382      2396.8695      1507.5093     -1145.3219      6657.1272     -12082.344    
    199000   301.14375     -978.28765      60214.937      0.94083599     3661.0432      4652.5319     -991.48871      1725.8219      2367.8549      1501.9245     -1110.0085      6589.9171     -12103.093    
    199500   301.3795       1153.3858      60225.863      0.94066532     3786.5888      4656.1742     -869.58542      1747.3941      2414.3904      1507.9639     -1110.0015      6633.4667     -12099.097    
    200000   301.44339      1879.8207      60463.411      0.93696964     3712.2168      4657.1612     -944.94436      1711.3642      2350.5982      1488.5856     -1030.5232      6595.9897     -12094.101    
    200500   301.06852      1293.6884      60063.44       0.94320905     3643.0115      4651.3696     -1008.3582      1665.5175      2372.9135      1497.8831     -1090.2485      6608.823      -12098.435    
    201000   302.23926      225.27595      60050.283      0.94341571     3807.3321      4669.457      -862.12496      1764.6027      2377.1857      1491.6156     -1044.3126      6608.8006     -12097.328    
    201500   305.66677     -422.66566      60355.271      0.93864843     3844.4605      4722.4105     -877.94997      1756.7813      2407.7966      1493.2118     -1117.265       6648.5882     -12103.824    
    202000   291.91185     -414.33502      60080.597      0.94293971     3608.8481      4509.9034     -901.05525      1761.0596      2407.6907      1521.8296     -1113.1744      6585.8365     -12100.209    
    202500   298.12492      818.28684      60407.026      0.93784423     3627.1154      4605.8925     -978.77712      1664.6059      2392.8117      1502.9664     -1086.1899      6612.7873     -12101.281    
    203000   298.25888     -1044.1957      59914.923      0.94554708     3628.7777      4607.9621     -979.18439      1751.5682      2363.9365      1490.1386     -1090.6634      6575.2277     -12104.034    
    203500   302.81211      1311.2513      60185.764      0.94129204     3734.9589      4678.3074     -943.34847      1706.4577      2433.3678      1466.9475     -1079.8363      6600.4735     -12106.324    
    204000   296.00176      319.24093      60097.496      0.94267457     3697.4672      4573.0905     -875.62333      1757.2745      2400.2602      1528.5703     -1094.6413      6590.5276     -12095.311    
    204500   301.07793      708.38695      59904.527      0.94571118     3618.4799      4651.5151     -1033.0352      1715.9726      2390.6079      1463.5385     -1034.604       6509.1692     -12111.671    
    205000   294.49312      355.59916      60608.05       0.93473359     3684.8861      4549.7828     -864.89677      1757.749       2455.9361      1468.1866     -1110.8315      6636.4225     -12106.067    
    205500   305.62599     -904.95706      60079.389      0.94295867     3786.9049      4721.7805     -934.87557      1735.018       2429.9754      1494.688      -1108.866       6573.1651     -12095.126    
    206000   300.81248      597.23372      60071.119      0.94308849     3742.131       4647.414      -905.28293      1732.0135      2431.8869      1499.6378     -1112.6705      6610.2178     -12101.601    
    206500   294.3373      -63.348579      60157.368      0.94173636     3641.682       4547.3754     -905.69338      1753.0802      2410.2933      1531.6748     -1153.3749      6604.2069     -12089.919    
    207000   293.56245      44.465215      60586.005      0.93507372     3589.2918      4535.4043     -946.1125       1718.924       2395.8556      1509.0238     -1165.0472      6655.3344     -12094.052    
    207500   300.1293      -1291.3823      60587.692      0.93504767     3811.1012      4636.8592     -825.75796      1794.0178      2417.7683      1533.2205     -1131.5116      6618.3177     -12094.579    
    208000   301.24372     -187.94978      60522.102      0.93606101     3693.9435      4654.0764     -960.13284      1774.4932      2340.0855      1499.3432     -1178.5754      6654.7174     -12085.723    
    208500   301.94774      1189.9676      60257.853      0.94016593     3654.7174      4664.9532     -1010.2357      1696.396       2340.2305      1496.9196     -1104.9914      6627.9935     -12101.778    
    209000   299.95738     -418.20935      60608.089      0.93473299     3630.2536      4634.2031     -1003.9495      1754.6243      2299.3656      1487.053      -1096.0874      6621.4498     -12104.953    
    209500   295.44052     -676.19572      60254.557      0.94021736     3627.1121      4564.4197     -937.30759      1723.1473      2382.724       1546.4379     -1167.5351      6632.4242     -12091.555    
    210000   302.45808      611.64328      60422.921      0.93759751     3751.1221      4672.8377     -921.71556      1713.5909      2414.6218      1487.391      -1093.5941      6604.2769     -12082.759    
    210500   300.50091     -1291.3902      60632.213      0.93436109     3727.4843      4642.6004     -915.11615      1764.7247      2360.6705      1531.647      -1110.0279      6603.8985     -12102.487    
    211000   297.88094      735.15961      60222.056      0.94072478     3604.4575      4602.123      -997.66557      1750.1182      2361.9782      1504.7711     -1079.3557      6530.6621     -12099.801    
    211500   299.40024      1213.987       60098.862      0.94265313     3633.8419      4625.5956     -991.75372      1717.984       2355.1864      1514.881      -1105.2705      6578.9901     -12089.061    
    212000   304.32176     -526.61017      60469.535      0.93687475     3733.7591      4701.6308     -967.8717       1828.5309      2339.5974      1475.4317     -1130.7105      6579.3045     -12095.915    
    212500   294.80103      89.022562      60221.183      0.94073843     3572.6599      4554.5399     -981.88002      1728.1754      2362.6654      1516.0941     -1063.0059      6543.8893     -12105.875    
    213000   302.42734     -660.74992      60421.671      0.93761691     3771.9279      4672.3629     -900.43499      1790.6172      2369.4086      1512.4857     -1094.2215      6586.4134     -12103.278    
    213500   298.60674      1314.9479      59696.878      0.94900073     3657.2389      4613.3363     -956.0974       1682.8148      2432.5937      1488.1375     -1094.8023      6606.5114     -12106.961    
    214000   300.39244      426.36318      60596.499      0.93491178     3646.2468      4640.9245     -994.67776      1699.4343      2326.53        1524.0708     -1109.7178      6630.8925     -12102.884    
    214500   303.39588      222.40152      59907.692      0.94566121     3753.2794      4687.3264     -934.04692      1768.2743      2382.3739      1488.361      -1130.9481      6625.0124     -12102.044    
    215000   305.54384      682.23534      59851.175      0.94655419     3760.6225      4720.5113     -959.88881      1713.1652      2428.659       1488.7428     -1135.3233      6615.1672     -12107.203    
    215500   301.02819      26.767262      60264.17       0.94006739     3694.8202      4650.7466     -955.92638      1724.2024      2391.0901      1520.1422     -1129.4612      6610.2455     -12110.827    
    216000   298.28772      203.13487      60443.574      0.93727715     3711.9207      4608.4077     -896.48701      1717.6594      2443.894       1498.5184     -1093.7465      6605.4572     -12103.19     
    216500   297.90451      969.85906      60210.969      0.940898       3732.9846      4602.4871     -869.50257      1780.1119      2438.0996      1464.3447     -1101.611       6618.8551     -12102.412    
    217000   299.04156      3.1690785      59781.283      0.94766083     3734.4829      4620.0542     -885.57122      1758.9737      2424.8478      1520.1929     -1113.7295      6581.3245     -12096.023    
    217500   297.41576      1178.7226      59867.432      0.94629716     3625.6027      4594.9362     -969.33345      1716.1474      2390.9254      1471.5563     -1112.7175      6619.8355     -12089.505    
    218000   304.96724      1574.9707      60103.307      0.94258342     3751.7802      4711.6032     -959.82293      1705.373       2381.6535      1515.8334     -1106.9875      6609.1913     -12099.821    
    218500   301.47802      933.84999      59893.545      0.94588458     3793.9614      4657.6963     -863.73483      1769.0784      2404.4378      1530.2193     -1123.5816      6620.2744     -12100.221    
    219000   299.17476      546.65324      59583.558      0.9508056      3702.8201      4622.1119     -919.29186      1772.5958      2382.1458      1528.1977     -1076.4269      6547.6898     -12110.409    
    219500   297.53349      1144.1443      60288.038      0.93969521     3713.3466      4596.7551     -883.40848      1748.3767      2445.3521      1490.289      -1119.1746      6616.7835     -12100.375    
    220000   301.3773      -875.48792      60043.797      0.94351762     3773.6046      4656.1403     -882.53564      1767.47        2469.5253      1497.4972     -1176.6497      6620.4636     -12096.707    
    220500   297.98383     -138.91624      60092.995      0.94274517     3758.2501      4603.7127     -845.46258      1787.9481      2422.7478      1497.8221     -1109.6668      6627.0932     -12106.693    
    221000   292.42684      51.494236      60089.766      0.94279582     3489.5728      4517.8597     -1028.2869      1715.7373      2322.3985      1486.6941     -1143.8513      6655.5234     -12098.133    
    221500   296.15015      725.22097      60004.634      0.94413342     3597.4353      4575.3832     -977.94791      1743.6751      2349.3031      1510.9999     -1120.0867      6605.9251     -12106.142    
    222000   300.24723      10.690911      60251.962      0.94025786     3677.935       4638.6811     -960.74611      1776.2493      2398.3226      1480.0846     -1136.4151      6585.8785     -12100.622    
    222500   304.0339       834.73407      59732.674      0.94843202     3733.4688      4697.1834     -963.71464      1733.9095      2370.7204      1508.736      -1102.4579      6595.9429     -12104.611    
    223000   303.32569      652.13575      60003.238      0.94415538     3803.4667      4686.242      -882.77531      1816.8363      2383.565       1504.6189     -1124.623       6600.4455     -12099.061    
    223500   299.1575       52.242551      60403.963      0.93789178     3693.7537      4621.8453     -928.09159      1721.8302      2406.6551      1499.0788     -1132.1931      6648.9972     -12108.943    
    224000   300.77375      76.778265      59937.009      0.94519866     3622.1289      4646.8156     -1024.6867      1666.1292      2390.7907      1502.8753     -1124.4237      6606.0559     -12103.203    
    224500   298.48496     -24.116417      60062.572      0.94322269     3532.6407      4611.4548     -1078.8141      1715.4052      2298.7264      1488.4344     -1116.991       6599.7973     -12099.474    
    225000   300.15948      392.66564      60107.858      0.94251206     3774.623       4637.3255     -862.7025       1789.0861      2436.3421      1514.9478     -1146.1158      6608.6374     -12103.646    
    225500   298.9685       923.0817       59597.53       0.9505827      3691.0517      4618.9254     -927.87371      1798.0055      2361.941       1490.5489     -1080.443       6554.2782     -12090.581    
    226000   294.84288      354.8775       59908.252      0.94565237     3655.0558      4555.1865     -900.13071      1736.8338      2394.2249      1511.8848     -1116.3793      6636.247      -12098.676    
    226500   299.26439     -261.35639      60196.672      0.94112147     3728.2252      4623.4967     -895.2715       1787.5368      2414.7126      1501.9379     -1120.9829      6590.418      -12102.554    
    227000   302.75053      156.70096      60027.372      0.94377579     3778.3357      4677.356      -899.02031      1752.0763      2437.4507      1506.9463     -1159.8614      6628.2313     -12099.663    
    227500   305.12677      590.51262      60163.634      0.94163828     3833.3428      4714.0678     -880.72499      1768.0763      2395.6675      1510.0471     -1090.1111      6590.9325     -12092.092    
    228000   294.78409      1045.9683      59519.608      0.95182718     3631.0039      4554.2781     -923.27426      1785.4871      2407.5663      1526.7338     -1115.8748      6538.7243     -12105.605    
    228500   297.71623     -1142.0891      60483.787      0.93665399     3624.5202      4599.5783     -975.05814      1754.09        2413.616       1502.4148     -1156.9834      6580.4728     -12104.228    
    229000   300.89768      1193.657       60019.738      0.94389583     3688.8436      4648.7303     -959.8867       1731.8474      2383.3051      1477.8028     -1126.2683      6652.1844     -12114.197    
    229500   305.04372      527.01252      59820.339      0.94704212     3756.8503      4712.7847     -955.93443      1753.919       2383.3943      1518.2216     -1160.0144      6616.1699     -12102.459    
    230000   298.46322     -35.613101      59877.31       0.94614104     3649.8919      4611.119      -961.22706      1730.0989      2389.5385      1484.2846     -1088.0926      6593.9288     -12106.078    
    230500   297.29947      903.42365      60111.275      0.94245847     3601.3872      4593.1395     -991.75237      1789.0465      2297.474       1493.3215     -1119.7448      6607.4116     -12095.954    
    231000   297.9384       46.3759        59728.968      0.94849087     3693.7386      4603.0108     -909.2722       1842.1416      2395.8414      1493.8489     -1130.9254      6557.3998     -12104.325    
    231500   304.65023      73.313125      59853.444      0.94651831     3698.1218      4706.7055     -1008.5837      1749.5728      2407.3106      1460.1748     -1108.4269      6558.8362     -12109.551    
    232000   304.76748     -156.86201      60088.795      0.94281106     3723.285       4708.517      -985.23197      1739.7007      2436.7629      1463.312      -1139.7508      6579.8567     -12101.46     
    232500   302.11202      462.61236      59836.694      0.94678326     3775.8992      4667.4912     -891.59199      1789.1257      2433.4462      1477.3555     -1096.1771      6573.1207     -12103.128    
    233000   305.75897     -483.34714      59539.053      0.95151632     3838.7854      4723.835      -885.04965      1824.7029      2392.9313      1523.2409     -1120.0964      6555.6765     -12098.152    
    233500   301.72143      2.9362353      59443.075      0.95305265     3771.3148      4661.4569     -890.14211      1780.3175      2389.6775      1501.3791     -1089.0824      6596.0762     -12108.445    
    234000   296.69543     -8.4456897      59811.983      0.94717442     3689.0093      4583.8074     -894.7981       1757.9495      2386.8799      1552.5452     -1134.3537      6600.2501     -12099.272    
    234500   298.48481      524.33421      59303.509      0.95529559     3645.5755      4611.4525     -965.87695      1810.4597      2358.7997      1509.3236     -1135.581       6546.6446     -12092.111    
    235000   301.58982      537.81128      59444.931      0.9530229      3655.8507      4659.4236     -1003.5729      1726.12        2393.6538      1486.3405     -1117.3419      6572.25       -12098.851    
    235500   297.99849     -850.94734      59643.661      0.94984747     3604.0766      4603.9391     -999.86253      1777.8609      2361.0065      1488.8733     -1159.0913      6578.2342     -12082.827    
    236000   300.19313      202.92018      59456.084      0.95284413     3696.5389      4637.8453     -941.30633      1795.6264      2384.3552      1516.8596     -1184.7994      6611.4909     -12101.95     
    236500   298.83291     -596.78137      59901.349      0.94576135     3692.3681      4616.8305     -924.46246      1793.2439      2398.5208      1492.3986     -1130.3107      6593.6405     -12106.104    
    237000   297.87154      110.61862      59652.418      0.94970804     3588.1832      4601.9779     -1013.7947      1730.1512      2375.2083      1490.8692     -1096.4317      6550.5642     -12101.742    
    237500   302.167        2050.3415      59503.455      0.95208556     3630.0346      4668.3407     -1038.3061      1692.2999      2371.4093      1462.5485     -1119.6785      6609.1216     -12088.545    
    238000   299.51904     -411.06588      59348.204      0.95457615     3732.7271      4627.431      -894.7039       1825.9481      2364.2115      1520.0716     -1081.8039      6538.4802     -12097.141    
    238500   306.78259     -924.1318       59504.54       0.9520682      3771.0917      4739.6494     -968.55765      1788.4629      2378.4207      1477.4395     -1132.254       6580.8016     -12099.047    
    239000   301.77977     -325.65763      59880.136      0.94609638     3810.9322      4662.3582     -851.42599      1816.5895      2399.2877      1512.1853     -1131.9245      6615.3936     -12099.853    
    239500   300.7506      -1696.1755      59323.304      0.95497683     3668.3924      4646.458      -978.06565      1790.1601      2341.9308      1514.3719     -1157.3365      6589.9833     -12091.597    
    240000   301.72819     -125.95485      59535.544      0.95157241     3689.0765      4661.5612     -972.48477      1767.7701      2341.4354      1534.0531     -1156.5364      6607.1822     -12103.175    
    240500   292.9058       82.864559      59834.435      0.94681901     3583.3397      4525.2594     -941.91965      1736.4149      2408.8884      1496.4695     -1121.3201      6602.0399     -12098.355    
    241000   299.43903     -525.79137      59971.553      0.94465422     3640.0463      4626.1949     -986.14856      1776.5817      2319.5808      1508.2479     -1132.4081      6602.6496     -12095.702    
    241500   296.77653     -944.97011      59759.636      0.94800412     3638.3272      4585.0604     -946.73322      1780.3838      2390.1518      1530.6835     -1147.3471      6567.4015     -12105.228    
    242000   298.53321      449.94188      59416.39       0.95348068     3631.7567      4612.2003     -980.44359      1767.2089      2354.7603      1516.9239     -1151.8294      6601.7907     -12106.58     
    242500   296.92249     -913.79586      59303.691      0.95529265     3688.7952      4587.3155     -898.52026      1817.4346      2363.7041      1543.2243     -1150.546       6587.9009     -12097.492    
    243000   301.81277     -711.78504      59849.796      0.946576       3819.4946      4662.8681     -843.37348      1794.3887      2434.5227      1510.2615     -1126.6754      6609.7893     -12102.25     
    243500   301.8202      -341.5205       59532.884      0.95161491     3757.0384      4662.9829     -905.94443      1762.7899      2467.6832      1504.7088     -1126.8715      6549.224      -12099.046    
    244000   305.66248      77.771318      59284.434      0.95560295     3744.0953      4722.3442     -978.24896      1749.0766      2392.7372      1491.0738     -1112.0482      6568.4615     -12103.932    
    244500   302.56495      1170.2237      59186.849      0.95717852     3705.5771      4674.4888     -968.91169      1724.021       2412.9616      1490.5273     -1144.6274      6602.5905     -12093.999    
    245000   292.62754     -706.86745      59347.004      0.95459546     3625.3003      4520.9605     -895.66017      1811.9859      2419.8063      1499.1949     -1125.1305      6555.7351     -12093.748    
    245500   297.9976      -236.87131      59599.56       0.95055031     3649.8403      4603.9254     -954.08509      1759.4671      2464.116       1482.563      -1131.9383      6536.7671     -12099.544    
    246000   295.21296      298.67504      59666.896      0.94947758     3618.3585      4560.904      -942.54546      1768.7684      2353.3513      1557.5201     -1118.0968      6559.5888     -12100.75     
    246500   300.73922      234.20965      59503.921      0.9520781      3599.9698      4646.2822     -1046.3124      1724.1716      2318.9509      1519.0078     -1142.8746      6594.8759     -12096.238    
    247000   296.87339      255.08593      59810.068      0.94720475     3633.7459      4586.5568     -952.81088      1753.1676      2367.6822      1511.1733     -1121.4208      6606.5781     -12106.795    
    247500   296.78424     -861.67013      59821.703      0.94702053     3689.3482      4585.1795     -895.83137      1776.8589      2425.6315      1536.8068     -1111.8164      6538.4436     -12098.463    
    248000   305.77799     -94.125266      59861.245      0.94639496     3730.9878      4724.1288     -993.14098      1738.0337      2357.644       1510.2234     -1122.2952      6595.4887     -12109.06     
    248500   305.92646     -134.54655      60038.41       0.94360228     3721.514       4726.4226     -1004.9086      1736.4216      2395.0169      1480.0122     -1133.6244      6586.1704     -12103.706    
    249000   298.56369      677.15469      59608.664      0.95040514     3597.5446      4612.6712     -1015.1267      1718.4533      2368.1591      1501.6152     -1153.3334      6614.8077     -12100.276    
    249500   300.17245     -351.93354      59819.733      0.94705171     3613.6408      4637.5259     -1023.8851      1721.7535      2393.4489      1464.8026     -1130.295       6591.1817     -12099.382    
    250000   299.49843      311.94177      59698.241      0.94897906     3666.8664      4627.1125     -960.24611      1747.085       2389.9924      1491.0598     -1142.6147      6619.0156     -12099.934    
    250500   301.21845     -192.02494      59523.521      0.95176461     3694.9037      4653.686      -958.78235      1761.0546      2375.5013      1526.8384     -1164.1821      6607.1048     -12101.639    
    251000   298.95414     -450.29232      59577.173      0.95090749     3675.4506      4618.7035     -943.25286      1743.6236      2431.3986      1513.3444     -1094.3595      6537.0694     -12111.33     
    251500   301.03049     -143.76903      59730.051      0.94847366     3748.0602      4650.7822     -902.72204      1763.9136      2388.68        1510.152      -1113.0464      6609.4558     -12096.888    
    252000   297.44629      643.39934      59769.036      0.94785501     3692.1327      4595.408      -903.27524      1778.3684      2408.7595      1482.2508     -1076.2588      6571.5593     -12102.933    
    252500   300.46902     -354.10148      59821.898      0.94701743     3648.2466      4642.1077     -993.86111      1737.4405      2376.089       1516.2717     -1129.2185      6572.1283     -12102.42     
    253000   300.19092     -479.35779      59865.758      0.94632362     3651.4082      4637.8112     -986.40299      1744.2346      2345.067       1521.4094     -1135.7258      6593.542      -12090.682    
    253500   302.47199     -258.96265      59509.321      0.95199172     3747.194       4673.0526     -925.85859      1733.9776      2425.4277      1527.4131     -1101.3218      6560.8845     -12107.617    
    254000   300.99639      138.74208      59528.521      0.95168466     3693.9255      4650.2553     -956.3298       1751.8272      2384.8896      1504.6268     -1132.3321      6589.311      -12090.59     
    254500   293.49162     -241.06032      59689.078      0.94912474     3580.8104      4534.3101     -953.4997       1717.9229      2386.4655      1530.2681     -1150.5279      6631.5851     -12104.628    
    255000   294.64419     -359.38886      59572.865      0.95097626     3658.7294      4552.1167     -893.38727      1773.2128      2461.3468      1506.2592     -1126.7749      6562.2253     -12104.42     
    255500   299.80843     -92.151384      59183.188      0.95723774     3719.7499      4631.9019     -912.15198      1746.491       2439.4094      1520.8158     -1106.2609      6554.7706     -12105.269    
    256000   298.84944      103.40362      59599.475      0.95055166     3656.3899      4617.086      -960.69611      1695.9886      2388.4694      1549.1076     -1119.7732      6594.8949     -12105.945    
    256500   293.2032       449.08087      59653.794      0.94968612     3523.1902      4529.8541     -1006.6638      1796.9013      2344.2652      1494.9264     -1126.611       6553.7844     -12107.178    
    257000   302.96366      1399.3227      59692.487      0.94907054     3638.8611      4680.6488     -1041.7877      1702.3327      2357.9302      1471.4475     -1105.1211      6592.0891     -12094.565    
    257500   295.49563      615.50448      59775.898      0.94774621     3689.7098      4565.2711     -875.56128      1788.8703      2433.645       1511.6125     -1115.4484      6566.8094     -12098.502    
    258000   302.65974      408.69959      59175.26       0.95736597     3631.3167      4675.9533     -1044.6366      1724.3314      2383.3714      1491.0855     -1115.4385      6536.6988     -12102.307    
    258500   299.12409     -278.16603      60039.19       0.94359002     3616.9904      4621.3292     -1004.3388      1784.8015      2322.1547      1512.8719     -1135.138       6575.7805     -12102.275    
    259000   297.07039     -468.13164      59891.396      0.94591851     3639.0949      4589.6004     -950.50549      1771.3172      2370.7383      1512.1244     -1135.9572      6601.5144     -12106.746    
    259500   296.30337      26.313424      59133.484      0.95804232     3551.4811      4577.7503     -1026.2692      1760.6346      2334.2309      1502.4411     -1120.966       6558.2756     -12097.814    
    260000   302.38869      767.9842       59384.366      0.95399488     3678.3097      4671.7657     -993.456        1740.7144      2403.79        1495.2342     -1120.177       6560.9867     -12110.315    
    260500   300.87424      1467.7775      59330.707      0.95485767     3749.5908      4648.3681     -898.77733      1768.1684      2420.0647      1501.3253     -1081.7483      6553.9652     -12097.559    
    261000   300.11995     -530.57391      59839.852      0.9467333      3701.1535      4636.7147     -935.56119      1777.8181      2339.6133      1528.5788     -1131.0232      6613.0006     -12099.596    
    261500   298.93817      444.14065      59804.018      0.94730058     3644.8854      4618.4568     -973.57135      1739.0366      2420.6155      1493.9326     -1112.8401      6560.1891     -12111.371    
    262000   296.7192       72.885077      59685.9        0.94917527     3641.5843      4584.1748     -942.59044      1787.9633      2402.5266      1505.6978     -1166.6373      6591.262      -12100.938    
    262500   303.30366      905.35339      59136.24       0.95799767     3789.8772      4685.9016     -896.02441      1774.7595      2433.3409      1498.0497     -1080.6149      6545.9785     -12101.077    
    263000   304.42886     -211.48161      59930.583      0.94530001     3765.5435      4703.2854     -937.74191      1764.2289      2373.8855      1555.8178     -1144.2443      6566.9142     -12092.753    
    263500   294.57506     -68.435266      59485.568      0.95237185     3592.8572      4551.0488     -958.1916       1759.5018      2404.8899      1488.4939     -1111.1555      6575.4514     -12110.858    
    264000   296.52284      377.24593      59665.044      0.94950706     3572.4079      4581.141      -1008.7331      1714.8752      2424.7869      1486.386      -1113.507       6550.5828     -12105.596    
    264500   302.05443     -186.24426      59373.069      0.95417639     3696.8083      4666.6016     -969.79331      1744.1799      2415.5769      1509.2661     -1058.6318      6496.624      -12111.941    
    265000   302.81335     -1091.1599      59966.499      0.94473384     3753.3793      4678.3265     -924.94717      1808.8469      2381.0687      1506.4354     -1162.5967      6608.2457     -12103.784    
    265500   301.04449     -1195.7291      59782.595      0.94764003     3663.2611      4650.9985     -987.73734      1780.2187      2363.3489      1518.5396     -1142.2338      6563.3164     -12109.182    
    266000   301.38594      166.91195      59649.349      0.94975689     3655.6676      4656.2737     -1000.6061      1745.8985      2327.2158      1523.0718     -1057.2011      6520.1971     -12097.542    
    266500   300.99007      249.21432      59984.845      0.94444489     3731.6018      4650.1577     -918.5559       1772.6038      2375.5028      1532.539      -1127.525       6589.7497     -12100.961    
    267000   306.5449      -545.21882      59998.189      0.94423483     3804.671       4735.9772     -931.30624      1800.3187      2344.7031      1522.0988     -1189.1885      6646.6981     -12092.164    
    267500   298.80905      328.53888      59629.723      0.95006948     3708.061       4616.4619     -908.40085      1759.5743      2433.2246      1508.1101     -1103.645       6568.5064     -12110.926    
    268000   300.75382     -576.68148      59331.383      0.95484679     3697.4682      4646.5077     -949.03957      1761.604       2401.0069      1510.215      -1106.4626      6556.968      -12108.181    
    268500   296.34797      651.16506      59934.697      0.94523512     3584.6672      4578.4394     -993.7722       1678.1637      2396.8998      1526.2895     -1147.8322      6612.0274     -12095.587    
    269000   300.1042      -485.49708      59520.1        0.95181932     3601.7755      4636.4714     -1034.696       1753.9003      2352.1402      1494.362      -1142.2656      6571.036      -12099.471    
    269500   302.18009     -174.89595      59507.818      0.95201576     3724.4889      4668.543      -944.05409      1777.1054      2406.2834      1492.7322     -1133.9329      6586.2292     -12107.229    
    270000   295.03221     -239.17153      59736.042      0.94837855     3662.8469      4558.1116     -895.26467      1736.9329      2433.39        1528.7744     -1154.1646      6616.3626     -12092.595    
    270500   295.79897      700.85128      59807.844      0.94723998     3542.2118      4569.9575     -1027.7457      1700.7086      2315.5735      1523.9655     -1130.2022      6621.761      -12096.677    
    271000   294.57926     -1661.02        59918.29       0.94549394     3603.1823      4551.1137     -947.93143      1777.9444      2344.0414      1518.7882     -1092.5458      6563.4613     -12097.363    
    271500   300.90943      555.31684      59657.339      0.94962969     3625.9278      4648.9118     -1022.984       1734.5772      2310.4074      1499.5355     -1103.3923      6597.6029     -12099.157    
    272000   303.5046       2117.1814      59793.713      0.94746383     3660.1257      4689.006      -1028.8802      1758.2905      2372.9569      1447.8759     -1094.9961      6553.0285     -12098.522    
    272500   301.83592      4.9898711      60238.294      0.9404712      3723.3351      4663.2257     -939.89051      1776.3298      2379.5179      1475.7742     -1131.588       6615.1293     -12091.94     
    273000   299.18152     -589.83217      59632.723      0.95002169     3722.1605      4622.2164     -900.05596      1777.991       2432.6524      1511.8309     -1124.7482      6565.9646     -12099.934    
    273500   299.69417      751.55043      59644.696      0.94983099     3678.5585      4630.1367     -951.57815      1728.9013      2381.0531      1535.5938     -1095.8695      6561.015      -12101.956    
    274000   296.93068     -818.88229      59687.76       0.9491457      3620.256       4587.442      -967.18599      1776.6468      2403.5054      1502.7254     -1122.0554      6546.9018     -12110.183    
    274500   301.30448      361.67472      59787.005      0.94757014     3634.384       4655.0152     -1020.6312      1744.821       2342.3157      1500.8931     -1164.9683      6609.6525     -12089.464    
    275000   298.36335      1190.1405      59738.452      0.94834029     3647.2687      4609.576      -962.30725      1730.2676      2373.0073      1524.1675     -1087.6498      6559.2933     -12099.721    
    275500   305.09655     -516.86328      59760.601      0.94798881     3758.5256      4713.601      -955.07537      1754.6676      2393.0442      1513.5196     -1110.5579      6552.2112     -12095.683    
    276000   300.60396     -1344.5105      59467.619      0.95265931     3730.3262      4644.1925     -913.86628      1795.1926      2401.8776      1522.7864     -1182.716       6608.3822     -12096.505    
    276500   303.76533      148.19342      59938.367      0.94517724     3738.7928      4693.0341     -954.24132      1748.7204      2405.6291      1493.2201     -1128.8934      6596.2978     -12104.212    
    277000   303.74693     -345.30457      60226.282      0.94065877     3837.6566      4692.7499     -855.09332      1802.3061      2445.8324      1489.4913     -1116.9671      6586.2134     -12098.193    
    277500   303.12206      361.09781      59902.213      0.94574771     3728.3025      4683.0959     -954.7934       1771.0539      2369.2871      1485.3384     -1134.3152      6613.5245     -12093.899    
    278000   297.78547      1429.4678      59388.741      0.95392459     3642.5598      4600.6481     -958.08831      1738.0872      2398.2391      1505.1553     -1107.8229      6574.4343     -12102.156    
    278500   296.35061      260.59987      59549.287      0.95135279     3610.706       4578.4801     -967.77405      1734.7641      2366.2626      1489.4314     -1117.3235      6614.9548     -12090.906    
    279000   293.33284     -274.98278      59894.671      0.9458668      3581.26        4531.8571     -950.59708      1739.3014      2380.2001      1497.1818     -1099.9605      6587.5898     -12090.563    
    279500   305.80683     -550.75199      59565.931      0.95108696     3697.1116      4724.5744     -1027.4628      1767.6301      2313.47        1496.4347     -1083.852       6543.6686     -12101.245    
    280000   302.4072      -709.40158      59835.991      0.94679439     3708.4298      4672.0516     -963.62184      1767.756       2385.5988      1498.0464     -1129.9543      6572.4629     -12094.373    
    280500   301.52596      534.43156      60056.414      0.9433194      3744.8063      4658.437      -913.63072      1776.6588      2357.8997      1544.3447     -1123.4067      6598.9536     -12106.551    
    281000   299.01029     -321.2413       59909.677      0.94562988     3669.0476      4619.5709     -950.52331      1784.4731      2395.9218      1469.124      -1114.9503      6583.3081     -12102.644    
    281500   298.7004       19.84581       59668.456      0.94945276     3645.601       4614.7833     -969.18236      1758.8545      2365.4448      1531.8471     -1116.955       6563.5178     -12107.754    
    282000   301.64083     -14.145989      59558.192      0.95121055     3758.0943      4660.2117     -902.11742      1798.4655      2361.7316      1548.3434     -1128.5035      6573.6017     -12093.026    
    282500   303.02351     -1114.0993      59639.865      0.94990793     3813.234       4681.5734     -868.3394       1770.2118      2455.6718      1527.0137     -1141.9906      6578.9035     -12094.886    
    283000   300.38925      301.2036       60059.88       0.94326497     3744.3859      4640.8752     -896.48935      1751.6606      2394.4396      1508.6327     -1077.5434      6589.9466     -12101.444    
    283500   297.58296     -746.8375       59837.692      0.94676747     3606.1602      4597.5195     -991.35928      1755.2987      2380.102       1487.6097     -1135.5579      6588.3704     -12103.793    
    284000   298.38202      758.60968      59528.048      0.95169223     3562.1314      4609.8645     -1047.7332      1688.2567      2367.8998      1524.7013     -1129.4866      6565.5824     -12102.449    
    284500   293.89473     -557.47701      59865.908      0.94632125     3552.7781      4540.538      -987.75984      1777.5275      2329.0498      1509.454      -1124.7831      6581.3613     -12096.674    
    285000   297.19347      494.09933      59667.3        0.94947116     3649.1525      4591.5019     -942.34945      1778.8983      2357.7663      1512.1072     -1083.3371      6554.3627     -12097.949    
    285500   305.18335      864.79897      59801.201      0.94734519     3743.2212      4714.942      -971.72082      1785.3405      2347.796       1495.6763     -1103.377       6568.4556     -12101.813    
    286000   301.32814      6.7395372      59703.539      0.94889485     3638.7712      4655.3807     -1016.6095      1788.9107      2346.1759      1476.922      -1118.4111      6559.7291     -12105.607    
    286500   303.90853      1344.994       59818.023      0.94707879     3678.5848      4695.2465     -1016.6617      1683.7213      2395.8547      1502.6518     -1067.4875      6544.6954     -12112.082    
    287000   304.84435     -75.453237      59565.2        0.95109864     3590.9725      4709.7045     -1118.732       1719.1948      2346.9994      1464.3225     -1137.3714      6568.339      -12114.2      
    287500   296.74557     -899.26446      59874.221      0.94618986     3543.3421      4584.5822     -1041.2401      1724.6147      2323.5371      1518.9397     -1171.7417      6621.9626     -12093.158    
    288000   298.86236     -171.28672      59688.85       0.94912837     3585.4509      4617.2855     -1031.8346      1779.7523      2290.9396      1489.0153     -1140.888       6615.1329     -12101.428    
    288500   301.26123      60.845607      59597.403      0.95058473     3617.134       4654.347      -1037.2129      1728.2893      2362.4883      1482.92       -1112.851       6568.3758     -12100.638    
    289000   306.6213       1831.1405      59807.552      0.94724459     3850.3696      4737.1576     -886.78801      1705.8376      2471.8054      1474.3732     -1082.6508      6608.2143     -12099.27     
    289500   304.40222      32.372241      59445.941      0.9530067      3759.2458      4702.8738     -943.62799      1777.1399      2405.4958      1494.5741     -1115.2232      6557.3272     -12097.46     
    290000   295.07607      518.34991      59922.64       0.94542531     3710.845       4558.7891     -847.94411      1837.2126      2413.7524      1489.8519     -1125.3777      6603.5066     -12101.127    
    290500   303.25506      258.78808      59528.492      0.95168513     3689.041       4685.1507     -996.10969      1749.745       2386.5306      1489.7461     -1129.4353      6576.5668     -12105.353    
    291000   298.13605     -1521.4879      60297.098      0.93955402     3618.3538      4606.0644     -987.71067      1797.5876      2320.2575      1492.0738     -1169.2623      6636.4795     -12098.418    
    291500   295.35784      1145.9435      59605.751      0.95045159     3544.9681      4563.1423     -1018.1743      1676.4128      2392.77        1480.3137     -1122.7596      6623.7258     -12104.077    
    292000   301.75351     -253.99851      59519.861      0.95182314     3658.156       4661.9525     -1003.7965      1788.8645      2336.3152      1500.0187     -1111.5623      6550.8321     -12103.066    
    292500   299.31592      1473.5225      59443.37       0.95304793     3692.9114      4624.2928     -931.38134      1738.1228      2392.6863      1513.6964     -1101.808       6586.392      -12099.476    
    293000   297.96529      85.414536      59400.867      0.95372986     3709.5523      4603.4261     -893.87388      1765.1409      2465.9846      1517.2874     -1168.212       6584.9863     -12097.934    
    293500   299.32295      726.23492      59957.895      0.94486941     3704.976       4624.4015     -919.42548      1742.3663      2413.5499      1487.345      -1096.7124      6608.5961     -12107.846    
    294000   298.55016     -422.01196      59784.836      0.94760451     3639.1294      4612.4621     -973.33278      1774.7632      2367.6599      1515.475      -1138.0956      6572.8341     -12103.549    
    294500   289.92285     -271.90819      59124.107      0.95819427     3508.3197      4479.1742     -970.85448      1714.7972      2406.4374      1507.4258     -1131.8153      6595.793      -12099.721    
    295000   298.39832     -392.56757      59891.48       0.94591719     3628.8313      4610.1163     -981.28506      1774.8428      2358.7168      1498.7222     -1116.2069      6567.1192     -12102.311    
Loop time of 1907.08 on 1 procs for 100000 steps with 5184 atoms

Performance: 4.530 ns/day, 5.297 hours/ns, 52.436 timesteps/s, 271.829 katom-step/s
98.6% CPU use with 1 MPI tasks x 1 OpenMP threads

MPI task timing breakdown:
Section |  min time  |  avg time  |  max time  |%varavg| %total
---------------------------------------------------------------
Pair    | 1508.3     | 1508.3     | 1508.3     |   0.0 | 79.09
Bond    | 87.124     | 87.124     | 87.124     |   0.0 |  4.57
Kspace  | 139.33     | 139.33     | 139.33     |   0.0 |  7.31
Neigh   | 139.14     | 139.14     | 139.14     |   0.0 |  7.30
Comm    | 5.9799     | 5.9799     | 5.9799     |   0.0 |  0.31
Output  | 0.078893   | 0.078893   | 0.078893   |   0.0 |  0.00
Modify  | 25.908     | 25.908     | 25.908     |   0.0 |  1.36
Other   |            | 1.18       |            |       |  0.06

Nlocal:           5184 ave        5184 max        5184 min
Histogram: 1 0 0 0 0 0 0 0 0 0
Nghost:          17937 ave       17937 max       17937 min
Histogram: 1 0 0 0 0 0 0 0 0 0
Neighs:    1.68938e+06 ave 1.68938e+06 max 1.68938e+06 min
Histogram: 1 0 0 0 0 0 0 0 0 0

Total # of neighbors = 1689383
Ave neighs/atom = 325.88407
Ave special neighs/atom = 11.135802
Neighbor list builds = 3419
Dangerous builds = 0

# Written WITH coefficients: each stage reads the previous stage's data file, so
# the file has to be self-contained. `nocoeff` would force every downstream stage
# to re-derive the force field, and any drift between the two paths would be
# silent.
write_data      dry.data
System init for write_data ...
PPPM initialization ...
  using 12-bit tables for long-range coulomb
  G vector (1/distance) = 0.23740624
  grid = 15 15 15
  stencil order = 5
  estimated absolute RMS force accuracy = 0.016678342
  estimated relative force accuracy = 5.0226331e-05
  using double precision FFTW3
  3d grid and FFT values/proc = 8000 3375
Generated 21 of 21 mixed pair_coeff terms from arithmetic mixing rule
write_restart   dry.restart
System init for write_restart ...
PPPM initialization ...
  using 12-bit tables for long-range coulomb
  G vector (1/distance) = 0.23740624
  grid = 15 15 15
  stencil order = 5
  estimated absolute RMS force accuracy = 0.016678342
  estimated relative force accuracy = 5.0226331e-05
  using double precision FFTW3
  3d grid and FFT values/proc = 8000 3375
Generated 21 of 21 mixed pair_coeff terms from arithmetic mixing rule
Total wall time: 1:24:05
