LAMMPS (22 Jul 2025 - Update 5)
OMP_NUM_THREADS environment is not set. Defaulting to 1 thread.
  using 1 OpenMP thread(s) per MPI task
# BTMA-PS: 8 chains x 20 units
# generated by aemwater -- do not edit; edit the template instead

units           real
atom_style      full
boundary        p p p

pair_style      lj/cut/coul/long 10.0 10.0
# GAFF2 is a Lorentz-Berthelot force field. The LAMMPS default for lj/cut is
# GEOMETRIC mixing, which silently changes every cross interaction.
pair_modify     mix arithmetic tail yes
kspace_style    pppm 0.0001
bond_style      harmonic
angle_style     harmonic
dihedral_style  charmm
improper_style  cvff
# Amber 1-4 scaling: LJ/2 and Coulomb/1.2. Applied here, so every CHARMM
# dihedral weight in the data file is 0.
special_bonds   lj 0.0 0.0 0.5 coul 0.0 0.0 0.8333333333

read_data       system.data
Reading data file ...
  orthogonal box = (0 0 0) to (65.675322 65.675322 65.675322)
  1 by 1 by 1 MPI processor grid
  reading atoms ...
  5184 atoms
  scanning bonds ...
  4 = max bonds/atom
  scanning angles ...
  6 = max angles/atom
  scanning dihedrals ...
  33 = max dihedrals/atom
  scanning impropers ...
  2 = max impropers/atom
  orthogonal box = (0 0 0) to (65.675322 65.675322 65.675322)
  1 by 1 by 1 MPI processor grid
  reading bonds ...
  5176 bonds
  reading angles ...
  9696 angles
  reading dihedrals ...
  15264 dihedrals
  reading impropers ...
  960 impropers
Finding 1-2 1-3 1-4 neighbors ...
  special bond factors lj:    0        0        0.5     
  special bond factors coul:  0        0        0.8333333333
     4 = max # of 1-2 neighbors
    12 = max # of 1-3 neighbors
    18 = max # of 1-4 neighbors
    22 = max # of special neighbors
  special bonds CPU = 0.002 seconds
  read_data CPU = 0.076 seconds
neighbor        2.0 bin
neigh_modify    delay 0 every 1 check yes
# The ghost-atom cutoff defaults to the pair cutoff + skin. Bonded partners must
# also be within it, and a stretched bond in a freshly packed cell can exceed it,
# which LAMMPS reports as a communication-cutoff warning before losing atoms.
comm_modify     cutoff 12.0

# Molecule IDs are assigned by the data writer in packing order: polymer chains
# first, then counterions, then any water added later. `<>` is LAMMPS's inclusive
# range operator.
group           polymer molecule <> 1 8
5024 atoms in group polymer
group           ions molecule <> 9 168
160 atoms in group ions

thermo          500
thermo_style    custom step temp press vol density etotal ke pe ebond eangle edihed evdwl ecoul elong
thermo_modify   flush yes

# ---------------------------------------------------------------- stage 1 ----
# Soft-core push-off. A packed cell can contain contacts closer than any real
# minimum; a 12-6 potential there gives forces large enough to eject atoms
# ("lost atoms") before the minimiser can act. A capped soft potential removes
# the overlaps first, then the real potential is restored.
# `pair_style soft` has no Coulomb term, so the long-range solver has nothing to
# attach to and LAMMPS refuses the combination. Electrostatics are switched off
# for the push-off and restored with the real potential below; the push-off only
# has to separate overlapping atoms, which is a steric problem.
kspace_style    none
pair_style      soft 3.0
pair_coeff      * * 0.0 3.0
variable        prefactor equal ramp(0,60.0)
fix             softpush all adapt 1 pair soft a * * v_prefactor
fix             nve_push all nve/limit 0.05
fix             temp_push all temp/rescale 10 300.0 300.0 10.0 1.0
timestep        1.0
run             20000
Generated 0 of 21 mixed pair_coeff terms from geometric mixing rule
Neighbor list info ...
  update: every = 1 steps, delay = 0 steps, check = yes
  max neighbors/atom: 2000, page size: 100000
  master list distance cutoff = 5
  ghost atom cutoff = 12
  binsize = 2.5, bins = 27 27 27
  1 neighbor lists, perpetual/occasional/extra = 1 0 0
  (1) pair soft, perpetual
      attributes: half, newton on
      pair build: half/bin/newton
      stencil: half/bin/3d
      bin: standard
Per MPI rank memory allocation (min/avg/max) = 21.51 | 21.51 | 21.51 Mbytes
   Step          Temp          Press          Volume        Density         TotEng         KinEng         PotEng         E_bond        E_angle        E_dihed         E_vdwl         E_coul         E_long    
         0   0             -1311.9886      283273.95      0.1999915      2388.6071      0              2388.6071      236.74137      954.524        1183.4317      0              0              0            
       500   300           -583.73784      283273.95      0.1999915      11076.23       4634.8615      6441.3683      945.06671      2244.1901      1582.2496      1628.7244      0              0            
      1000   304.51129      584.3851       283273.95      0.1999915      12855.888      4704.559       8151.3293      1121.0079      2267.3434      1929.5         2781.3572      0              0            
      1500   302.44772     -116.98412      283273.95      0.1999915      13303.786      4672.6777      8631.1087      1265.4979      2256.268       1635.46        3436.1168      0              0            
      2000   297.25166     -255.78916      283273.95      0.1999915      13770.946      4592.401       9178.5449      1403.2884      2250.9475      1691.9287      3791.8675      0              0            
      2500   296.42271     -332.69464      283273.95      0.1999915      14528.836      4579.594       9949.2417      1600.7823      2419.2478      1718.5974      4169.4458      0              0            
      3000   299.42128      144.8396       283273.95      0.1999915      15175.998      4625.9205      10550.078      1812.337       2488.6231      1617.9807      4591.5971      0              0            
      3500   292.28846     -253.49511      283273.95      0.1999915      15723.003      4515.7219      11207.281      2070.3637      2635.377       1642.9448      4818.4672      0              0            
      4000   297.06355      103.90983      283273.95      0.1999915      16122.497      4589.4947      11533.002      2128.815       2704.7991      1586.8439      5073.9511      0              0            
      4500   295.47103      139.68766      283273.95      0.1999915      16810.756      4564.8911      12245.865      2390.2052      2823.9181      1596.7699      5398.4609      0              0            
      5000   296.09939      247.33255      283273.95      0.1999915      17114.505      4574.5989      12539.906      2578.1131      2834.2211      1592.1461      5500.823       0              0            
      5500   301.79361      174.59436      283273.95      0.1999915      17765.757      4662.5719      13103.185      2817.2944      2978.9386      1589.6787      5683.4649      0              0            
      6000   297.17098     -260.28084      283273.95      0.1999915      17962.207      4591.1545      13371.052      3014.3063      3037.8811      1565.0944      5719.217       0              0            
      6500   297.91606      100.37177      283273.95      0.1999915      18319.943      4602.6656      13717.277      3121.7537      3063.3958      1569.8973      5927.4041      0              0            
      7000   300           -12.00178       283273.95      0.1999915      18577.301      4634.8615      13942.44       3217.7236      3195.5062      1478.9762      6019.0173      0              0            
      7500   291.71483     -114.94974      283273.95      0.1999915      18827.385      4506.8595      14320.526      3400.5688      3301.1244      1511.2603      6075.866       0              0            
      8000   294.37328      20.38303       283273.95      0.1999915      19175.384      4547.9313      14627.453      3565.2174      3385.3129      1471.6955      6173.6251      0              0            
      8500   290.35026     -219.127        283273.95      0.1999915      19420.945      4485.7775      14935.168      3725.8899      3391.5727      1442.7669      6345.3701      0              0            
      9000   295.72865      51.839622      283273.95      0.1999915      19828.961      4568.8711      15260.09       3837.8723      3442.4077      1478.8771      6467.1591      0              0            
      9500   292.63684      57.463589      283273.95      0.1999915      20045.06       4521.1041      15523.956      3898.5026      3641.9048      1495.765       6455.813       0              0            
     10000   296.75567     -39.807409      283273.95      0.1999915      20253.299      4584.7381      15668.561      4095.8032      3568.1059      1441.9632      6530.9824      0              0            
     10500   291.28105     -139.82362      283273.95      0.1999915      20511.679      4500.1578      16011.521      4230.338       3664.5065      1439.332       6648.2272      0              0            
     11000   294.42293      105.49612      283273.95      0.1999915      20713.383      4548.6985      16164.684      4246.6421      3760.73        1483.4233      6643.6166      0              0            
     11500   296.10063      370.99828      283273.95      0.1999915      20910.723      4574.6181      16336.105      4386.2084      3681.4276      1431.8288      6806.9952      0              0            
     12000   297.05342      121.18269      283273.95      0.1999915      21191.348      4589.3382      16602.009      4509.4501      3751.7438      1436.7999      6875.2355      0              0            
     12500   296.35983     -40.450331      283273.95      0.1999915      21246.234      4578.6226      16667.611      4612.301       3807.1202      1410.9724      6809.1859      0              0            
     13000   294.23595      318.46936      283273.95      0.1999915      21551.837      4545.8096      17006.027      4650.574       3901.3453      1437.9926      6988.6923      0              0            
     13500   300.66143      106.15714      283273.95      0.1999915      21843.51       4645.0803      17198.43       4860.5464      3949.4873      1398.8285      6963.2964      0              0            
     14000   290.52546      113.67542      283273.95      0.1999915      21953.52       4488.4843      17465.035      4935.9057      4019.1987      1404.4466      7078.6582      0              0            
     14500   297.77084      65.116617      283273.95      0.1999915      22263.595      4600.4221      17663.173      5117.8007      3993.0776      1434.7958      7090.342       0              0            
     15000   299.60685      462.38065      283273.95      0.1999915      22531.559      4628.7876      17902.772      5092.3262      4063.3987      1448.1023      7272.6491      0              0            
     15500   295.04484      389.54351      283273.95      0.1999915      22592.547      4558.3066      18034.241      5196.9387      4073.8436      1402.7685      7334.8122      0              0            
     16000   296.96801      317.80757      283273.95      0.1999915      22856.196      4588.0187      18268.177      5288.1933      4142.1723      1432.2691      7381.0105      0              0            
     16500   293.0599       346.51998      283273.95      0.1999915      22888.596      4527.6402      18360.956      5373.7221      4119.7336      1423.7462      7418.884       0              0            
     17000   294.67897      337.73669      283273.95      0.1999915      23149.167      4552.6541      18596.513      5443.0968      4226.098       1472.2971      7428.0563      0              0            
     17500   290.9776       481.46395      283273.95      0.1999915      23213.426      4495.4696      18717.957      5550.4739      4254.3101      1381.6018      7505.7648      0              0            
     18000   296.2189      -47.391665      283273.95      0.1999915      23449.112      4576.4452      18872.667      5737.9227      4309.4503      1435.9342      7363.6268      0              0            
     18500   300            7.8128932      283273.95      0.1999915      23735.698      4634.8615      19100.837      5877.7989      4379.1899      1433.7145      7385.284       0              0            
     19000   292.50916     -27.408558      283273.95      0.1999915      23781.041      4519.1316      19261.91       5951.3843      4310.6679      1463.313       7511.8339      0              0            
     19500   291.89338      464.32458      283273.95      0.1999915      23852.121      4509.6181      19342.503      5840.7193      4403.1774      1440.1314      7635.4816      0              0            
     20000   300            185.25595      283273.95      0.1999915      24124.785      4634.8615      19489.924      6068.6         4454.739       1421.5428      7520.726       0              0            
Loop time of 30.5793 on 1 procs for 20000 steps with 5184 atoms

Performance: 56.509 ns/day, 0.425 hours/ns, 654.037 timesteps/s, 3.391 Matom-step/s
97.0% CPU use with 1 MPI tasks x 1 OpenMP threads

MPI task timing breakdown:
Section |  min time  |  avg time  |  max time  |%varavg| %total
---------------------------------------------------------------
Pair    | 8.4998     | 8.4998     | 8.4998     |   0.0 | 27.80
Bond    | 17.981     | 17.981     | 17.981     |   0.0 | 58.80
Neigh   | 2.628      | 2.628      | 2.628      |   0.0 |  8.59
Comm    | 0.59625    | 0.59625    | 0.59625    |   0.0 |  1.95
Output  | 0.004244   | 0.004244   | 0.004244   |   0.0 |  0.01
Modify  | 0.69179    | 0.69179    | 0.69179    |   0.0 |  2.26
Other   |            | 0.1778     |            |       |  0.58

Nlocal:           5184 ave        5184 max        5184 min
Histogram: 1 0 0 0 0 0 0 0 0 0
Nghost:           9807 ave        9807 max        9807 min
Histogram: 1 0 0 0 0 0 0 0 0 0
Neighs:          52788 ave       52788 max       52788 min
Histogram: 1 0 0 0 0 0 0 0 0 0

Total # of neighbors = 52788
Ave neighs/atom = 10.18287
Ave special neighs/atom = 11.135802
Neighbor list builds = 635
Dangerous builds = 0
unfix           softpush
unfix           nve_push
unfix           temp_push

# Restore the real force field.
pair_style      lj/cut/coul/long 10.0 10.0
pair_modify     mix arithmetic tail yes
kspace_style    pppm 0.0001
pair_coeff      1 1 0.10780000 3.39770953  # c3
pair_coeff      2 2 0.09880000 3.31521231  # ca
pair_coeff      3 3 3.87480000 2.49950544  # n4
pair_coeff      4 4 0.02080000 2.60017700  # hc
pair_coeff      5 5 0.01610000 2.62547852  # ha
pair_coeff      6 6 0.02080000 1.88745802  # hx
pair_coeff      7 7 0.01278500 4.83045000  # Cl_CL

# ---------------------------------------------------------------- stage 2 ----
# Energy minimisation with the real potential. Water is left flexible here;
# SHAKE is applied only once dynamics start, because the minimiser and SHAKE
# fight each other.
min_style       cg
minimize        1e-06 1e-06 20000 200000
PPPM initialization ...
  using 12-bit tables for long-range coulomb
  G vector (1/distance) = 0.20590234
  grid = 18 18 18
  stencil order = 5
  estimated absolute RMS force accuracy = 0.030993696
  estimated relative force accuracy = 9.3336595e-05
  using double precision FFTW3
  3d grid and FFT values/proc = 12167 5832
Generated 21 of 21 mixed pair_coeff terms from arithmetic mixing rule
Neighbor list info ...
  update: every = 1 steps, delay = 0 steps, check = yes
  max neighbors/atom: 2000, page size: 100000
  master list distance cutoff = 12
  ghost atom cutoff = 12
  binsize = 6, bins = 11 11 11
  1 neighbor lists, perpetual/occasional/extra = 1 0 0
  (1) pair lj/cut/coul/long, perpetual
      attributes: half, newton on
      pair build: half/bin/newton
      stencil: half/bin/3d
      bin: standard
Per MPI rank memory allocation (min/avg/max) = 25.74 | 25.74 | 25.74 Mbytes
   Step          Temp          Press          Volume        Density         TotEng         KinEng         PotEng         E_bond        E_angle        E_dihed         E_vdwl         E_coul         E_long    
     20000   300           -11848.899      283273.95      0.1999915      26872.99       4634.8615      22238.128      6068.6         4454.739       1421.5428     -929.08299      11560.619     -362.60497    
     20500   300            360.62204      283273.95      0.1999915      3088.3415      4634.8615     -1546.5201      161.93325      336.30113      875.89936     -141.538        7152.325      -9936.9106    
     21000   300            576.96523      283273.95      0.1999915      2034.2638      4634.8615     -2600.5978      145.04898      336.10633      903.80432     -182.21518      6400.3106     -10208.947    
     21500   300            608.58352      283273.95      0.1999915      1700.6932      4634.8615     -2934.1684      141.97054      342.60729      902.66257     -245.69002      6197.9908     -10278.468    
     21886   300            617.58786      283273.95      0.1999915      1506.3964      4634.8615     -3128.4652      141.39135      340.21581      894.24067     -278.33359      6059.8941     -10290.725    
Loop time of 39.9475 on 1 procs for 1886 steps with 5184 atoms

94.0% CPU use with 1 MPI tasks x 1 OpenMP threads

Minimization stats:
  Stopping criterion = linesearch alpha is zero
  Energy initial, next-to-last, final = 
      22238.1283796232  -3128.46515011958  -3128.46515011958
  Force two-norm initial, final = 2130.8501 17.973533
  Force max component initial, final = 83.627355 2.9413595
  Final line search alpha, max atom move = 2.2887134e-11 6.731929e-11
  Iterations, force evaluations = 1886 3553

MPI task timing breakdown:
Section |  min time  |  avg time  |  max time  |%varavg| %total
---------------------------------------------------------------
Pair    | 29.264     | 29.264     | 29.264     |   0.0 | 73.26
Bond    | 2.9938     | 2.9938     | 2.9938     |   0.0 |  7.49
Kspace  | 5.9237     | 5.9237     | 5.9237     |   0.0 | 14.83
Neigh   | 1.2941     | 1.2941     | 1.2941     |   0.0 |  3.24
Comm    | 0.14141    | 0.14141    | 0.14141    |   0.0 |  0.35
Output  | 0.0009145  | 0.0009145  | 0.0009145  |   0.0 |  0.00
Modify  | 0          | 0          | 0          |   0.0 |  0.00
Other   |            | 0.3295     |            |       |  0.82

Nlocal:           5184 ave        5184 max        5184 min
Histogram: 1 0 0 0 0 0 0 0 0 0
Nghost:          10645 ave       10645 max       10645 min
Histogram: 1 0 0 0 0 0 0 0 0 0
Neighs:         639516 ave      639516 max      639516 min
Histogram: 1 0 0 0 0 0 0 0 0 0

Total # of neighbors = 639516
Ave neighs/atom = 123.36343
Ave special neighs/atom = 11.135802
Neighbor list builds = 105
Dangerous builds = 0

# Written WITH coefficients: each stage reads the previous stage's data file, so
# the file has to be self-contained. `nocoeff` would force every downstream stage
# to re-derive the force field, and any drift between the two paths would be
# silent.
write_data      min.data
System init for write_data ...
PPPM initialization ...
  using 12-bit tables for long-range coulomb
  G vector (1/distance) = 0.20590234
  grid = 18 18 18
  stencil order = 5
  estimated absolute RMS force accuracy = 0.030993696
  estimated relative force accuracy = 9.3336595e-05
  using double precision FFTW3
  3d grid and FFT values/proc = 12167 5832
Generated 21 of 21 mixed pair_coeff terms from arithmetic mixing rule
write_restart   min.restart
System init for write_restart ...
PPPM initialization ...
  using 12-bit tables for long-range coulomb
  G vector (1/distance) = 0.20590234
  grid = 18 18 18
  stencil order = 5
  estimated absolute RMS force accuracy = 0.030993696
  estimated relative force accuracy = 9.3336595e-05
  using double precision FFTW3
  3d grid and FFT values/proc = 12167 5832
Generated 21 of 21 mixed pair_coeff terms from arithmetic mixing rule
Total wall time: 0:01:10
