LAMMPS (22 Jul 2025 - Update 1)
OMP_NUM_THREADS environment is not set. Defaulting to 1 thread.
  using 1 OpenMP thread(s) per MPI task
package gpu 1 neigh no
# iteration 1
# generated by aemwater -- do not edit; edit the template instead

units           real
atom_style      full
boundary        p p p

pair_style      lj/cut/coul/long 10.0 10.0
# GAFF2 is a Lorentz-Berthelot force field. The LAMMPS default for lj/cut is
# GEOMETRIC mixing, which silently changes every cross interaction.
pair_modify     mix arithmetic tail yes
kspace_style    pppm 0.0001
bond_style      harmonic
angle_style     harmonic
dihedral_style  charmm
improper_style  cvff
# Amber 1-4 scaling: LJ/2 and Coulomb/1.2. Applied here, so every CHARMM
# dihedral weight in the data file is 0.
special_bonds   lj 0.0 0.0 0.5 coul 0.0 0.0 0.8333333333

read_data       start.data
Reading data file ...
  orthogonal box = (0 0 0) to (25.313791 25.313791 25.313791)
  1 by 1 by 1 MPI processor grid
  reading atoms ...
  1915 atoms
  scanning bonds ...
  4 = max bonds/atom
  scanning angles ...
  6 = max angles/atom
  scanning dihedrals ...
  33 = max dihedrals/atom
  scanning impropers ...
  2 = max impropers/atom
  orthogonal box = (0 0 0) to (25.313791 25.313791 25.313791)
  1 by 1 by 1 MPI processor grid
  reading bonds ...
  1835 bonds
  reading angles ...
  3135 angles
  reading dihedrals ...
  4790 dihedrals
  reading impropers ...
  300 impropers
Finding 1-2 1-3 1-4 neighbors ...
  special bond factors lj:    0        0        0.5     
  special bond factors coul:  0        0        0.8333333333
     4 = max # of 1-2 neighbors
    12 = max # of 1-3 neighbors
    18 = max # of 1-4 neighbors
    22 = max # of special neighbors
  special bonds CPU = 0.002 seconds
  read_data CPU = 0.081 seconds
neighbor        2.0 bin
neigh_modify    delay 0 every 1 check yes
# The ghost-atom cutoff defaults to the pair cutoff + skin. Bonded partners must
# also be within it, and a stretched bond in a freshly packed cell can exceed it,
# which LAMMPS reports as a communication-cutoff warning before losing atoms.
comm_modify     cutoff 12.0

# Molecule IDs are assigned by the data writer in packing order: polymer chains
# first, then counterions, then any water added later. `<>` is LAMMPS's inclusive
# range operator.
group           polymer molecule <> 1 5
1590 atoms in group polymer
group           ions molecule <> 6 55
100 atoms in group ions
group           water type 9 10
225 atoms in group water

thermo          500
thermo_style    custom step temp press vol density etotal ke pe ebond eangle edihed evdwl ecoul elong
thermo_modify   flush yes

timestep        1.0
dump            traj all custom 1000 iter.lammpstrj id mol type q x y z
dump_modify     traj sort id

# ---------------------------------------------------------------- relax -------
# The newly inserted waters were placed in geometric voids, which is not the same
# as an energetically relaxed position. A short NVE/limit run absorbs the initial
# strain without letting any atom move far enough to cross a chain.
fix             nve_settle all nve/limit 0.05
fix             temp_settle all temp/rescale 10 300.0 300.0 10.0 1.0
run             5000

CITE-CITE-CITE-CITE-CITE-CITE-CITE-CITE-CITE-CITE-CITE-CITE-CITE

Your simulation uses code contributions which should be cited:

- GPU package (short-range, long-range and three-body potentials): doi:10.1016/j.cpc.2010.12.021, doi:10.1016/j.cpc.2011.10.012, doi:10.1016/j.cpc.2013.08.002, doi:10.1016/j.commatsci.2014.10.068, doi:10.1016/j.cpc.2016.10.020, doi:10.3233/APC200086

@Article{Brown11,
 author = {W. M. Brown and P. Wang and S. J. Plimpton and A. N. Tharrington},
 title = {Implementing Molecular Dynamics on Hybrid High Performance Computers---Short Range Forces},
 journal = {Comput.\ Phys.\ Commun.},
 year =    2011,
 volume =  182,
 pages =   {898--911},
 doi =     {10.1016/j.cpc.2010.12.021}
}

@Article{Brown12,
 author = {W. M. Brown and A. Kohlmeyer and S. J. Plimpton and A. N. Tharrington},
 title = {Implementing Molecular Dynamics on Hybrid High Performance Computers - Particle-Particle Particle-Mesh},
 journal = {Comput.\ Phys.\ Commun.},
 year =    2012,
 volume =  183,
 doi =     {10.1016/j.cpc.2011.10.012},
 pages =   {449--459}
}

@Article{Brown13,
 author = {W. M. Brown and Y. Masako},
 title = {Implementing Molecular Dynamics on Hybrid High Performance Computers---Three-Body Potentials},
 journal = {Comput.\ Phys.\ Commun.},
 year =    2013,
 volume =  184,
 pages =   {2785--2793},
 doi =     {10.1016/j.cpc.2013.08.002},
}

@Article{Trung15,
 author = {T. D. Nguyen and S. J. Plimpton},
 title = {Accelerating Dissipative Particle Dynamics Simulations for Soft Matter Systems},
 journal = {Comput.\ Mater.\ Sci.},
 year =    2015,
 doi =     {10.1016/j.commatsci.2014.10.068},
 volume =  100,
 pages =   {173--180}
}

@Article{Trung17,
 author = {T. D. Nguyen},
 title = {{GPU}-Accelerated {T}ersoff Potentials for Massively Parallel
    Molecular Dynamics Simulations},
 journal = {Comput.\ Phys.\ Commun.},
 year =    2017,
 doi =     {10.1016/j.cpc.2016.10.020},
 volume =  212,
 pages =   {113--122}
}

@inproceedings{Nikolskiy19,
 author = {V. Nikolskiy and V. Stegailov},
 title = {{GPU} Acceleration of Four-Site Water Models in {LAMMPS}},
 booktitle = {Proceedings of the International Conference on Parallel
    Computing (ParCo 2019), Prague, Czech Republic},
 doi =     {10.3233/APC200086},
 year =    2019
}

CITE-CITE-CITE-CITE-CITE-CITE-CITE-CITE-CITE-CITE-CITE-CITE-CITE

PPPM initialization ...
  using 12-bit tables for long-range coulomb
  G vector (1/distance) = 0.25634065
  grid = 12 12 12
  stencil order = 5
  estimated absolute RMS force accuracy = 0.015655199
  estimated relative force accuracy = 4.7145168e-05
  using double precision KISS FFT
  3d grid and FFT values/proc = 4913 1728
Generated 45 of 45 mixed pair_coeff terms from arithmetic mixing rule
Neighbor list info ...
  update: every = 1 steps, delay = 0 steps, check = yes
  max neighbors/atom: 2000, page size: 100000
  master list distance cutoff = 12
  ghost atom cutoff = 12
  binsize = 6, bins = 5 5 5
  1 neighbor lists, perpetual/occasional/extra = 1 0 0
  (1) pair lj/cut/coul/long/gpu, perpetual
      attributes: full, newton on
      pair build: full/bin
      stencil: full/bin/3d
      bin: standard
Per MPI rank memory allocation (min/avg/max) = 29.33 | 29.33 | 29.33 Mbytes
   Step          Temp          Press          Volume        Density         TotEng         KinEng         PotEng         E_bond        E_angle        E_dihed         E_vdwl         E_coul         E_long    
         0   0              706.56545      16220.774      1.1430315     -2642.5338      0             -2642.5338      545.9572       762.55492      496.59413     -501.14413      5994.8526     -9953.171     
       500   300           -2292.4832      16220.774      1.1430315     -1379.9618      1711.5811     -3091.5429      666.94475      767.78441      510.90284     -299.70789      5227.0077     -9976.7078    
      1000   298.55603      1801.0716      16220.774      1.1430315     -1432.3933      1703.3429     -3135.7362      659.72498      787.37414      499.73039     -280.42684      5155.0209     -9969.4719    
      1500   293.16357     -1736.4422      16220.774      1.1430315     -1405.7019      1672.5775     -3078.2794      667.13693      811.96868      503.95476     -318.38962      5209.4575     -9965.6563    
      2000   298.13053      514.19699      16220.774      1.1430315     -1456.8624      1700.9153     -3157.7777      637.89486      764.61104      512.10506     -203.20078      5091.3574     -9974.8077    
      2500   293.23835      1162.4483      16220.774      1.1430315     -1499.0737      1673.0041     -3172.0778      626.00907      788.76389      511.43542     -273.36726      5130.9462     -9969.7212    
      3000   297.31628      108.61978      16220.774      1.1430315     -1464.1737      1696.2698     -3160.4435      633.63159      770.34321      528.39226     -256.10577      5113.0061     -9962.4535    
      3500   298.3732       1818.0207      16220.774      1.1430315     -1504.9099      1702.2998     -3207.2097      620.77578      747.35767      515.51424     -230.60177      5102.7966     -9976.3351    
      4000   294.29293     -843.53931      16220.774      1.1430315     -1490.4817      1679.0208     -3169.5024      620.91525      769.79595      514.10005     -275.60632      5160.6688     -9971.6172    
      4500   298.62806      223.30019      16220.774      1.1430315     -1464.5219      1703.7538     -3168.2757      644.01326      744.37024      528.09389     -245.45588      5124.219      -9975.0646    
      5000   300           -877.5736       16220.774      1.1430315     -1387.61        1711.5811     -3099.1911      682.59704      734.90783      533.39262     -272.75182      5170.1984     -9962.0956    
Loop time of 32.9387 on 1 procs for 5000 steps with 1915 atoms

Performance: 13.115 ns/day, 1.830 hours/ns, 151.797 timesteps/s, 290.692 katom-step/s
99.9% CPU use with 1 MPI tasks x 1 OpenMP threads

MPI task timing breakdown:
Section |  min time  |  avg time  |  max time  |%varavg| %total
---------------------------------------------------------------
Pair    | 4.3103     | 4.3103     | 4.3103     |   0.0 | 13.09
Bond    | 4.2443     | 4.2443     | 4.2443     |   0.0 | 12.89
Kspace  | 3.2225     | 3.2225     | 3.2225     |   0.0 |  9.78
Neigh   | 20.247     | 20.247     | 20.247     |   0.0 | 61.47
Comm    | 0.53668    | 0.53668    | 0.53668    |   0.0 |  1.63
Output  | 0.034288   | 0.034288   | 0.034288   |   0.0 |  0.10
Modify  | 0.21116    | 0.21116    | 0.21116    |   0.0 |  0.64
Other   |            | 0.1329     |            |       |  0.40

Nlocal:           1915 ave        1915 max        1915 min
Histogram: 1 0 0 0 0 0 0 0 0 0
Nghost:          12130 ave       12130 max       12130 min
Histogram: 1 0 0 0 0 0 0 0 0 0
Neighs:              0 ave           0 max           0 min
Histogram: 1 0 0 0 0 0 0 0 0 0
FullNghs:  1.63586e+06 ave 1.63586e+06 max 1.63586e+06 min
Histogram: 1 0 0 0 0 0 0 0 0 0

Total # of neighbors = 1635860
Ave neighs/atom = 854.23499
Ave special neighs/atom = 9.7806789
Neighbor list builds = 208
Dangerous builds = 0
unfix           nve_settle
unfix           temp_settle

min_style       cg
minimize        1e-06 1e-06 20000 200000
PPPM initialization ...
  using 12-bit tables for long-range coulomb
  G vector (1/distance) = 0.25634065
  grid = 12 12 12
  stencil order = 5
  estimated absolute RMS force accuracy = 0.015655199
  estimated relative force accuracy = 4.7145168e-05
  using double precision KISS FFT
  3d grid and FFT values/proc = 4913 1728
Generated 45 of 45 mixed pair_coeff terms from arithmetic mixing rule
Per MPI rank memory allocation (min/avg/max) = 31.94 | 31.94 | 31.94 Mbytes
   Step          Temp          Press          Volume        Density         TotEng         KinEng         PotEng         E_bond        E_angle        E_dihed         E_vdwl         E_coul         E_long    
      5000   300           -877.5737       16220.774      1.1430315     -1387.6099      1711.5811     -3099.1911      682.59704      734.90783      533.39262     -272.75182      5170.1984     -9962.0956    
      5369   300           -348.82475      16220.774      1.1430315     -3227.093       1711.5811     -4938.6741      188.76049      174.93672      319.93875     -406.81562      4756.1714     -9974.1031    
Loop time of 2.63582 on 1 procs for 369 steps with 1915 atoms

99.9% CPU use with 1 MPI tasks x 1 OpenMP threads

Minimization stats:
  Stopping criterion = linesearch alpha is zero
  Energy initial, next-to-last, final = 
     -3099.19107561768  -4938.67409695222  -4938.67409695222
  Force two-norm initial, final = 1356.8719 4.7355055
  Force max component initial, final = 86.041872 1.1990577
  Final line search alpha, max atom move = 4.1782502e-10 5.009963e-10
  Iterations, force evaluations = 369 789

MPI task timing breakdown:
Section |  min time  |  avg time  |  max time  |%varavg| %total
---------------------------------------------------------------
Pair    | 0.46273    | 0.46273    | 0.46273    |   0.0 | 17.56
Bond    | 0.77997    | 0.77997    | 0.77997    |   0.0 | 29.59
Kspace  | 0.56332    | 0.56332    | 0.56332    |   0.0 | 21.37
Neigh   | 0.69837    | 0.69837    | 0.69837    |   0.0 | 26.50
Comm    | 0.074842   | 0.074842   | 0.074842   |   0.0 |  2.84
Output  | 0          | 0          | 0          |   0.0 |  0.00
Modify  | 8.0173e-05 | 8.0173e-05 | 8.0173e-05 |   0.0 |  0.00
Other   |            | 0.05651    |            |       |  2.14

Nlocal:           1915 ave        1915 max        1915 min
Histogram: 1 0 0 0 0 0 0 0 0 0
Nghost:          12154 ave       12154 max       12154 min
Histogram: 1 0 0 0 0 0 0 0 0 0
Neighs:              0 ave           0 max           0 min
Histogram: 1 0 0 0 0 0 0 0 0 0
FullNghs:  1.63567e+06 ave 1.63567e+06 max 1.63567e+06 min
Histogram: 1 0 0 0 0 0 0 0 0 0

Total # of neighbors = 1635674
Ave neighs/atom = 854.13786
Ave special neighs/atom = 9.7806789
Neighbor list builds = 7
Dangerous builds = 0

fix             shake_all all shake 0.0001 20 0 b 9 a 14
Finding SHAKE clusters ...
       0 = # of size 2 clusters
       0 = # of size 3 clusters
       0 = # of size 4 clusters
      75 = # of frozen angles
  find clusters CPU = 0.001 seconds

# ---------------------------------------------------------------- NPT ---------
# Swelling is the point: the box must be free to expand as water goes in, so the
# uptake is measured at constant pressure, not constant volume.
fix             npt_swell all npt temp 300.0 300.0 100.0 iso 1.0 1.0 1000.0
run             25000
PPPM initialization ...
  using 12-bit tables for long-range coulomb
  G vector (1/distance) = 0.25634065
  grid = 12 12 12
  stencil order = 5
  estimated absolute RMS force accuracy = 0.015655199
  estimated relative force accuracy = 4.7145168e-05
  using double precision KISS FFT
  3d grid and FFT values/proc = 4913 1728
Generated 45 of 45 mixed pair_coeff terms from arithmetic mixing rule
Per MPI rank memory allocation (min/avg/max) = 31.74 | 31.74 | 31.74 Mbytes
   Step          Temp          Press          Volume        Density         TotEng         KinEng         PotEng         E_bond        E_angle        E_dihed         E_vdwl         E_coul         E_long    
      5369   312.23491      499.00479      16220.774      1.1430315     -3387.8749      1711.5811     -5099.456       52.455716      150.45957      319.93875     -406.81563      4756.1714     -9974.1031    
      5500   170.34362      1899.599       16178.412      1.1460244     -2890.6883      933.77425     -3824.4625      314.47454      454.53898      429.40006     -435.58988      5374.1768     -9969.5914    
      6000   299.38083     -1124.7924      16050.017      1.1551922     -1516.0199      1641.1188     -3157.1387      476.1291       752.21101      511.93234     -382.33909      5445.1235     -9972.2343    
      6500   290.61342     -2169.5529      16205.26       1.1441258     -1537.8022      1593.0584     -3130.8606      502.22631      733.75032      524.4856      -392.53849      5469.0822     -9979.2458    
      7000   291.437        1984.6939      16306.237      1.1370407     -1511.2394      1597.573      -3108.8125      496.75461      741.84077      511.21863     -360.40693      5463.8618     -9975.6663    
      7500   300.5277       2112.6711      15979.81       1.1602676     -1445.6882      1647.4056     -3093.0938      521.90634      753.10447      511.48441     -429.93314      5511.6296     -9973.94      
      8000   301.43462     -1716.1453      16185.817      1.1455001     -1374.9195      1652.3771     -3027.2966      533.3747       776.23677      505.22168     -382.60442      5501.8438     -9972.3025    
      8500   305.81623     -1862.3921      16065.447      1.1540827     -1430.0516      1676.3958     -3106.4474      533.07046      734.41673      507.28832     -426.53833      5506.4191     -9973.8593    
      9000   292.98263      1389.0469      15965.862      1.1612812     -1532.2813      1606.0457     -3138.327       524.64368      730.21086      497.50697     -369.34759      5444.5707     -9979.098     
      9500   292.95779     -2045.6918      16094.981      1.151965      -1475.5359      1605.9096     -3081.4455      547.32977      764.17046      505.54951     -438.04048      5504.0911     -9977.0111    
     10000   306.52238     -1260.3641      16076.682      1.1532762     -1440.9142      1680.2667     -3121.1809      526.27091      737.14808      506.72505     -430.62932      5504.8992     -9977.7603    
     10500   303.34781      830.10483      15826.66       1.1714951     -1415.9349      1662.8646     -3078.7996      578.87643      753.26363      495.93735     -388.58533      5442.3939     -9971.9587    
     11000   306.20672     -2407.7213      16085.092      1.1526732     -1397.6341      1678.5363     -3076.1704      566.74708      751.83435      506.60325     -404.49784      5470.7608     -9980.8255    
     11500   300.5468      -331.26316      15873.737      1.1680208     -1465.2118      1647.5103     -3112.7221      528.45812      781.58843      512.26389     -433.2615       5460.9398     -9975.5094    
     12000   301.554        472.75691      16052.586      1.1550074     -1476.622       1653.0315     -3129.6535      551.48432      733.01996      492.56111     -442.72502      5502.9626     -9979.9445    
     12500   292.25301     -1148.3682      15927.183      1.1641013     -1499.9609      1602.0461     -3102.007       556.31867      780.86181      500.26877     -388.69866      5422.0927     -9982.8126    
     13000   293.61625      163.29571      16104.362      1.151294      -1399.5623      1609.519      -3009.0813      569.90455      804.78096      529.61077     -382.72415      5443.6265     -9985.7618    
     13500   300.88075     -261.23017      15919.207      1.1646846     -1430.3107      1649.3409     -3079.6516      544.79209      797.3673       500.00785     -396.55419      5441.9474     -9980.6444    
     14000   300.42627     -73.583896      15997.202      1.1590061     -1446.1686      1646.8496     -3093.0182      554.81785      766.42797      507.70628     -421.36846      5465.8612     -9978.3541    
     14500   307.65263     -1189.0657      15981.521      1.1601434     -1439.4535      1686.4624     -3125.9159      529.39485      765.34991      498.38055     -384.45662      5430.4349     -9976.5164    
     15000   302.8896       627.42139      15894.968      1.1664607     -1497.7854      1660.3529     -3158.1382      524.33648      779.66123      498.80544     -374.7662       5381.2034     -9979.3848    
     15500   303.6413       1065.7717      15844.901      1.1701465     -1475.7074      1664.4734     -3140.1808      512.87607      761.83718      527.55679     -408.94122      5427.7485     -9975.8156    
     16000   294.91293     -778.20702      16034.532      1.1563079     -1506.5714      1616.6271     -3123.1985      552.90474      742.608        504.92318     -431.97237      5470.4676     -9974.0238    
     16500   298.62573      226.61353      15914.539      1.1650262     -1534.7219      1636.9796     -3171.7014      533.33874      750.31889      507.05136     -407.05459      5421.5183     -9989.0265    
     17000   298.96699     -915.03391      15971.895      1.1608425     -1461.6324      1638.8502     -3100.4826      558.02317      766.39449      516.88318     -380.77386      5408.695      -9983.2767    
     17500   310.99144     -2.5496683      15807.691      1.1729009     -1518.6744      1704.7648     -3223.4392      529.93333      724.4527       493.47329     -389.0999       5386.3859     -9979.5952    
     18000   297.05178     -1247.7038      15943.113      1.1629382     -1559.8301      1628.3516     -3188.1817      532.75671      754.23555      474.96686     -420.94015      5435.585      -9976.4477    
     18500   302.09877     -1288.8869      15935.195      1.1635161     -1441.1989      1656.0178     -3097.2166      557.82298      791.36215      497.74201     -407.54095      5435.7446     -9984.1365    
     19000   303.77491     -2715.6882      16026.246      1.1569057     -1501.0963      1665.2059     -3166.3022      549.94069      749.41965      507.26668     -381.75521      5379.2524     -9983.4739    
     19500   300.11389      2300.2486      15782.451      1.1747767     -1498.0135      1645.1372     -3143.1507      547.82054      766.59153      525.05687     -402.2141       5391.7409     -9984.3587    
     20000   304.96186     -3626.7013      16101.108      1.1515267     -1447.0936      1671.7124     -3118.806       583.37234      767.54478      506.11718     -427.79369      5422.7984     -9983.3019    
     20500   302.4886       2148.1108      15768.957      1.175782      -1498.7109      1658.1547     -3156.8656      526.22022      741.9926       523.50213     -396.58877      5426.1201     -9991.622     
     21000   296.95818     -1074.1947      15943.44       1.1629143     -1478.0493      1627.8386     -3105.8879      582.31832      795.63086      501.53989     -431.44558      5423.2192     -9990.1404    
     21500   309.10338      1544.21        15724.331      1.1791188     -1437.1147      1694.415      -3131.5297      568.06176      766.57402      514.75774     -389.93258      5384.9454     -9987.3055    
     22000   301.39054     -2648.5624      15917.682      1.1647962     -1448.9035      1652.1355     -3101.039       565.90391      789.35604      521.69978     -388.22249      5385.4293     -9987.9412    
     22500   293.8998      -1150.4082      15918.233      1.1647559     -1533.5717      1611.0734     -3144.6451      551.31599      767.84443      517.01532     -410.75441      5400.7041     -9981.7682    
     23000   308.01797     -222.9884       15818.687      1.1720856     -1505.3983      1688.4651     -3193.8634      564.10685      749.13008      484.02572     -427.04826      5406.7875     -9981.9346    
     23500   301.62759     -223.96593      15976.457      1.1605111     -1431.5117      1653.4349     -3084.9465      591.13208      764.71302      521.14681     -417.92905      5419.7342     -9977.9367    
     24000   301.83757      39.065559      15878.637      1.1676604     -1417.9335      1654.586      -3072.5195      604.20404      784.84479      485.02112     -375.91654      5395.2244     -9977.5209    
     24500   296.51538     -1661.6634      16005.293      1.1584202     -1479.8185      1625.4113     -3105.2298      578.26723      770.76333      503.27022     -385.75179      5397.4579     -9981.0709    
     25000   292.86033     -1984.9228      16129.519      1.1494984     -1555.4789      1605.3753     -3160.8543      535.06083      765.53236      489.84307     -409.56268      5423.2134     -9976.5739    
     25500   301.80395      2293.6133      15876.929      1.167786      -1519.1288      1654.4016     -3173.5305      544.77496      732.3894       497.16723     -388.30777      5414.4013     -9986.5827    
     26000   301.89001      2762.3458      15930.279      1.1638751     -1452.1556      1654.8734     -3107.029       551.35566      786.85398      496.88246     -321.40836      5346.415      -9979.2417    
     26500   295.21441      592.19288      16046.282      1.1554612     -1497.5522      1618.2797     -3115.8319      572.95994      787.31643      479.54647     -410.071        5418.3843     -9975.9887    
     27000   295.14345     -953.18564      15937.112      1.1633761     -1532.3682      1617.8907     -3150.259       545.7929       778.93421      499.05371     -396.45989      5385.393      -9972.9689    
     27500   298.20474     -1172.5998      16014.495      1.1577546     -1544.5675      1634.6718     -3179.2393      538.33792      757.49749      471.32311     -381.60246      5400.3988     -9976.4524    
     28000   292.35144     -1318.733       15806.295      1.1730045     -1603.9867      1602.5857     -3206.5724      548.09406      748.74048      489.77837     -398.96188      5373.2206     -9978.5818    
     28500   296.84595      1390.8248      15880.211      1.1675447     -1595.3047      1627.2233     -3222.528       523.47858      782.84077      475.03052     -417.54157      5379.1219     -9977.1668    
     29000   299.39617      1084.0694      16044.611      1.1555814     -1479.6272      1641.2029     -3120.8301      569.25002      775.67394      496.81829     -432.20546      5430.7205     -9973.0238    
     29500   300.43563      818.84871      15931.233      1.1638054     -1516.7499      1646.9009     -3163.6508      567.17378      770.62193      493.0114      -401.16261      5376.2791     -9979.4634    
     30000   296.65622     -2413.6749      15867.015      1.1685156     -1556.9636      1626.1833     -3183.1468      566.53816      750.22591      509.93579     -426.386        5381.3437     -9976.2045    
     30369   308.44825      888.13305      15920.621      1.1645811     -1473.9509      1690.8238     -3164.7747      534.53068      807.05557      495.87757     -357.97173      5320.8566     -9977.1114    
Loop time of 193.79 on 1 procs for 25000 steps with 1915 atoms

Performance: 11.146 ns/day, 2.153 hours/ns, 129.006 timesteps/s, 247.046 katom-step/s
99.8% CPU use with 1 MPI tasks x 1 OpenMP threads

MPI task timing breakdown:
Section |  min time  |  avg time  |  max time  |%varavg| %total
---------------------------------------------------------------
Pair    | 23.851     | 23.851     | 23.851     |   0.0 | 12.31
Bond    | 26.122     | 26.122     | 26.122     |   0.0 | 13.48
Kspace  | 17.446     | 17.446     | 17.446     |   0.0 |  9.00
Neigh   | 106.92     | 106.92     | 106.92     |   0.0 | 55.17
Comm    | 2.7902     | 2.7902     | 2.7902     |   0.0 |  1.44
Output  | 0.16538    | 0.16538    | 0.16538    |   0.0 |  0.09
Modify  | 15.73      | 15.73      | 15.73      |   0.0 |  8.12
Other   |            | 0.765      |            |       |  0.39

Nlocal:           1915 ave        1915 max        1915 min
Histogram: 1 0 0 0 0 0 0 0 0 0
Nghost:          12327 ave       12327 max       12327 min
Histogram: 1 0 0 0 0 0 0 0 0 0
Neighs:              0 ave           0 max           0 min
Histogram: 1 0 0 0 0 0 0 0 0 0
FullNghs:  1.66735e+06 ave 1.66735e+06 max 1.66735e+06 min
Histogram: 1 0 0 0 0 0 0 0 0 0

Total # of neighbors = 1667350
Ave neighs/atom = 870.67885
Ave special neighs/atom = 9.7806789
Neighbor list builds = 1095
Dangerous builds = 0

variable        dens equal density
variable        vol_ equal vol
fix             avg all ave/time 500 10 5000 v_dens v_vol_ file density.dat
run             25000
PPPM initialization ...
  using 12-bit tables for long-range coulomb
  G vector (1/distance) = 0.25688143
  grid = 12 12 12
  stencil order = 5
  estimated absolute RMS force accuracy = 0.015369264
  estimated relative force accuracy = 4.6284083e-05
  using double precision KISS FFT
  3d grid and FFT values/proc = 4913 1728
Generated 45 of 45 mixed pair_coeff terms from arithmetic mixing rule
Per MPI rank memory allocation (min/avg/max) = 32.12 | 32.12 | 32.12 Mbytes
   Step          Temp          Press          Volume        Density         TotEng         KinEng         PotEng         E_bond        E_angle        E_dihed         E_vdwl         E_coul         E_long    
     30369   308.44825      897.15923      15920.621      1.1645811     -1473.9554      1690.8238     -3164.7792      534.53068      807.05557      495.87757     -357.97172      5341.2994     -9997.5587    
     30500   292.83476     -1239.8554      15974.33       1.1606656     -1566.1379      1605.2351     -3171.373       562.55165      760.15872      492.74605     -360.26502      5355.1943     -9991.7678    
     31000   306.59609      539.86373      15776.471      1.1752219     -1522.4732      1680.6708     -3203.144       541.08526      761.36799      507.10093     -404.39391      5374.321      -9995.8297    
     31500   306.93883     -1616.4186      16052.13       1.1550402     -1445.3492      1682.5496     -3127.8988      573.1166       794.01415      512.33823     -432.28548      5407.0214     -9995.0914    
     32000   297.26946      670.95117      15885.416      1.1671621     -1504.6003      1629.5449     -3134.1452      553.73697      801.474        498.67389     -405.98147      5397.6392     -9991.7848    
     32500   299.77233     -534.21867      15931.404      1.1637929     -1540.2986      1643.2649     -3183.5635      580.50997      755.83267      499.19775     -406.5055       5376.3533     -9999.7632    
     33000   296.486       -2966.0647      16093.341      1.1520824     -1543.9827      1625.2502     -3169.2329      604.39872      752.71959      497.53182     -418.96402      5378.8189     -9995.8129    
     33500   290.50476      2433.2822      15960.927      1.1616403     -1608.8187      1592.4627     -3201.2815      552.81416      745.97003      497.46027     -383.97723      5364.6798     -9990.5169    
     34000   297.00565     -1898.9314      15974.773      1.1606334     -1488.6624      1628.0987     -3116.7611      593.28186      782.59979      504.54591     -439.92231      5427.9084     -9997.9408    
     34500   304.39008     -1821.4269      16005.033      1.1584391     -1533.6198      1668.5781     -3202.1979      562.78743      750.12239      490.75491     -364.3518       5341.9822     -9994.5743    
     35000   303.49084      3511.5469      15771.666      1.17558       -1489.5741      1663.6487     -3153.2228      564.68328      785.26461      494.47426     -374.96405      5362.7525     -9996.8286    
     35500   300.26376      1721.3064      15976.961      1.1604745     -1443.8281      1645.9588     -3089.7869      592.15424      787.70601      499.78901     -328.27561      5343.4469     -9995.1731    
     36000   294.34935     -83.391332      15872.501      1.1681118     -1552.3675      1613.5377     -3165.9052      563.24182      773.07056      510.78989     -408.59658      5381.1423     -9998.4248    
     36500   296.01769     -1944.823       15955.916      1.1620051     -1533.8972      1622.683      -3156.5803      568.5602       757.31547      519.12812     -403.36245      5386.9293     -9997.3224    
     37000   300.23007     -533.10206      15927.382      1.1640868     -1495.4845      1645.7741     -3141.2586      547.9865       814.57356      486.59139     -427.86593      5428.0179     -10002.638    
     37500   304.10463     -708.03716      15889.299      1.1668769     -1534.252       1667.0133     -3201.2653      536.00742      773.36055      488.21324     -407.36248      5398.575      -10001.345    
     38000   299.46079     -1263.8347      16021.178      1.1572717     -1585.5389      1641.5571     -3227.096       550.20606      754.43771      486.63011     -434.49662      5397.8847     -9992.8913    
     38500   297.39344      505.06174      16003.295      1.1585648     -1521.7038      1630.2245     -3151.9283      571.34021      735.68633      533.8669      -448.8372       5433.9896     -9989.7085    
     39000   295.6704       1430.7447      15828.341      1.1713707     -1598.7078      1620.7793     -3219.4871      524.33086      762.24297      500.72971     -363.2218       5337.2822     -9993.3068    
     39500   299.04479      2338.2899      16125.746      1.1497673     -1592.1076      1639.2767     -3231.3843      533.77327      750.69052      497.23189     -414.61686      5382.9738     -9994.9042    
     40000   302.01309      1218.0484      15936.344      1.1634322     -1579.9062      1655.5481     -3235.4543      540.40784      749.77765      479.77172     -367.13796      5345.822      -9995.4729    
     40500   301.55645      1788.4657      15991.949      1.1593869     -1573.7705      1653.0449     -3226.8154      549.2576       742.35047      487.71207     -388.05587      5368.5891     -9999.8467    
     41000   304.13647     -7.811027       15977.948      1.1604028     -1520.9659      1667.1878     -3188.1537      586.47123      742.31532      488.36768     -404.36762      5384.2043     -9995.255     
     41500   298.49537      1135.5474      16064.461      1.1541536     -1511.4517      1636.265      -3147.7167      546.47753      804.78969      493.63371     -442.79313      5433.1348     -9993.2365    
     42000   285.21442     -314.17511      15803.843      1.1731865     -1618.8346      1563.4626     -3182.2972      551.03977      798.48666      495.52831     -404.62929      5360.4254     -9994.7935    
     42500   305.05743     -1711.5154      16141.85       1.1486202     -1490.7861      1672.2362     -3163.0223      575.63197      810.00078      469.07311     -394.4599       5366.6943     -9999.9601    
     43000   305.19808      2790.6528      15936.406      1.1634276     -1460.1728      1673.0073     -3133.1801      576.24175      778.20811      471.61952     -358.68806      5388.613      -9998.8629    
     43500   299.29709     -959.79227      15927.556      1.1640741     -1510.4039      1640.6598     -3151.0637      569.98325      808.92238      494.9624      -407.56571      5371.1796     -10001.274    
     44000   291.69874     -931.95307      16072.028      1.1536102     -1555.2926      1599.0078     -3154.3004      562.09033      779.86797      485.91135     -383.86566      5382.0556     -9991.8092    
     44500   292.01075     -1514.4445      16002.722      1.1586064     -1564.1476      1600.7181     -3164.8657      562.66717      777.31875      507.94075     -443.19118      5403.0946     -9985.4245    
     45000   299.63373     -526.31534      15857.216      1.1692378     -1541.9846      1642.5051     -3184.4897      529.15627      794.12894      508.95888     -364.07111      5327.0184     -9993.7805    
     45500   308.13403     -1675.2814      16000.476      1.158769      -1450.4924      1689.1013     -3139.5937      571.09101      778.84087      520.68729     -414.32496      5387.3838     -9996.8127    
     46000   306.60946     -505.02692      15929.887      1.1639037     -1507.9847      1680.744      -3188.7288      560.46096      776.13533      507.51038     -392.86043      5350.3228     -10002.837    
     46500   301.53814     -159.59754      15873.081      1.1680691     -1555.9837      1652.9446     -3208.9282      580.3865       768.2482       478.04536     -425.93634      5370.3757     -9990.8264    
     47000   289.58042      192.80335      15912.405      1.1651825     -1602.6999      1587.3958     -3190.0958      524.69604      779.63849      504.90049     -371.88839      5355.233      -9995.0793    
     47500   297.76214      323.94393      15909.174      1.1654191     -1541.4876      1632.2456     -3173.7332      551.36227      795.75835      490.26775     -424.23243      5400.0123     -9999.5502    
     48000   302.07265     -1532.8706      15869.711      1.1683171     -1479.4947      1655.8746     -3135.3692      568.89991      797.62777      499.61        -401.37413      5391.2673     -10003.156    
     48500   304.05826     -1520.5227      16031.788      1.1565057     -1490.3718      1666.7591     -3157.1309      570.52687      783.81145      496.78728     -399.71636      5378.4756     -9998.735     
     49000   305.23549      334.42098      15732.336      1.1785189     -1514.6691      1673.2123     -3187.8815      588.76109      748.87634      498.88525     -378.69273      5335.623      -9993.2265    
     49500   283.19548      1370.1365      15828.476      1.1713607     -1614.9683      1552.3954     -3167.3637      594.22498      760.68103      498.91817     -400.80887      5365.7117     -9998.7042    
     50000   292.17935      168.96504      16053.365      1.1549513     -1579.9447      1601.6424     -3181.587       548.28395      790.56534      485.6819      -446.78155      5430.2625     -10000.98     
     50500   289.34925      2488.2169      16019.367      1.1574025     -1533.2631      1586.1286     -3119.3917      572.8517       795.74106      495.16229     -417.54803      5415.7023     -9992.6138    
     51000   307.71981     -915.80576      16085.508      1.1526434     -1501.5479      1686.8307     -3188.3785      562.94098      743.75845      502.80092     -385.79303      5365.5461     -9988.7434    
     51500   297.46665      662.18258      15927.367      1.1640879     -1566.7853      1630.6258     -3197.4111      549.12945      741.68172      508.33453     -383.57839      5369.0925     -9994.9137    
     52000   292.76117     -914.96689      15944.001      1.1628734     -1508.6972      1604.8318     -3113.529       601.01148      787.13336      515.43073     -384.15744      5350.9273     -9996.6011    
     52500   307.98721     -3415.3341      15896.712      1.1663327     -1486.966       1688.2965     -3175.2625      556.94614      777.50752      516.54574     -415.43648      5366.4485     -9990.9818    
     53000   301.45813     -366.26954      15768.873      1.1757882     -1582.1324      1652.506      -3234.6384      573.87829      728.54799      472.54075     -375.33286      5350.6234     -9996.8274    
     53500   299.1421       1862.6553      15971.331      1.1608836     -1575.4971      1639.8102     -3215.3073      558.64611      753.66011      493.91082     -369.22876      5329.8948     -9993.4593    
     54000   295.23988     -2285.7152      15941.968      1.1630217     -1556.5438      1618.4193     -3174.9632      593.36109      735.29325      504.51764     -393.36844      5367.1195     -9992.1968    
     54500   305.16271      1766.5152      16005.828      1.1583815     -1498.7548      1672.8134     -3171.5682      532.2758       813.95507      482.49279     -392.61531      5374.8663     -9994.1287    
     55000   299.66776     -1246.7787      15989.564      1.1595598     -1517.0809      1642.6917     -3159.7726      559.8965       785.92834      487.70763     -433.25769      5425.5033     -9997.5768    
     55369   292.8282       735.8749       15884.143      1.1672556     -1642.3498      1605.1992     -3247.549       533.48578      758.35637      490.15813     -374.2674       5330.4699     -9997.4615    
Loop time of 188.365 on 1 procs for 25000 steps with 1915 atoms

Performance: 11.467 ns/day, 2.093 hours/ns, 132.721 timesteps/s, 254.161 katom-step/s
99.8% CPU use with 1 MPI tasks x 1 OpenMP threads

MPI task timing breakdown:
Section |  min time  |  avg time  |  max time  |%varavg| %total
---------------------------------------------------------------
Pair    | 23.523     | 23.523     | 23.523     |   0.0 | 12.49
Bond    | 26.284     | 26.284     | 26.284     |   0.0 | 13.95
Kspace  | 17.425     | 17.425     | 17.425     |   0.0 |  9.25
Neigh   | 101.71     | 101.71     | 101.71     |   0.0 | 54.00
Comm    | 2.7797     | 2.7797     | 2.7797     |   0.0 |  1.48
Output  | 0.16342    | 0.16342    | 0.16342    |   0.0 |  0.09
Modify  | 15.707     | 15.707     | 15.707     |   0.0 |  8.34
Other   |            | 0.7679     |            |       |  0.41

Nlocal:           1915 ave        1915 max        1915 min
Histogram: 1 0 0 0 0 0 0 0 0 0
Nghost:          12418 ave       12418 max       12418 min
Histogram: 1 0 0 0 0 0 0 0 0 0
Neighs:              0 ave           0 max           0 min
Histogram: 1 0 0 0 0 0 0 0 0 0
FullNghs:  1.66795e+06 ave 1.66795e+06 max 1.66795e+06 min
Histogram: 1 0 0 0 0 0 0 0 0 0

Total # of neighbors = 1667950
Ave neighs/atom = 870.99217
Ave special neighs/atom = 9.7806789
Neighbor list builds = 1041
Dangerous builds = 0

# ------------------------------------------------------------- chemical pot ---
# Widom insertion of a test water into the swollen membrane, to be compared with
# the same quantity in bulk water. The comparison is only meaningful if both
# sides use identical cutoff, kspace accuracy and water model -- see bulk.in.j2.
#
# The test particle is inserted but never kept, so this measures the free energy
# the *next* water would pay, which is exactly the saturation question.
molecule        h2o h2o.mol
Read molecule template h2o:
# Rigid water for Widom test insertions.
  1 molecules
  0 fragments
  0 bodies
  3 atoms with max type 10
  2 bonds with max type 9
  1 angles with max type 14
  0 dihedrals with max type 0
  0 impropers with max type 0
fix             w all widom 100 400 0 87232 300.0 mol h2o full_energy
WARNING: Molecule attributes do not match system attributes
For more information see https://docs.lammps.org/err0026 (src/molecule.cpp:3634)
variable        muex equal f_w[1]
variable        boltz equal f_w[2]
variable        wvol equal f_w[3]
# Preserve one observation per Widom burst.  Python groups this raw time series
# into contiguous blocks; averaging a whole block here leaves only n_blocks
# values and makes the effective-sample-size diagnostic impossible.
fix             muavg all ave/time 100 1 100 v_muex v_boltz v_wvol file mu.dat
run             50000
PPPM initialization ...
  using 12-bit tables for long-range coulomb
  G vector (1/distance) = 0.25694778
  grid = 12 12 12
  stencil order = 5
  estimated absolute RMS force accuracy = 0.015334494
  estimated relative force accuracy = 4.6179374e-05
  using double precision KISS FFT
  3d grid and FFT values/proc = 4913 1728
Generated 45 of 45 mixed pair_coeff terms from arithmetic mixing rule
0 atoms in group FixWidom:widom_exclusion_group:w
0 atoms in group FixWidom:rotation_gas_atoms:w
WARNING: Neighbor exclusions used with KSpace solver may give inconsistent Coulombic energies (src/neighbor.cpp:671)
Per MPI rank memory allocation (min/avg/max) = 32.12 | 32.12 | 32.12 Mbytes
   Step          Temp          Press          Volume        Density         TotEng         KinEng         PotEng         E_bond        E_angle        E_dihed         E_vdwl         E_coul         E_long    
     55369   292.8282       711.20282      15884.143      1.1672556     -1642.3504      1605.1992     -3247.5496      533.48578      758.35637      490.15813     -374.2674       5332.9752     -9999.9674    
     55500   306.4234      -11.706418      15765.842      1.1760143     -1571.0742      1679.7241     -3250.7984      533.26054      745.55469      487.06295     -348.73337      5315.0227     -9994.4537    
     56000   292.29658      1268.7792      16035.263      1.1562551     -1618.2387      1602.285      -3220.5237      557.39377      738.53499      504.66968     -405.60126      5370.1694     -9997.407     
     56500   296.07259      469.29876      15997.513      1.1589836     -1587.2199      1622.984      -3210.2038      552.39761      737.63416      510.39868     -369.00845      5339.5149     -9993.7489    
     57000   293.81151      140.25419      15864.043      1.1687345     -1582.4564      1610.5894     -3193.0458      573.61422      763.34242      507.35299     -411.52396      5364.2685     -10002.888    
     57500   306.22914      2023.1672      15936.524      1.163419      -1445.6774      1678.6592     -3124.3366      587.0277       753.62445      499.77638     -395.48792      5412.2062     -9992.5887    
     58000   303.99643      3879.3122      15785.782      1.1745288     -1563.6236      1666.4202     -3230.0438      539.30841      769.93625      480.94901     -403.33914      5374.7728     -10003.537    
     58500   294.83344      2178.3465      15890.982      1.1667533     -1579.3033      1616.1913     -3195.4946      520.30897      766.44041      484.57627     -421.63013      5440.792      -9998.6608    
     59000   292.49347     -3303.1529      16091.547      1.1522109     -1648.0686      1603.3643     -3251.4329      535.17696      744.25594      495.96792     -459.66369      5417.5971     -9996.1703    
     59500   298.44199      1510.7557      15761.214      1.1763596     -1532.451       1635.9724     -3168.4234      534.55489      771.26948      504.08669     -381.12824      5381.5159     -9990.5984    
     60000   300.42389     -3031.8736      15928.907      1.1639753     -1528.3651      1646.8365     -3175.2016      569.57569      768.76135      490.33337     -420.65218      5404.5771     -9999.6451    
     60500   300.09043      1896.9433      15883.827      1.1672789     -1556.8544      1645.0086     -3201.863       526.97783      757.36478      509.6193      -402.778        5394.3428     -10000.323    
     61000   290.75508      2397.5166      15893.196      1.1665908     -1648.8517      1593.8349     -3242.6866      534.76176      764.93082      479.31479     -392.55759      5359.1314     -9998.3127    
     61500   299.10332      1134.2325      15848.348      1.169892      -1476.9607      1639.5976     -3116.5583      551.47524      790.71543      507.90334     -383.85593      5397.5058     -9993.0689    
     62000   296.30843     -486.11503      15824.186      1.1716783     -1525.2562      1624.2768     -3149.533       590.12178      802.17174      474.66289     -414.42088      5384.8065     -9997.2078    
     62500   299.35732     -1665.2133      15922.783      1.1644231     -1543.3416      1640.9899     -3184.3315      573.84046      763.37208      484.77523     -394.9437       5370.8553     -9993.0474    
     63000   296.18462      311.93187      15863.596      1.1687675     -1524.0865      1623.5981     -3147.6846      572.01068      799.70977      493.5045      -422.37728      5392.0858     -9994.7834    
     63500   298.77413     -142.08041      15860.114      1.1690241     -1582.2711      1637.7931     -3220.0641      564.37385      739.2018       478.97016     -386.75978      5366.885      -9993.4696    
     64000   294.56845      663.80784      15925.96       1.1641908     -1556.0101      1614.7387     -3170.7488      561.05519      775.54567      485.05148     -383.19825      5381.2499     -10001.284    
     64500   303.07856      918.59266      15762.664      1.1762514     -1496.6987      1661.3887     -3158.0874      578.32128      749.94979      516.97939     -432.24736      5411.6538     -9995.369     
     65000   299.81849      109.75658      16043.97       1.1556276     -1527.6496      1643.5179     -3171.1674      571.53247      762.79488      483.96079     -381.14528      5378.9809     -9999.5503    
     65500   295.82932      2800.0048      15603.991      1.1882124     -1619.2364      1621.6504     -3240.8868      544.45004      758.19999      493.6451      -402.45479      5355.3        -10001.869    
     66000   303.44758     -1767.8133      15993.85       1.159249      -1563.4392      1663.4115     -3226.8507      576.34384      745.65925      473.42559     -430.08556      5401.9333     -10004.256    
     66500   302.60912      403.59723      15995.365      1.1591392     -1525.769       1658.8153     -3184.5844      545.93488      778.91502      494.22236     -422.42091      5407.0044     -10000.239    
     67000   293.28621      1654.5762      15868.758      1.1683873     -1557.1719      1607.7099     -3164.8818      564.348        781.79601      493.14899     -394.43713      5379.1954     -10001.452    
     67500   300.50762     -804.95597      16070.7        1.1537055     -1560.1564      1647.2955     -3207.4519      548.90569      738.28917      476.43795     -462.76691      5475.156      -9995.2854    
     68000   308.8948      -1823.1994      15845.677      1.1700892     -1538.9123      1693.2716     -3232.184       568.65143      749.10838      479.04024     -380.21076      5338.4881     -9998.6927    
     68500   308.97861     -2128.6412      15909.864      1.1653686     -1512.019       1693.731      -3205.75        569.51499      770.51335      478.55723     -439.38504      5399.6818     -9995.8595    
     69000   299.24394      174.74905      16014.298      1.1577689     -1520.0338      1640.3684     -3160.4022      582.73584      771.94956      502.9926      -346.27535      5309.0657     -9994.0506    
     69500   297.05822      220.2402       15898.648      1.1661907     -1547.2103      1628.3869     -3175.5972      604.4026       765.57157      480.3467      -401.03029      5363.5359     -10000.475    
     70000   308.84007     -1528.7279      16084.15       1.1527408     -1472.7164      1692.9716     -3165.688       574.21636      762.1344       503.49535     -381.68126      5358.8346     -9994.7335    
     70500   296.04666      1549.2123      15967.782      1.1611416     -1551.0923      1622.8419     -3173.9342      583.89229      765.18906      488.45096     -366.13221      5342.6837     -9999.9491    
     71000   297.47293      516.39433      16042.779      1.1557135     -1556.0313      1630.6603     -3186.6916      545.47049      774.25682      502.61903     -369.62818      5347.9209     -10000.563    
     71500   292.45166      1198.32        16114.396      1.1505771     -1597.0918      1603.1351     -3200.2268      547.74477      774.89815      488.50354     -335.84346      5306.8959     -9994.213     
     72000   291.03111     -2128.1096      16183.525      1.1456623     -1613.3439      1595.3481     -3208.6919      572.81823      766.64688      496.47256     -408.50405      5339.2843     -9987.6874    
     72500   305.75724     -1753.0364      16017.161      1.1575619     -1511.7117      1676.0724     -3187.7842      561.054        775.61669      482.43257     -384.65295      5359.9092     -9993.6708    
     73000   292.30289     -440.90674      15948.664      1.1625334     -1543.0686      1602.3196     -3145.3882      580.34944      796.43336      487.53695     -410.51724      5381.635      -9994.0404    
     73500   297.5043      -559.59795      15939.865      1.1631752     -1561.4816      1630.8322     -3192.3138      578.31134      756.22908      494.32347     -338.11101      5296.8871     -9991.0944    
     74000   299.18674     -1092.6652      15913.741      1.1650846     -1599.3227      1640.0548     -3239.3775      551.19724      765.97713      486.57362     -395.73664      5334.301      -9992.5651    
     74500   305.93898      60.356333      15992.795      1.1593255     -1533.4801      1677.0686     -3210.5487      568.41808      734.17025      494.9019      -413.4023       5391.3021     -9996.7265    
     75000   297.49775      2308.8198      15927.083      1.1641086     -1584.7047      1630.7963     -3215.501       567.45994      758.12313      480.2633      -401.70227      5361.1821     -9990.4168    
     75500   291.94922     -2496.5903      16059.699      1.1544958     -1660.9094      1600.3809     -3261.2902      583.92643      723.00943      489.16369     -372.19196      5299.1781     -9994.9843    
     76000   292.44661     -751.13608      16017.928      1.1575064     -1606.3845      1603.1074     -3209.4919      580.82582      765.40736      484.34327     -377.52444      5317.5764     -9992.695     
     76500   298.10974      229.88516      16169.044      1.1466884     -1543.568       1634.151      -3177.719       570.65698      781.25088      478.23526     -391.99897      5363.9398     -9991.4797    
     77000   296.72155      1101.9625      15964.508      1.1613797     -1563.0586      1626.5414     -3189.6         552.63078      776.56423      504.53981     -380.71808      5343.5375     -9997.1002    
     77500   296.68036     -2359.1022      16075.974      1.153327      -1564.894       1626.3156     -3191.2095      552.98875      800.15539      511.63739     -402.98794      5334.7322     -10000.131    
     78000   297.72089     -221.82872      15844.774      1.1701559     -1608.8981      1632.0195     -3240.9176      559.42842      782.8652       495.706       -405.5937       5312.2302     -9997.266     
     78500   300.55097     -3513.7572      16095.174      1.1519512     -1575.5283      1647.5332     -3223.0615      561.59113      797.18561      494.06765     -384.9926       5291.6639     -9993.6344    
     79000   301.49338      1718.3322      15933.046      1.163673      -1539.6478      1652.6992     -3192.3469      570.28103      755.24174      497.08176     -363.65648      5334.7483     -9998.2899    
     79500   301.67984      2396.6747      15948.063      1.1625773     -1503.4361      1653.7213     -3157.1574      572.79658      744.62458      501.43396     -366.19824      5365.8007     -9988.8063    
     80000   303.08444      785.94023      16092.088      1.1521721     -1552.3826      1661.4209     -3213.8036      568.28408      757.89691      492.82106     -350.92845      5295.6805     -9990.0493    
     80500   298.87999     -387.50036      15990.001      1.1595281     -1594.5275      1638.3733     -3232.9009      558.45639      760.60875      453.30633     -377.68939      5362.7219     -10000.903    
     81000   289.98941      1521.4325      15909.967      1.165361      -1633.4058      1589.6378     -3223.0436      549.97893      751.93716      487.92305     -393.90888      5363.4751     -9993.6458    
     81500   299.74501      943.22532      16021.411      1.1572548     -1578.8692      1643.1151     -3221.9843      558.77104      749.77152      499.92884     -412.00108      5363.803      -9994.7131    
     82000   297.42224     -2207.1335      16150.802      1.1479836     -1506.4328      1630.3824     -3136.8152      589.28385      757.14895      490.34334     -395.2778       5399.9146     -9990.8798    
     82500   299.04425     -1539.8553      16000.345      1.1587785     -1537.9532      1639.2738     -3177.2269      585.97003      773.66406      489.08042     -408.72493      5360.4808     -9989.9792    
     83000   295.67587     -2195.8353      15954.913      1.1620781     -1548.937       1620.8093     -3169.7463      572.28048      798.9998       494.86879     -435.43871      5380.0907     -9993.0348    
     83500   299.40487     -929.13232      16128.058      1.1496024     -1578.9305      1641.2506     -3220.1811      568.24269      763.06404      495.78368     -410.53533      5341.1658     -9989.8892    
     84000   292.54084      330.33338      15992.025      1.1593813     -1630.4062      1603.6239     -3234.0302      572.67338      732.14938      486.01775     -421.88281      5382.918      -9997.4926    
     84500   304.05414      395.60004      16005.338      1.158417      -1583.0962      1666.7365     -3249.8327      544.23419      733.67327      495.9672      -382.5351       5340.9354     -9993.6221    
     85000   301.05491      1536.2324      16156.691      1.1475651     -1529.8087      1650.2956     -3180.1043      542.8033       768.94897      494.26392     -391.19938      5389.4235     -9997.1423    
     85500   301.83047     -1397.9435      16019.49       1.1573936     -1517.2476      1654.547      -3171.7946      569.86822      759.81831      492.14509     -372.38113      5363.6158     -9997.5971    
     86000   321.65456     -222.38143      16041.383      1.155814      -1485.043       1763.2169     -3248.26        542.00925      748.35816      487.58929     -459.39868      5417.1343     -9995.8766    
     86500   302.7018       772.0173       16050.353      1.1551681     -1552.642       1659.3234     -3211.9654      557.86755      783.71214      485.10529     -437.13593      5385.9595     -9998.6067    
     87000   307.2968       2939.4087      16014.51       1.1577535     -1586.6814      1684.5118     -3271.1932      524.99545      752.59528      477.30518     -384.81229      5341.5399     -9994.3399    
     87500   296.22697      1153.7513      16122.991      1.1499637     -1526.3763      1623.8302     -3150.2065      575.6047       786.721        469.70453     -379.60843      5382.6537     -9996.1091    
     88000   314.0305       3533.9359      16016.159      1.1576343     -1432.2713      1721.4241     -3153.6953      560.57085      764.55813      488.05942     -365.51214      5375.3848     -9987.627     
     88500   310.04015     -48.320169      16012.41       1.1579054     -1529.9844      1699.5501     -3229.5345      555.95354      735.44383      479.27225     -345.24173      5327.8436     -9994.4059    
     89000   299.31092     -1004.9779      16116.684      1.1504137     -1559.5683      1640.7356     -3200.3038      553.78191      768.25761      484.52365     -353.41109      5315.7482     -9979.8311    
     89500   294.95231      1841.8246      15987.676      1.1596967     -1593.1615      1616.8429     -3210.0044      534.92685      765.11054      481.66749     -371.83348      5365.2236     -9996.6687    
     90000   299.81379      677.94147      16036.716      1.1561504     -1541.1637      1643.4922     -3184.6559      544.11676      792.55881      498.24934     -399.52138      5359.9942     -9993.0234    
     90500   297.62841     -1307.8383      16263.089      1.1400574     -1572.7579      1631.5125     -3204.2704      557.25295      755.08538      485.52253     -353.62516      5339.0784     -9999.5259    
     91000   302.15383      2987.7346      15934.889      1.1635384     -1579.3698      1656.3196     -3235.6894      527.67578      757.45085      486.38358     -388.06027      5370.5409     -10001.18     
     91500   296.87282      57.332422      16023.215      1.1571245     -1537.3389      1627.3706     -3164.7095      582.52764      751.02284      502.78427     -366.87751      5345.7252     -9992.175     
     92000   310.10824      3699.2478      16132.812      1.1492637     -1518.1106      1699.9234     -3218.0339      577.87209      724.18442      488.67275     -374.5818       5334.8929     -9981.0825    
     92500   307.60011     -1195.4239      15984.46       1.15993       -1473.3277      1686.1745     -3159.5021      582.08824      798.45939      494.91432     -432.0582       5381.612      -9995.6629    
     93000   303.8741       54.135862      16091.638      1.1522043     -1530.8612      1665.7496     -3196.6108      567.95041      751.31809      482.99876     -414.17542      5399.7686     -9997.072     
     93500   302.25083     -58.956573      15943.86       1.1628837     -1559.9617      1656.8513     -3216.8131      571.19349      760.68308      479.10144     -377.42429      5331.3182     -9993.1972    
     94000   304.56536     -2434.0815      15960.402      1.1616785     -1555.2038      1669.5389     -3224.7427      564.15643      758.00437      483.05605     -403.93195      5365.0674     -10003.166    
     94500   298.58019      65.571619      16053.371      1.1549509     -1559.2253      1636.7299     -3195.9552      537.47206      781.73455      486.53916     -390.54194      5363.8825     -9987.3066    
     95000   299.23616     -1131.0073      15945.497      1.1627643     -1578.1304      1640.3258     -3218.4562      550.54378      759.08665      482.76571     -401.97129      5374.2005     -9994.4778    
     95500   298.97537     -2168.404       16053.235      1.1549607     -1586.7095      1638.8962     -3225.6057      565.96856      761.67275      497.70488     -399.35537      5334.7478     -9997.7879    
     96000   303.38606      1151.1878      16001.039      1.1587282     -1554.4063      1663.0743     -3217.4806      552.41466      774.89382      471.62745     -401.00521      5367.7218     -9994.6345    
     96500   301.26982      821.66066      16060.696      1.1544241     -1530.8825      1651.4737     -3182.3562      576.85078      764.65719      488.95629     -408.75492      5385.9936     -10000.638    
     97000   306.65873     -702.43353      15956.283      1.1619784     -1432.0517      1681.0142     -3113.0658      590.43163      786.89406      499.66324     -397.40347      5393.732      -9997.5046    
     97500   302.85971      1073.145       15944.175      1.1628607     -1602.4314      1660.189      -3262.6204      501.5579       763.11463      489.4335      -399.80032      5370.8611     -9999.3526    
     98000   293.4362       946.16808      15929.052      1.1639648     -1596.9289      1608.532      -3205.4609      550.49713      771.73491      493.1132      -378.05698      5350.6709     -10005.677    
     98500   307.20831     -817.71616      16133.725      1.1491987     -1515.6013      1684.0268     -3199.628       547.07313      758.55321      496.60674     -438.75392      5420.942      -9995.8554    
     99000   306.83843      383.39107      16078.369      1.1531552     -1484.8446      1681.9992     -3166.8438      569.44065      748.29986      510.81635     -375.02034      5361.525      -9994.4332    
     99500   300.73357     -692.83431      15972.315      1.160812      -1561.6183      1648.5341     -3210.1524      568.84251      759.37626      465.90049     -438.79307      5422.987      -9999.1775    
    100000   311.68594     -1922.3709      16118.75       1.1502663     -1505.7493      1708.5719     -3214.3211      560.78579      772.46198      472.73418     -454.57946      5421.8707     -9998.9439    
    100500   290.98528      1022.093       16028.798      1.1567215     -1570.7959      1595.0968     -3165.8927      555.54492      783.69644      489.7678      -368.94307      5354.2087     -9992.0254    
    101000   296.45076     -590.95604      16077.666      1.1532056     -1575.5806      1625.057      -3200.6376      539.98544      773.63634      503.99628     -405.62948      5369.9495     -9995.6089    
    101500   302.258       -1111.8067      15989.801      1.1595426     -1530.2405      1656.8906     -3187.1312      562.0439       751.0707       488.34815     -377.56425      5374.813      -9999.2155    
    102000   297.68889     -1568.0797      16133.889      1.149187      -1501.7027      1631.8441     -3133.5468      576.55759      782.66742      500.9952      -394.761        5387.0259     -9998.9817    
    102500   305.57736      23.164375      16027.839      1.1567907     -1516.5715      1675.0864     -3191.6579      578.78539      740.68861      488.36659     -362.42128      5346.1298     -9994.7985    
    103000   300.93083     -339.39825      16139.576      1.148782      -1507.7762      1649.6154     -3157.3917      577.94952      735.61766      508.49251     -396.24235      5407.8026     -10003.536    
    103500   295.26395      1866.4167      16055.052      1.15483       -1557.8978      1618.5512     -3176.449       558.1359       763.64005      473.94952     -374.60113      5382.6045     -9991.2555    
    104000   303.09139      1490.4754      15983.008      1.1600354     -1571.8732      1661.459      -3233.3322      540.23505      751.5365       487.84247     -357.82044      5336.812      -10002.86     
    104500   298.80842      1223.7828      15911.745      1.1652308     -1580.1336      1637.981      -3218.1146      565.57969      741.70872      481.51379     -379.91771      5359.2575     -9996.7828    
    105000   303.36826     -2027.3366      16131.332      1.1493691     -1497.7563      1662.9768     -3160.7331      579.8185       775.18899      485.91228     -406.06179      5383.4292     -9992.6652    
    105369   307.73599     -433.7405       15886.983      1.1670469     -1504.5222      1686.9194     -3191.4415      596.85069      764.68187      488.2758      -418.59595      5373.4223     -10006.884    
Loop time of 36287 on 1 procs for 50000 steps with 1915 atoms

Performance: 0.119 ns/day, 201.594 hours/ns, 1.378 timesteps/s, 2.639 katom-step/s
100.0% CPU use with 1 MPI tasks x 1 OpenMP threads

MPI task timing breakdown:
Section |  min time  |  avg time  |  max time  |%varavg| %total
---------------------------------------------------------------
Pair    | 99.328     | 99.328     | 99.328     |   0.0 |  0.27
Bond    | 51.164     | 51.164     | 51.164     |   0.0 |  0.14
Kspace  | 33.761     | 33.761     | 33.761     |   0.0 |  0.09
Neigh   | 386.34     | 386.34     | 386.34     |   0.0 |  1.06
Comm    | 5.4354     | 5.4354     | 5.4354     |   0.0 |  0.01
Output  | 0.31707    | 0.31707    | 0.31707    |   0.0 |  0.00
Modify  | 32.06      | 32.06      | 32.06      |   0.0 |  0.09
Other   |            | 3.568e+04  |            |       | 98.32

Nlocal:           1915 ave        1915 max        1915 min
Histogram: 1 0 0 0 0 0 0 0 0 0
Nghost:          12344 ave       12344 max       12344 min
Histogram: 1 0 0 0 0 0 0 0 0 0
Neighs:              0 ave           0 max           0 min
Histogram: 1 0 0 0 0 0 0 0 0 0
FullNghs:  1.66951e+06 ave 1.66951e+06 max 1.66951e+06 min
Histogram: 1 0 0 0 0 0 0 0 0 0

Total # of neighbors = 1669506
Ave neighs/atom = 871.8047
Ave special neighs/atom = 9.7806789
Neighbor list builds = 202842
Dangerous builds = 0
unfix           w
unfix           muavg

# Written WITH coefficients: each stage reads the previous stage's data file, so
# the file has to be self-contained. `nocoeff` would force every downstream stage
# to re-derive the force field, and any drift between the two paths would be
# silent.
write_data      relaxed.data
System init for write_data ...
PPPM initialization ...
  using 12-bit tables for long-range coulomb
  G vector (1/distance) = 0.25694261
  grid = 12 12 12
  stencil order = 5
  estimated absolute RMS force accuracy = 0.015337202
  estimated relative force accuracy = 4.6187527e-05
  using double precision KISS FFT
  3d grid and FFT values/proc = 4913 1728
Generated 45 of 45 mixed pair_coeff terms from arithmetic mixing rule
write_restart   relaxed.restart
System init for write_restart ...
PPPM initialization ...
  using 12-bit tables for long-range coulomb
  G vector (1/distance) = 0.25694261
  grid = 12 12 12
  stencil order = 5
  estimated absolute RMS force accuracy = 0.015337202
  estimated relative force accuracy = 4.6187527e-05
  using double precision KISS FFT
  3d grid and FFT values/proc = 4913 1728
Generated 45 of 45 mixed pair_coeff terms from arithmetic mixing rule
Total wall time: 10:11:45
