LAMMPS data file via write_data, version 22 Jul 2025, timestep = 105369, units = real

1915 atoms
10 atom types
1835 bonds
9 bond types
3135 angles
14 angle types
4790 dihedrals
10 dihedral types
300 impropers
1 improper types

0.0874200994254597 25.226370900575695 xlo xhi
0.0874200994254597 25.226370900575695 ylo yhi
0.0874200994254597 25.226370900575695 zlo zhi

Masses

1 12.01
2 12.01
3 14.01
4 1.008
5 1.008
6 1.008
7 15.9994
8 1.008
9 15.9994
10 1.008

Pair Coeffs # lj/cut/coul/long/gpu

1 0.1078 3.39771
2 0.0988 3.31521
3 3.8748 2.49951
4 0.0208 2.60018
5 0.0161 2.62548
6 0.0208 1.88746
7 0.1553 3.166
8 0 0
9 0.1553 3.166
10 0 0

Bond Coeffs # harmonic

1 228.89 1.5354
2 243.91 1.5147
3 354.25 1.3986
4 215.86 1.5167
5 345.25 1.0962
6 360.69 1.086
7 352.86 1.0911
8 553 0.98
9 553 1

Angle Coeffs # harmonic

1 60.33 112.42
2 59.87 112.63
3 60.74 120.83
4 63.67 120.02
5 63.53 115.67
6 76.02 109.36
7 43.27 109.68
8 43.61 110.63
9 44.9 119.88
10 43.48 111.41
11 46.79 108.17
12 35.8 107.73
13 35.63 109.79
14 100 109.47

Dihedral Coeffs # charmm

1 0.24 2 180 0
2 0.52 3 0 0
3 3.625 2 180 0
4 0.155556 3 0 0
5 0 2 0 0
6 0.7 2 0 0
7 0.156 3 0 0
8 0.13 3 0 0
9 0 1 0 0
10 0.12 3 0 0

Improper Coeffs # cvff

1 1.1 -1 2

Atoms # full

1639 30 7 -1.32 3.7814963371124226 3.2770149827144928 2.25041345540154 1 2 -3
1528 5 1 0.188236 2.8682736477947617 0.4520942106028511 1.3560821295961092 2 1 -2
1640 30 8 0.32 4.343037544686228 2.917923038531454 1.566647153239938 1 2 -3
873 3 6 0.100836 6.408589855322514 3.305113637543522 2.9550097563622626 2 2 -2
1541 5 6 0.100836 2.597988350173623 1.3920494563007406 1.7985740297083044 2 1 -2
1581 5 6 0.102614 1.727493759719473 3.355618751077471 2.9086977956455655 2 1 -2
935 3 5 0.137136 2.4572622511027182 5.0731133677791265 0.985359839210034 2 2 -2
433 2 6 0.102614 5.089803857737981 4.360646716959065 4.787687184122692 2 1 -2
423 2 1 0.090236 2.5966225611857077 5.222730680327717 4.219591672198903 2 1 -2
440 2 6 0.102614 2.893425656651493 4.314975043437756 3.7487458495463697 2 1 -2
1540 5 6 0.100836 3.9423436095627236 0.4586088859521428 1.519179250684349 2 1 -2
421 2 1 0.090236 4.810053192616596 5.264191784505967 5.309548210029356 2 1 -2
1583 5 5 0.137136 1.9038512005930435 1.8858692593934905 4.8096454010512 2 1 -2
1572 5 6 0.100836 0.26260188800698414 3.669900159592347 4.989650979287745 2 1 -2
439 2 6 0.102614 1.5800431270049524 5.302561432657094 4.361365840130701 2 1 -2
1578 5 6 0.102614 0.4876306677795108 5.307463645966214 2.288881568175631 2 1 -2
1582 5 6 0.102614 0.910053978069848 3.1954745724798013 1.3472725897746218 2 1 -2
1580 5 6 0.102614 0.9678952069994606 1.802059268165356 2.3995006435727726 2 1 -2
1563 5 1 0.090236 0.8992795352847045 2.8835269278517477 2.395889948262907 2 1 -2
435 2 6 0.102614 5.426190913482173 5.378163429980446 6.208581857303479 2 1 -2
420 2 3 -0.6068 3.2977571705720274 5.285238596671594 5.550890877362691 2 1 -2
436 2 6 0.102614 3.215488705974551 3.094655486043991 5.865347523392025 2 1 -2
1564 5 2 -0.09836399999999999 1.1293276748214773 1.192067687989029 5.043806038097903 2 1 -2
1539 5 5 0.137136 0.2433511275050554 0.18048086117016737 1.97273396411606 2 1 -2
1559 5 1 0.188236 24.623490414064655 3.068018984825291 4.578256500348657 1 1 -2
1558 5 2 -0.188164 24.909560414726506 1.6217186961991612 5.024526208893683 1 1 -2
422 2 1 0.090236 2.914942762659521 4.065977086971631 6.351750767713985 2 1 -2
438 2 6 0.102614 1.868859628682966 4.021503198659709 6.55389922867559 2 1 -2
884 3 5 0.137136 6.6221733100795035 1.6659782066297166 1.3223216008412695 2 2 -2
866 3 2 -0.09836399999999999 7.0629710197949285 2.378817666855742 0.6664604210095143 2 2 -2
874 3 6 0.100836 6.767988381821759 4.998923343479848 2.7478736942562625 2 2 -2
860 3 2 -0.188164 7.481826505752575 3.6150928853477358 1.1534654310397445 2 2 -2
861 3 1 0.188236 7.222318117345001 3.9728247138141786 2.6162992546031387 2 2 -2
883 3 6 0.102614 8.095564666564822 1.7064783738184903 3.8291645584124567 2 2 -2
859 3 2 -0.09836399999999999 8.055954591724362 4.511870917214432 0.2990856378140678 2 2 -2
872 3 5 0.137136 8.385399167347124 5.462175595336797 0.7850408366764857 2 2 -2
786 3 6 0.102614 9.748686614726793 2.7437307919639378 0.3409161344436023 2 2 -2
769 3 3 -0.6068 11.522435030162137 1.6040064290765756 0.6379331744758631 2 2 -2
770 3 1 0.090236 11.752230177448341 2.4191771542574236 1.8724677423899387 2 2 -2
881 3 6 0.102614 9.20848941266673 2.0487991988221252 2.6206806676355017 2 2 -2
783 3 6 0.102614 10.984707918361158 2.497729749250042 2.634462305607524 2 2 -2
863 3 1 0.090236 9.52640801318915 4.7383924870483485 3.374982050304283 2 2 -2
876 3 6 0.102614 9.788134029031657 4.542873144091778 2.3584974279044983 2 2 -2
865 3 1 0.090236 8.8565647053273 2.3507900618547546 3.606982347310737 2 2 -2
862 3 3 -0.6068 8.362509582190176 3.780716218718858 3.6486021969569187 2 2 -2
877 3 6 0.102614 9.152449236253847 5.66750313050366 3.587572579892905 2 2 -2
882 3 6 0.102614 9.669764792197594 2.2614313834459514 4.306301595334614 2 2 -2
875 3 6 0.102614 10.389712164154522 4.604298759171426 4.006935567433443 2 2 -2
1595 8 7 -1.32 10.75082460854221 0.13668758944208598 4.009549264522487 4 1 -3
768 3 1 0.188236 10.920176098396992 0.28671280828434687 1.1065404672004318 2 2 -2
864 3 1 0.090236 7.7766974414585315 4.071196586123039 4.964054364307247 2 2 -2
878 3 6 0.102614 7.375826852787633 5.067804796865973 4.932006135573937 2 2 -2
879 3 6 0.102614 6.908063867939054 3.3863194780915236 5.117496783106619 2 2 -2
1673 47 7 -1.32 11.643234348198572 5.753489983997436 5.291655737798353 1 3 -3
1674 47 8 0.32 11.005069758465757 5.299247394438037 5.849692875669446 1 3 -3
782 3 6 0.102614 12.009030408949474 3.481363227886285 1.57423660445652 2 2 -2
784 3 6 0.102614 12.671103215977162 2.0419130079550367 2.2914863022087317 2 2 -2
1355 5 6 0.100836 13.135543737883214 3.7607858983434266 4.064538047081549 1 1 -2
789 3 6 0.102614 13.40258960345439 0.5056525389113765 0.3968337143403862 2 2 -2
1353 5 5 0.137136 14.702683917371182 2.1681076875690395 2.431233839565073 1 1 -2
1352 5 5 0.160636 15.89694765216687 2.4376181487316004 0.23781255739857518 1 1 -2
1339 5 2 -0.120364 15.927193608231217 3.246973076583551 0.9481842558570126 1 1 -2
1338 5 2 -0.011164 16.73907195605282 4.3536182344759435 0.6665596830247775 1 1 -2
1348 5 2 -0.120364 16.63694238696643 5.398941919906097 1.5274820666876896 1 1 -2
1379 5 2 -0.120364 18.048117335610023 0.5454103065874137 1.2138680394922383 1 1 -2
1340 5 2 -0.09836399999999999 15.235705322689107 3.0789023378554052 2.1854359228605893 1 1 -2
1347 5 2 -0.09836399999999999 15.838348637918932 5.3339089128254304 2.7100823016666524 1 1 -2
1341 5 2 -0.188164 15.112897147077407 4.199565164643303 3.0373527773616282 1 1 -2
1372 5 2 -0.188164 17.84083299718452 0.6630114150144792 3.6405140515138674 1 1 -2
1371 5 2 -0.09836399999999999 18.502924312957404 1.8796945345279494 3.596461140977508 1 1 -2
1354 5 6 0.100836 13.969454365631913 5.273041504734326 4.5120469173785835 1 1 -2
1342 5 1 0.188236 14.172814514966166 4.25094614007903 4.245229220711615 1 1 -2
1360 5 6 0.102614 14.893212637119445 1.4691414222687602 4.918842673732672 1 1 -2
1362 5 6 0.102614 16.49616417074072 3.0933821017524377 4.6002375480360085 1 1 -2
1384 5 5 0.137136 18.68101082307148 2.462498970005642 4.480741918509085 1 1 -2
1365 5 5 0.137136 15.667567547243719 6.2736285230164714 3.319038959451306 1 1 -2
1359 5 6 0.102614 13.175142445790378 1.9058803663912092 5.20367304632213 1 1 -2
1343 5 3 -0.6068 14.667339810488572 3.475827244600321 5.524016696257136 1 1 -2
1345 5 1 0.090236 14.194787248034775 2.003917073944895 5.576979509734369 1 1 -2
1346 5 1 0.090236 16.203529899396095 3.4572206804817096 5.565630475866285 1 1 -2
1386 5 6 0.100836 16.450829009911246 0.37055780403133753 5.312921342838295 1 1 -2
1364 5 6 0.102614 16.685063690575014 4.471054013894164 5.635163106785977 1 1 -2
1367 5 1 -0.07226399999999999 19.027315393269163 3.9279968053568957 24.84117837181516 1 1 -3
1369 5 2 -0.011164 18.757195294669472 1.7809854313388924 1.1694971528705065 1 1 -2
1370 5 2 -0.120364 18.91715398241405 2.5138969620711453 2.3645268894121863 1 1 -2
1368 5 1 -0.036264 19.21838301966774 2.389061973944799 25.026631976944834 1 1 -3
1383 5 5 0.160636 19.371631743073763 3.495682908744942 2.410567688850229 1 1 -2
1380 5 4 0.046836 19.337041740639442 4.521079982634167 0.564664907167769 1 1 -2
1398 5 1 -0.07226399999999999 20.656769560500948 1.9464686924202759 24.880954310466237 1 1 -3
1411 5 4 0.046836 21.178679746569742 1.9038288714664633 0.6381542040852247 1 1 -2
1134 4 6 0.102614 24.078848167745456 5.518653090254972 25.103353747972946 0 1 -3
1575 5 6 0.102614 23.780363156034916 2.7761432931347905 1.1207861318549874 1 1 -2
1579 5 6 0.102614 24.012071282824763 4.969180430365388 1.8487802426102775 1 1 -2
1561 5 1 0.090236 23.542168283743052 2.7322193826957797 2.1986794308324606 1 1 -2
1574 5 6 0.102614 23.5448238465492 1.6495119453455185 2.4508985033840336 1 1 -2
1272 4 4 0.045503 20.91665607330927 4.6223181736413075 3.2256889161898528 0 1 -2
1576 5 6 0.102614 22.551322046833924 3.084928562209744 2.4583159804843953 1 1 -2
1250 4 1 -0.088964 21.32769781265265 5.446891234582241 3.725068751808608 0 1 -2
1270 4 4 0.045503 22.155517227438864 5.723168267143129 3.062807995116851 0 1 -2
1271 4 4 0.045503 21.83991975136994 5.096940209102529 4.685373460084055 0 1 -2
1571 5 5 0.137136 22.89729612276429 1.0044912454818058 5.2388384171866935 1 1 -2
1636 28 8 0.32 20.697843178837168 3.6058516444948907 5.625153694194801 1 0 -5
1412 5 4 0.046836 21.273990445155967 2.725952524970874 24.451789514564645 1 1 -3
1577 5 6 0.102614 24.394737530036046 5.456940430998652 3.4717026862559894 1 1 -2
1557 5 2 -0.09836399999999999 23.916402817157703 0.6911949474811976 5.2385396009273855 1 1 -2
1562 5 1 0.090236 24.6917698549354 4.857383146749516 2.660153106575931 1 1 -2
1560 5 3 -0.6068 24.725049313418182 3.3734418760485325 3.05365630858789 1 1 -2
1573 5 6 0.100836 23.685852817271012 3.5626486425821566 4.983996670339053 1 1 -2
497 2 6 0.102614 24.769721459874518 4.606982906238932 6.38061325728268 1 1 -2
441 2 6 0.102614 2.950874924225631 6.06292766954329 3.600611957575786 2 1 -2
434 2 6 0.102614 5.169766846653476 6.052463816766313 4.729756500325995 2 1 -2
925 3 1 0.090236 5.3761331290149545 8.92685905181912 1.2179639536921296 2 2 -2
940 3 6 0.102614 4.769935369562643 9.856539660290807 1.2204303926343296 2 2 -2
946 3 6 0.102614 4.925305885858948 5.977193967664664 0.9754787121125604 2 2 -2
924 3 3 -0.6068 4.56470380168451 7.849427119432296 1.9892121627154595 2 2 -2
927 3 1 0.090236 5.254965092902899 6.429569470470466 1.9114056425298493 2 2 -2
923 3 1 0.188236 3.0763949090244367 7.7972231222388375 1.6360547110784875 2 2 -2
944 3 6 0.102614 4.9035625606547475 5.876135410743517 2.763692585172242 2 2 -2
926 3 1 0.090236 4.649293891019682 8.194006546335862 3.479102472392051 2 2 -2
941 3 6 0.102614 5.657719225857053 7.921931942402165 3.8889143236016097 2 2 -2
937 3 6 0.100836 2.679501519092836 8.814859973954361 1.6149607176449305 2 2 -2
936 3 6 0.100836 2.5553801222461026 7.258405191994197 2.3402135422736823 2 2 -2
943 3 6 0.102614 3.949726115877278 7.508258600913617 3.9544783060251834 2 2 -2
942 3 6 0.102614 4.35007047746197 9.211055217354735 3.7284013115356442 2 2 -2
1110 4 5 0.160636 1.8786945989558792 10.075578751786157 3.723450341164551 1 1 -2
1095 4 4 0.069836 1.0669722452308794 11.850930804057445 2.475084478306362 1 1 -2
1092 4 2 -0.120364 1.5164307302726843 10.619600485078402 4.653355872308742 1 1 -2
1611 16 7 -1.32 0.5112957756457182 7.046539311037665 4.3615559170119225 2 2 -2
1082 4 2 -0.011164 0.8414212165645026 11.862754544420493 4.5898657694099665 1 1 -2
431 2 6 0.100836 2.879221681173983 7.527037931239754 5.616043652821384 2 1 -2
1612 16 8 0.32 0.34261273855822155 7.897216589089942 4.780071715847531 2 2 -2
419 2 1 0.188236 2.8338456786080006 6.632766950331776 6.231494037627972 2 1 -2
939 3 6 0.102614 6.334116896155542 9.123527417823514 1.7139237218836174 2 2 -2
945 3 6 0.102614 6.2747609580896855 6.5416484336551415 1.8434797985610853 2 2 -2
1824 100 10 0.4238 6.829611946526765 11.8719532551297 0.31555438687168036 1 0 -3
1041 4 6 0.102614 7.702913364999513 9.275593117083766 3.686763505051369 1 1 -2
1042 4 6 0.102614 6.785681230126242 10.783441898945453 3.431617707187033 1 1 -2
1663 42 7 -1.32 7.420431794034205 7.1571647872683215 4.036890234479539 2 2 -3
1771 82 10 0.4238 9.257654581537508 10.7937107647945 0.8894420129600203 1 0 -3
1301 5 6 0.102614 9.994413330534263 8.460036300787701 0.7788876273472335 1 1 -2
1303 5 5 0.137136 11.762139146140298 6.283013789814174 25.157409125385406 1 1 -3
1296 5 6 0.102614 11.471690562902415 9.94122345976543 1.3262626924792773 1 1 -2
1283 5 1 0.090236 9.816850194716737 7.933048677030298 1.7081384332801823 1 1 -2
1302 5 6 0.102614 8.896005675183966 8.125869089104711 2.24563398844689 1 1 -2
1300 5 6 0.102614 9.771260806745664 6.778324053556758 1.5627114955562817 1 1 -2
1293 5 6 0.100836 11.914625831535423 6.3756831660211075 2.453748713607639 1 1 -2
1281 5 1 0.090236 11.307885475430968 9.76619733083022 2.4011872931327654 1 1 -2
1279 5 1 0.188236 12.189753884973829 7.453840610901559 2.280067504469346 1 1 -2
1280 5 3 -0.6068 10.995801111476657 8.265730106960017 2.5758450714511323 1 1 -2
1295 5 6 0.102614 10.451616554346755 10.32986144614507 2.732055048450162 1 1 -2
1027 4 1 0.090236 7.679940851410505 10.31878765774202 3.9092732404064674 1 1 -2
1043 4 6 0.102614 8.561228343077483 10.78185768901383 3.5550955796164847 1 1 -2
1282 5 1 0.090236 10.654217919594593 8.11161754358382 4.061005604270289 1 1 -2
1664 42 8 0.32 8.243197020782075 6.688860064312608 4.1949040035405645 2 2 -3
1298 5 6 0.102614 10.05603917891618 9.002702134877424 4.373658096910016 1 1 -2
1299 5 6 0.102614 10.094564713201938 7.185693452254096 4.33826366444155 1 1 -2
1297 5 6 0.102614 11.540335731537006 8.079724377394326 4.6669073619797725 1 1 -2
1823 100 9 -0.8476 6.967322395343268 11.863966474330486 1.3059923442314305 1 0 -3
1825 100 10 0.4238 7.9384989455025075 11.98966777225636 1.508502846887591 1 0 -3
1802 93 9 -0.8476 11.511141282764282 10.85762597548552 5.36545182219718 1 0 -3
1284 5 2 -0.09836399999999999 12.562679786304992 7.002555821514297 24.986403316964612 1 1 -3
1294 5 6 0.102614 12.183793926378232 9.9822972565578 2.9932740914092775 1 1 -2
1278 5 2 -0.188164 12.87835655205022 7.749900379751184 0.9865278473216986 1 1 -2
1292 5 6 0.100836 12.96827244904335 7.704445994132601 3.018271609833207 1 1 -2
1277 5 2 -0.09836399999999999 13.820024158504172 8.743378176295062 0.8592043388733018 1 1 -2
1291 5 5 0.137136 14.041782208594617 9.25911313924352 1.7702806411984107 1 1 -2
1209 4 2 -0.188164 17.975287841189342 11.595464000742856 25.153543292824118 0 1 -3
1366 5 5 0.160636 17.134427033701982 6.365256147084353 1.3054986154403159 1 1 -2
1233 4 5 0.137136 16.286349644537445 12.2987041129527 1.2906805740172396 0 1 -2
1215 4 2 -0.09836399999999999 17.04924539528721 11.534305665997454 1.0847118294885578 0 1 -2
1216 4 2 -0.120364 17.386464285239136 10.634230449398606 2.0421480217805836 0 1 -2
1234 4 5 0.160636 16.89476077296662 10.755878134794976 3.039900882119661 0 1 -2
1219 4 4 0.069836 17.97804076473662 7.795951494206733 3.093419543769922 0 1 -2
1217 4 4 0.046836 17.45610646895731 9.440006347536581 4.774081072402692 0 1 -2
1873 116 10 0.4238 14.583637134044906 8.312922781173572 4.355257693237725 2 0 -2
1871 116 9 -0.8476 14.579793835298524 9.276667204998883 4.08846724916983 2 0 -2
1908 128 10 0.4238 12.830520281416 6.707050919444115 5.232808667061233 2 0 -2
1907 128 9 -0.8476 13.706842067894053 7.16187318097164 5.391529701906225 2 0 -2
1909 128 10 0.4238 13.545910604221227 8.113693914110552 5.6525534895978655 2 0 -2
1872 116 10 0.4238 14.14775654700722 9.820047911352749 4.808242498456996 2 0 -2
1206 4 2 -0.011164 18.463220453743197 9.613661018636398 1.9473076048436704 0 1 -2
1205 4 1 -0.036264 18.764853924727163 8.586387890125975 3.0985785786633153 0 1 -2
1188 4 4 0.069836 18.60026403052015 11.458893460414242 4.238627473959204 0 1 -2
1204 4 1 -0.07226399999999999 18.541440591353144 9.286311781092017 4.573169915138599 0 1 -2
1208 4 2 -0.09836399999999999 18.900316887057706 10.635531005813064 24.942565414906028 0 1 -3
1207 4 2 -0.120364 19.13022482618714 9.586586674269947 0.68696463372793 0 1 -2
1220 4 5 0.160636 19.988391204148314 8.893585030168659 0.5274618054974567 0 1 -2
1248 4 4 0.046836 19.78746804902879 7.076497686197216 2.0189328123192416 0 1 -2
1235 4 1 -0.07226399999999999 19.9987860926486 7.674452688966787 2.9153635562847304 0 1 -2
1136 4 6 0.102614 22.86843851592821 6.905385197294641 0.2729370890923102 0 1 -2
1156 4 4 0.046836 21.569284395911524 10.802945035917807 1.8487654171222143 0 1 -2
1113 4 2 -0.011164 24.10269354179504 10.591739663457792 1.6092527272193984 0 1 -2
1142 4 1 -0.07226399999999999 21.97180998837885 11.699739202877351 2.2978415500540654 0 1 -2
1249 4 4 0.046836 20.847660372797577 8.34606065052505 2.587169905158295 0 1 -2
1112 4 1 -0.036264 23.485592294403823 11.497091826600224 2.6638893709772513 0 1 -2
1186 4 4 0.046836 20.909976061139552 10.01002271128031 3.84438023930992 0 1 -2
1126 4 4 0.069836 23.482753651577802 11.065737716322026 3.650655770330788 0 1 -2
1141 4 5 0.160636 24.7188729475277 8.989331018780252 2.983291044185841 0 1 -2
1236 4 1 -0.036264 20.368158248647617 6.719442444328043 4.095271642991204 0 1 -2
1173 4 1 -0.07226399999999999 20.71189804130765 10.880986973016977 4.362094960863785 0 1 -2
1252 4 5 0.160636 22.660466155341183 8.064421868820222 4.048294321904604 0 1 -2
1251 4 4 0.069836 19.4293027378544 6.400021493587849 4.43237657033729 0 1 -2
1174 4 1 -0.036264 19.199213443902217 10.704925338405655 4.786157043165878 0 1 -2
1238 4 2 -0.120364 22.301492382817912 8.058368171629766 5.060998124668946 0 1 -2
1218 4 4 0.046836 18.77021567793019 8.569889876201282 5.330398016434733 0 1 -2
1237 4 2 -0.011164 21.08176435166451 7.393835696312849 5.2837999102147535 0 1 -2
1187 4 4 0.046836 21.276585693095058 10.973618964207908 5.3242509149730814 0 1 -2
1127 4 5 0.160636 23.696052592029943 11.847735457818233 24.941413715885957 0 1 -3
1114 4 2 -0.120364 24.071795568215855 10.8740180696935 0.19543688879866264 0 1 -2
1123 4 2 -0.120364 24.628705531515898 9.326986424831912 1.9859522749982217 0 1 -2
1116 4 2 -0.188164 24.90180923390104 8.622460543011176 24.870359462009446 0 1 -3
1122 4 2 -0.09836399999999999 25.09511295760384 8.416985132807698 1.082131284200083 0 1 -2
1140 4 5 0.137136 0.09214321979068321 7.454392613952162 1.4024651555644447 1 1 -2
1079 4 5 0.160636 4.523923746649772 12.196168836302958 1.3819882282931375 1 1 -2
750 3 6 0.100836 6.092149139576194 15.782049057356582 0.5563885236995398 2 1 -2
1061 4 2 -0.120364 3.683475430750193 12.272532244023258 0.7615243934456715 1 1 -2
1062 4 4 0.046836 4.46083805701997 14.920833774420455 1.5960759197050498 1 1 -2
1032 4 4 0.046836 6.127411324746092 17.02369162988049 2.4152256359990694 1 1 -2
1049 4 1 -0.07226399999999999 3.7158012877362854 15.207637674956365 2.393671594586559 1 1 -2
751 3 6 0.102614 3.3239017642269357 16.012472833217085 25.028291754795355 2 1 -3
1051 4 2 -0.011164 2.7583535844934044 13.194054733313708 1.204879105422784 1 1 -2
1063 4 4 0.046836 3.0574097913327445 16.003632065224085 1.9533887127128666 1 1 -2
1050 4 1 -0.036264 2.8739599802058167 13.877016695739135 2.6111749033912477 1 1 -2
1018 4 1 -0.07226399999999999 5.341146523906805 17.111548376001394 3.2163181998908525 1 1 -2
1031 4 4 0.046836 4.523088929411394 17.765820016859458 2.846630113423273 1 1 -2
1064 4 4 0.069836 3.442332184157978 13.21956771070216 3.253070539831217 1 1 -2
1019 4 1 -0.036264 4.503659806603437 15.776357706431641 3.616493752666162 1 1 -2
1052 4 2 -0.120364 1.7424383533244554 13.522849806164876 0.2712942370547569 1 1 -2
1033 4 4 0.069836 3.6840367136271475 16.153272935655686 4.272173162141427 1 1 -2
1094 4 4 0.046836 1.5965455141234484 14.138185885484601 4.353801946704391 1 1 -2
1065 4 5 0.160636 1.128593953706939 14.343736425959516 0.4814606898353955 1 1 -2
1080 4 1 -0.07226399999999999 1.4345350341896375 13.993924368511896 3.30297049171387 1 1 -2
1020 4 2 -0.011164 5.4461377200359 14.781889108673157 4.3646715957643805 1 1 -2
1093 4 4 0.046836 0.919992595335714 14.803698345424497 2.9193410226800487 1 1 -2
1081 4 1 -0.036264 0.6826555264617074 12.573746090554536 3.2147356901917146 1 1 -2
1494 5 2 -0.120364 25.1769664616844 17.943569438619953 0.5850401397595331 1 0 -2
1021 4 2 -0.120364 5.312434979038323 14.321473234517306 5.63749447633574 1 1 -2
1598 9 8 0.32 9.799844273182838 12.17698558275449 2.7022016669788687 3 2 -3
1048 4 5 0.160636 6.492187272509462 14.38769485735156 2.4614750745539324 1 1 -2
1030 4 2 -0.120364 6.454090329480969 14.227010648304109 3.518000074370228 1 1 -2
1002 4 4 0.069836 6.893768485973182 17.477604820660474 4.908413817494956 1 1 -2
1029 4 2 -0.09836399999999999 7.309644910555565 13.316364874787624 4.0527178233376695 1 1 -2
1047 4 5 0.137136 8.1731732013976 12.996954136264483 3.469902714579785 1 1 -2
1748 75 9 -0.8476 11.577886436498277 12.880703387344948 0.28157961944200827 1 0 -2
1750 75 10 0.4238 10.84909937877811 12.759371330285013 0.9554811006525017 1 0 -2
1744 73 10 0.4238 9.150646967246141 13.229904917124221 0.4125170270314719 1 0 -2
1597 9 7 -1.32 9.583927565836454 12.252847588867702 1.7335845321861658 3 2 -3
712 3 2 -0.120364 11.216293813861265 16.689381991633326 0.37316510901522576 2 1 -2
729 3 5 0.137136 10.55320039589484 15.038230227781277 1.5860283101179757 2 1 -2
711 3 2 -0.09836399999999999 10.696874628632864 16.05544159020412 1.4900021745331518 2 1 -2
705 3 2 -0.188164 10.57151611087043 16.791890583240615 2.6915888145378655 2 1 -2
725 3 6 0.102614 10.249521881673278 13.061833002223798 4.515578944001014 2 1 -2
719 3 6 0.100836 9.076175062219566 15.42474035057405 3.475013855365925 2 1 -2
706 3 1 0.188236 9.876589842289798 16.09108913004895 3.859013967592906 2 1 -2
724 3 6 0.102614 11.898687460734413 13.34898365710359 4.769129932401639 2 1 -2
709 3 1 0.090236 11.044578693608681 13.747775742948216 4.181992446420548 2 1 -2
718 3 6 0.100836 9.39186979204188 16.879674749946226 4.521775883832223 2 1 -2
707 3 3 -0.6068 10.810485145944375 15.174573825198932 4.711243505558801 2 1 -2
723 3 6 0.102614 11.13382594443148 13.605641160757987 3.1089975216073404 2 1 -2
710 3 1 0.090236 12.085510008461096 15.937403980313915 4.93085535287026 2 1 -2
702 3 2 -0.011164 11.688052444556662 18.027801381809788 0.3898218209414335 2 1 -2
1023 4 2 -0.188164 7.244992564162016 13.003071915924982 5.425959284625739 1 1 -2
721 3 6 0.102614 9.299302084975723 14.313975342427652 5.840305337096855 2 1 -2
708 3 1 0.090236 10.103098656234208 14.992384380860665 6.081702217999603 2 1 -2
727 3 6 0.102614 11.803203202675217 17.021449209284796 5.064271998127955 2 1 -2
728 3 6 0.102614 12.827678074475466 15.785958247117717 4.166537674754989 2 1 -2
668 3 5 0.160636 13.67047627537009 13.411101303775311 1.676442344699162 2 1 -2
667 3 5 0.137136 13.832016863105405 12.189864967354838 3.6930121127413242 2 1 -2
684 3 4 0.069836 13.810920332882766 16.797561225907202 1.0431368973364201 2 1 -2
670 3 1 -0.036264 14.492560876574109 17.465299392894906 0.5426872833716367 2 1 -2
649 3 2 -0.120364 14.367398662971725 13.710880425545527 2.423818706187863 2 1 -2
651 3 4 0.046836 14.644707132230701 13.204446374761856 24.72632680601852 2 1 -3
638 3 1 -0.036264 15.539580426350257 15.05494883737783 0.5871479913763564 2 1 -2
669 3 1 -0.07226399999999999 15.732756251913885 16.57411527401502 0.3466701609794696 2 1 -2
653 3 4 0.069836 16.544485661685222 14.707243737727852 0.4675415763127871 2 1 -2
682 3 4 0.046836 16.459575887600195 17.006685857529156 0.9810322311333896 2 1 -2
639 3 2 -0.011164 15.357143904609256 14.642407570415491 2.0999951204711005 2 1 -2
640 3 2 -0.120364 16.458985628061143 14.937092311721427 3.026481928344227 2 1 -2
654 3 5 0.160636 17.299125136857832 15.499487300981562 2.6003245684199365 2 1 -2
648 3 2 -0.09836399999999999 14.446632350592505 13.089694735660446 3.651773715705158 2 1 -2
641 3 2 -0.09836399999999999 16.471121474759954 14.343848742031565 4.280052521823258 2 1 -2
642 3 2 -0.188164 15.4921708040013 13.36259991694906 4.556391281277803 2 1 -2
655 3 5 0.137136 17.287539250137506 14.53069554794174 4.992125308204518 2 1 -2
685 3 5 0.160636 14.36237033121307 17.689733876398485 3.330786813095853 2 1 -2
1143 4 1 -0.036264 21.00568813936431 12.10782029565657 3.4403756369856926 0 1 -2
1157 4 4 0.069836 20.09146953652609 12.309977725110253 2.932516604807734 0 1 -2
1225 4 6 0.102614 19.472241343853604 13.669938060488823 0.716118445209187 0 1 -2
1629 25 7 -1.32 19.223638806899416 16.507201078759593 1.2074008432332635 1 1 -3
1212 4 1 0.090236 20.00718588137856 13.650164253336609 24.908986753243298 0 1 -3
1630 25 8 0.32 19.642095826554772 17.000986893639634 0.4878466442714624 1 1 -3
1224 4 6 0.102614 20.46944403471319 12.645545893897584 24.86895302312368 0 1 -3
1158 4 5 0.160636 20.331046990342486 14.465570603238747 2.6872375518170486 0 1 -2
1520 5 5 0.137136 21.83231724436837 16.034301453061033 0.9323405304960516 1 0 -2
1496 5 2 -0.188164 23.782541033138543 16.082743026778573 25.10433148529306 1 0 -3
1502 5 2 -0.09836399999999999 22.84396111586009 16.51996698149061 0.9767346094024869 1 0 -2
1155 4 4 0.046836 21.986347771360528 12.47176058158758 1.558135868356536 0 1 -2
1145 4 2 -0.120364 20.953358110226475 14.588829558615325 3.5806251433955167 0 1 -2
1159 4 5 0.137136 20.86594853693378 16.61946277179623 3.5716228139172257 0 1 -2
1503 5 2 -0.120364 23.09642244277596 17.7488924940983 1.6694882527089807 1 0 -2
1124 4 4 0.046836 23.846100424757218 13.499631944347014 3.510303232977382 0 1 -2
1146 4 2 -0.09836399999999999 21.37739675431336 15.797487660767697 4.052010008651381 0 1 -2
1144 4 2 -0.011164 21.449917249387617 13.350183471141346 4.085936866941173 0 1 -2
1189 4 5 0.160636 19.10598989809766 13.323477613603083 5.194119849592106 0 1 -2
1147 4 2 -0.188164 22.221102213715838 15.929617023614256 5.122084725504675 0 1 -2
1154 4 2 -0.120364 22.229302136488442 13.493731718127629 5.27044120360155 0 1 -2
1161 4 6 0.100836 22.462128962209356 17.964066838650325 4.647006833664177 0 1 -2
1153 4 2 -0.09836399999999999 22.573300028087694 14.767544251683102 5.798673814996692 0 1 -2
1172 4 5 0.160636 22.72269377437611 12.649145194009126 5.841089245365519 0 1 -2
1148 4 1 0.188236 22.667413133322867 17.315684051473724 5.570728207742543 0 1 -2
1160 4 6 0.100836 23.731972801007323 17.335011344125142 5.693682655154198 0 1 -2
1125 4 4 0.046836 24.245228847605937 13.196004726378273 1.8110350481349962 0 1 -2
1111 4 1 -0.07226399999999999 24.352875396722837 12.773308991494385 2.7923974656845685 0 1 -2
1096 4 5 0.160636 25.12454820318694 13.488194155392256 5.703675261565918 0 1 -2
988 4 1 -0.036264 6.075370119802411 17.999735891142862 4.4503379196480175 1 1 -2
1626 23 8 0.32 3.4747985069405516 18.941789591325808 1.349556593084721 2 0 -2
1551 5 5 0.137136 4.120437918682035 23.379851947321548 1.9917634302455318 2 0 -2
1625 23 7 -1.32 3.543091991686882 18.195785381298528 0.6824251643670853 2 0 -2
1533 5 2 -0.09836399999999999 3.0846454526067895 23.32473431720755 2.3555371946785515 2 0 -2
1552 5 5 0.160636 3.1584170270325345 21.281166856129154 3.0881311716911233 2 0 -2
1534 5 2 -0.120364 2.4969805148951707 22.14790632128819 2.9430396580217217 2 0 -2
1000 4 4 0.046836 6.080406149994454 19.3988718032354 2.957935404625954 1 1 -2
987 4 1 -0.07226399999999999 6.7127845001266175 19.241497713272587 3.7839388366514455 1 1 -2
969 4 4 0.046836 5.58440601624625 21.84020552262738 3.558318022114973 1 1 -2
1507 5 5 0.160636 1.0413476162524717 18.324579537376522 0.5256300411156583 2 0 -2
1524 5 2 -0.011164 1.121552799081402 22.14031470145558 3.2941020421017204 2 0 -2
1537 5 4 0.069836 1.43247967974089 20.41580669720446 4.477414583005184 2 0 -2
1017 4 5 0.160636 3.8065826109150986 19.664356382031663 4.713138669735854 1 1 -2
955 4 1 -0.07226399999999999 6.657623924396912 21.836709744113648 3.806948211622657 1 1 -2
970 4 4 0.046836 6.673697327379227 22.688445165782333 4.572430704574327 1 1 -2
1525 5 2 -0.120364 0.31780307754231785 23.278051151772985 2.9541295447085547 2 0 -2
1506 5 4 0.069836 0.2586071610666021 20.373750042796352 1.5249888361052206 2 0 -2
1523 5 1 -0.036264 0.585860932307056 21.000202029640526 4.148624409338021 2 0 -2
1553 5 1 -0.07226399999999999 25.063358984843738 21.547979240236096 5.480068193981875 1 0 -2
989 4 2 -0.011164 4.977834088531273 18.101930256755097 5.5831909114690585 1 1 -2
971 4 4 0.069836 6.269945711790629 20.53366034335921 5.410548697924467 1 1 -2
999 4 2 -0.120364 3.892968390882894 18.9554322131994 5.515776034575544 1 1 -2
1589 5 4 0.045503 2.78453887617909 22.240051586966302 6.045351558761566 2 0 -2
760 3 5 0.137136 6.53582162897646 19.05309611402702 0.21201407984303394 2 1 -2
1268 4 4 0.045503 7.578248246208449 21.4590081690703 1.7923373425882256 1 1 -2
1269 4 4 0.045503 7.282152771040697 23.1797129176881 1.987346886339713 1 1 -2
1001 4 4 0.046836 7.667940943846428 18.915759850088108 3.3701248851703873 1 1 -2
968 4 1 -0.09496400000000001 7.578488353437054 22.267042536209217 2.5609788803678355 1 1 -2
742 3 2 -0.09836399999999999 7.308144299697777 18.594331668740722 24.806098085975087 2 1 -3
1267 4 4 0.045503 8.579518753476265 22.544460390494777 2.855258711271969 1 1 -2
761 3 5 0.160636 8.638001390033992 20.332692635997148 24.73635215636827 2 1 -3
703 3 2 -0.120364 11.33728930769971 18.753022925503494 1.5607784734432324 2 1 -2
716 3 5 0.160636 11.491707218908195 19.799057558282648 1.5589164642353381 2 1 -2
704 3 2 -0.09836399999999999 10.817348583679761 18.175619406762138 2.6648388835560812 2 1 -2
717 3 5 0.137136 10.657574923196288 18.74821442423969 3.506746773880368 2 1 -2
986 4 5 0.160636 8.881490908755453 22.755963137325644 4.977799180412598 1 1 -2
956 4 1 -0.036264 6.994655203693298 20.508927963767846 4.630580052035369 1 1 -2
967 4 2 -0.120364 9.116268526777025 21.799094334846245 5.481088742384822 1 1 -2
985 4 5 0.137136 11.041793630575386 22.752340723862567 6.050308298853839 1 1 -2
691 3 6 0.102614 11.747320179267374 23.690936502564718 2.9117661757136264 2 1 -2
773 3 2 -0.09836399999999999 9.254591409034791 23.96437348333508 24.955855079340203 2 1 -3
957 4 2 -0.011164 8.345123395935417 20.603362130645138 5.382094541027447 1 1 -2
679 3 1 0.090236 13.528342963849099 24.029097041696254 5.103212389205447 2 1 -2
695 3 6 0.102614 12.990710461155912 23.30558364357551 5.686809052090687 2 1 -2
690 3 6 0.102614 12.697842380867845 22.42786956809779 2.053914413726507 2 1 -2
677 3 1 0.090236 12.54036707792881 22.869687076210965 3.054167195950765 2 1 -2
689 3 6 0.102614 12.099361903149147 22.089174593361747 3.6483091550474773 2 1 -2
672 3 2 -0.120364 14.394106377237211 18.6870984849741 2.897196282632178 2 1 -2
681 3 2 -0.120364 14.89206149488578 19.958696066815953 0.9732376088452309 2 1 -2
671 3 2 -0.011164 14.550738825558918 18.71347172449621 1.4747424416916701 2 1 -2
680 3 2 -0.09836399999999999 15.067624775079128 21.05590469693803 1.7818841614410266 2 1 -2
699 3 5 0.160636 15.106617456967822 20.083121614445524 25.05398741057418 2 1 -3
698 3 5 0.137136 15.434743526731738 22.004824665038548 1.306281864618521 2 1 -2
1458 5 5 0.137136 17.776707915844177 21.110091309190885 0.8219548011384201 1 0 -2
1457 5 6 0.102614 16.942084143840653 18.787153918152832 2.6813873929633596 1 0 -2
674 3 2 -0.188164 14.7766953969742 20.989547982524478 3.1391408631572046 2 1 -2
1447 5 6 0.100836 17.24975163048574 21.132346695059752 3.359265117585327 1 0 -2
673 3 2 -0.09836399999999999 14.350746646988593 19.799954072955742 3.689555533372144 2 1 -2
687 3 6 0.100836 15.855285785302216 22.683896118967837 3.915994762705024 2 1 -2
675 3 1 0.188236 14.878766330165966 22.273855886764267 4.004452363159961 2 1 -2
686 3 5 0.137136 14.037935109773489 19.734921805794883 4.678217986192154 2 1 -2
1450 5 6 0.102614 16.87333338698331 18.990352647262675 4.880722857652015 1 0 -2
1437 5 1 0.090236 17.953462262931104 19.14951255752556 5.030159021812899 1 0 -2
688 3 6 0.100836 14.700495141030524 21.910906812675307 5.041325226378585 2 1 -2
676 3 3 -0.6068 13.815719374791858 23.470081554421768 3.6928161650616382 2 1 -2
1396 5 5 0.137136 17.000349509465764 24.287022955577626 2.330814601017298 1 0 -2
1385 5 6 0.100836 17.250894491485 24.125074315493663 4.761665500476623 1 0 -2
1451 5 6 0.102614 18.38179355722776 18.187275473166338 5.2611585064256525 1 0 -2
1455 5 6 0.102614 18.491360025205196 17.767261136609932 2.899950112178242 1 0 -2
1439 5 1 0.090236 18.088458790174194 18.837256679241634 2.6008916166808653 1 0 -2
1435 5 1 0.188236 18.281431549715293 21.229159710582394 3.647092266490825 1 0 -2
1448 5 6 0.100836 18.29695533935555 21.737576060159498 4.560607532522506 1 0 -2
1440 5 2 -0.09836399999999999 18.67468520614665 21.75688494991538 1.0916484312715993 1 0 -2
1436 5 3 -0.6068 18.55618871745591 19.74475228061526 3.791106204909267 1 0 -2
1456 5 6 0.102614 18.468488418114354 19.199050779139903 1.638397627252432 1 0 -2
1434 5 2 -0.188164 19.04995539253337 21.88996643724068 2.4810881009487677 1 0 -2
1441 5 2 -0.120364 19.5172730978676 22.31690621725744 0.08983457043732275 1 0 -2
1433 5 2 -0.09836399999999999 20.13909329028 22.66148048847073 2.7978820063822485 1 0 -2
1431 5 2 -0.011164 20.75570472704198 22.907973830171244 0.4039808378129038 1 0 -2
1476 5 5 0.160636 20.832524841883952 19.97238913948467 1.0750818089090193 1 0 -2
1432 5 2 -0.120364 21.060826856674367 23.047311138501385 1.8272498633313135 1 0 -2
1474 5 4 0.046836 23.671787372500425 23.181972093329115 0.3837918967761042 1 0 -2
1491 5 1 -0.07226399999999999 23.313275099951866 20.84962780013445 1.6566756143228563 1 0 -2
1504 5 4 0.046836 23.427993120338634 21.780973090098847 2.2043827846002033 1 0 -2
1445 5 5 0.160636 21.992480562935178 23.405911084170683 2.1917711443519123 1 0 -2
1505 5 4 0.046836 22.471852681067354 20.50992196968255 2.168976995997871 1 0 -2
1521 5 5 0.160636 22.387839230084573 18.125768240937326 2.4372078038947693 1 0 -2
1446 5 5 0.137136 20.485450401854663 22.80497125966164 3.790761169394759 1 0 -2
1452 5 6 0.102614 20.488162716816497 20.119681264068696 3.2055774546376408 1 0 -2
1536 5 4 0.046836 23.959245769089847 19.692908851172632 4.079142713107983 1 0 -2
1438 5 1 0.090236 20.023877288860305 19.465202387350587 3.9307510161761137 1 0 -2
1453 5 6 0.102614 20.22928955296142 18.45381093833042 3.5807329343625196 1 0 -2
1454 5 6 0.102614 20.41415993548759 19.67430545117527 4.963946824301423 1 0 -2
1389 5 6 0.102614 20.153585267488623 24.498236162164773 5.155834032903858 1 0 -2
1449 5 6 0.102614 18.061861680454463 19.908063134098093 5.841422766218175 1 0 -2
1602 11 8 0.32 21.54243550686415 22.498626022110415 6.014147406676681 2 0 -3
1493 5 2 -0.011164 24.293544380764985 18.499961747468824 1.4124767025270197 1 0 -2
1492 5 1 -0.036264 24.528346929420337 19.865864034522602 1.991856515282445 1 0 -2
1566 5 4 0.046836 24.05507071382406 21.954502593443642 5.3129988085200495 1 0 -2
1538 5 5 0.160636 24.43582282235937 23.304812245738255 3.220908439080309 1 0 -2
1522 5 1 -0.07226399999999999 24.804640304492892 19.859332885938734 3.438138713717247 1 0 -2
1535 5 4 0.046836 0.16744488423912696 18.93814931428023 3.6553889076689177 2 0 -2
1567 5 4 0.046836 25.13911070017565 20.67874850339694 6.156754798781348 1 0 -2
1527 5 2 -0.188164 2.245432716090235 24.43198684444262 2.0664444522935295 2 0 -2
1526 5 2 -0.09836399999999999 0.8781765080005051 24.480199975296003 2.314385588050884 2 0 -2
1584 5 5 0.160636 2.452114012532034 24.673020966638127 5.5283580866757465 2 0 -2
1565 5 2 -0.120364 1.4278710414729125 25.04783029336378 5.379676204374389 2 0 -2
1555 5 2 -0.011164 0.36209909295009474 24.124127310257798 5.695534985990926 2 0 -2
781 3 6 0.100836 10.074229544721168 0.529266821671254 1.8015085686967283 2 2 -2
1596 8 8 0.32 10.605654531971332 24.66605906925173 4.753267651126469 4 0 -3
780 3 6 0.100836 11.615920850724768 25.031638801983917 1.8058834752744062 2 1 -2
791 3 5 0.137136 8.47132973001629 24.439720453464645 0.36335534505200195 2 1 -2
767 3 2 -0.188164 10.560433245382423 24.38243248212825 25.18825783191292 2 1 -3
1658 39 8 0.32 16.020473485323855 0.4338145531113202 0.09410010448458195 0 1 -3
694 3 6 0.102614 13.222814512897648 0.10217698606619052 2.5238180378812034 2 2 -2
692 3 6 0.102614 14.475300999873355 24.129905991799482 1.609391262568066 2 1 -2
693 3 6 0.102614 15.02978326585954 25.175595155092914 2.9990929133810282 2 1 -2
678 3 1 0.090236 14.160717644101878 24.623256959522898 2.6123014883284514 2 1 -2
1397 5 5 0.160636 17.82380802784067 25.132036162248482 0.20942356858153205 1 0 -2
1378 5 2 -0.09836399999999999 17.632231767548355 25.158735236683178 2.3905105069231958 1 0 -2
1373 5 1 0.188236 17.37711848520717 25.10876859134781 4.921507423850754 1 0 -2
697 3 6 0.102614 12.83025551781659 24.86740712335147 5.023782618117474 2 1 -2
1657 39 7 -1.32 15.242720265371952 25.144820945069654 24.914852266490534 0 0 -4
1443 5 4 0.046836 22.47713854247266 0.1261650071778746 0.11409350929496316 1 1 -2
1387 5 6 0.102614 19.89720984673552 1.102430168146358 5.403734138133736 1 1 -2
1375 5 1 0.090236 19.800480252125404 0.12586786341795886 5.882810840157576 1 1 -2
1556 5 2 -0.120364 24.179860295860017 24.532392923319314 5.649278369866802 1 0 -2
1627 24 7 -1.32 5.303433384114578 2.167176015780103 6.426202430729455 1 1 -3
1628 24 8 0.32 5.2526855677001745 1.5519714674232212 5.6393264535378576 1 1 -3
437 2 6 0.102614 3.4434749192052077 4.18419511322061 7.3140520273177 2 1 -2
505 2 5 0.160636 3.656107254938111 2.155603436629891 8.596213611535896 2 1 -2
487 2 2 -0.120364 2.9772935550135142 2.761394942922371 9.142662221374898 2 1 -2
553 2 5 0.160636 3.1514133046704713 0.176840752835424 9.308285175603165 2 1 -2
504 2 5 0.137136 1.535228197575005 2.359205753604882 7.6312626501781144 2 1 -2
486 2 2 -0.09836399999999999 1.6650380359330554 2.8279921926980114 8.630552479079965 2 1 -2
459 2 4 0.069836 5.582040627393473 4.472856581411786 9.635614144242693 2 1 -2
490 2 4 0.069836 4.685023715099621 1.448007328895012 10.545685511699073 2 1 -2
477 2 2 -0.011164 3.4013333457706993 3.141592411784445 10.398837936186794 2 1 -2
479 2 2 -0.09836399999999999 1.177462340858153 4.168216295357305 10.577168684290593 2 1 -2
480 2 2 -0.188164 0.7002637882931212 3.57217359155116 9.337261614817285 2 1 -2
445 2 1 -0.036264 6.2542290961243685 4.436528551567399 10.46657986221743 2 1 -2
492 2 5 0.137136 0.46991194680039083 4.630113091706471 11.203064743688845 2 1 -2
475 2 1 -0.07226399999999999 6.023301863368709 2.9800312412993164 10.919591841039248 2 1 -2
476 2 1 -0.036264 4.57485231650171 2.382909442419286 11.047552361061085 2 1 -2
478 2 2 -0.120364 2.498157925076645 3.9675397251497557 11.116885425143028 2 1 -2
554 2 5 0.137136 0.7919927310225713 0.46813842185655224 8.52896681000717 2 1 -2
496 2 6 0.102614 0.4485078251409349 5.830811867581089 7.437582572546319 2 1 -2
444 2 1 -0.07226399999999999 5.916692510227346 5.5665403735961485 11.478906342419721 2 1 -2
457 2 4 0.046836 4.848918688607733 5.466797944470182 11.846416162561155 2 1 -2
491 2 5 0.160636 2.749382032659827 4.361796588198477 12.104076051014074 2 1 -2
521 2 4 0.069836 2.4106066041138914 0.9544393567989168 11.918083000327917 2 1 -2
488 2 4 0.046836 6.515708536424639 2.364467400292436 10.120372322120383 2 1 -2
592 2 6 0.102614 6.989452373732753 1.4724825752705788 7.825389485648646 2 1 -2
474 2 5 0.160636 6.950147269421749 5.222516497505215 8.010840765357473 2 1 -2
446 2 2 -0.011164 7.666483378989977 4.657217336227573 9.90893793549485 2 1 -2
593 2 6 0.102614 7.972022417892494 3.017788400411366 7.839731758569589 2 1 -2
577 2 1 0.090236 7.895402250171941 2.003943331442801 7.502834914510424 2 1 -2
591 2 6 0.102614 7.735735992181015 2.0262229545075043 6.424541364247719 2 1 -2
456 2 2 -0.120364 7.845232935000885 5.088825895925195 8.592213453074352 2 1 -2
880 3 6 0.102614 8.548601997847683 3.8920450472906825 5.788102747110189 2 2 -2
455 2 2 -0.09836399999999999 9.150393861149333 5.325250219802219 8.054699811925246 2 1 -2
575 2 3 -0.6068 9.191396891896865 1.2517607050798614 7.898629146319129 2 1 -2
473 2 5 0.137136 9.191515285656587 5.723500215488664 6.987735761598657 2 1 -2
589 2 6 0.102614 10.337007596523513 1.776294403496586 6.058861145931848 2 1 -2
576 2 1 0.090236 10.343457945389353 1.9065232734339768 7.1622700293002435 2 1 -2
588 2 6 0.102614 10.355958819372129 2.9545633700953218 7.435583821865238 2 1 -2
590 2 6 0.102614 11.295339992351138 1.5011362793136476 7.48146912054574 2 1 -2
462 2 6 0.100836 11.813736130549998 5.337663778996191 7.414203913614495 2 1 -2
450 2 1 0.188236 11.660476461752285 5.58335853175008 8.419508485063503 2 1 -2
449 2 2 -0.188164 10.307305794192306 5.109600796637171 8.835250749833595 2 1 -2
578 2 1 0.090236 9.602650331485226 1.4437780830402178 9.332888988804402 2 1 -2
594 2 6 0.102614 10.045637679273504 2.4506505446503066 9.561393673400751 2 1 -2
595 2 6 0.102614 10.271228569795438 0.6946951482988314 9.698978049493418 2 1 -2
596 2 6 0.102614 8.693918767703972 1.3477453830763249 9.890344186258774 2 1 -2
447 2 2 -0.120364 8.843412298102969 4.560608337064738 10.705519236883864 2 1 -2
448 2 2 -0.09836399999999999 10.108473970425614 4.69765048190559 10.181989586339263 2 1 -2
1800 92 10 0.4238 11.936732951566496 2.0836803106100685 10.931447813929255 1 1 -3
461 2 5 0.137136 10.9725408723347 4.551491097264762 10.812359833509246 2 1 -2
489 2 4 0.046836 6.616371751472382 2.8411532967480335 11.827674219133687 2 1 -2
460 2 5 0.160636 8.721985499707984 4.288756283064282 11.72025336833639 2 1 -2
1799 92 9 -0.8476 11.348789136095904 1.8797149483426485 11.714209171757657 1 1 -3
1680 50 8 0.32 12.40295914123954 3.0487275200072217 8.869922327956584 2 1 -3
463 2 6 0.100836 12.39335850177935 5.084536187492131 9.082568641482892 2 1 -2
1357 5 6 0.102614 13.184122956832008 4.604137879335402 6.570904755374716 1 1 -2
1734 70 10 0.4238 12.808365780728028 0.9304477273379935 8.860171900031204 1 1 -3
1679 50 7 -1.32 12.754829497709375 2.4379460530045205 9.576885899107534 2 1 -3
1344 5 1 0.090236 14.106862986652715 4.184671362927978 6.798022437454031 1 1 -2
1358 5 6 0.102614 14.842165472517987 4.992358834287936 7.049831179141069 1 1 -2
1356 5 6 0.102614 14.119961970658343 3.440335864193861 7.6433768942850895 1 1 -2
1713 63 10 0.4238 14.317433235450219 2.217415724493257 9.200833703823347 1 1 -3
1714 63 10 0.4238 15.339223960662029 1.2787074267441567 8.339797388880271 1 1 -3
1361 5 6 0.102614 14.336210919318 1.5599620673008867 6.586900764631551 1 1 -2
1363 5 6 0.102614 16.59970094002913 2.7603514017742494 6.345281596919074 1 1 -2
1712 63 9 -0.8476 15.224649981014647 2.1677130022022433 8.78312248811343 1 1 -3
1765 80 10 0.4238 16.02514805229181 3.4495978379167855 9.656285563089998 1 1 -3
1763 80 9 -0.8476 16.31089121462034 4.154605437144529 10.305369603260216 1 1 -3
1392 5 6 0.102614 16.919300887993856 1.1981411884576976 7.264481268570298 1 1 -2
1885 120 10 0.4238 13.368342152890607 3.5548895757067918 10.484001085011776 1 0 -2
1883 120 9 -0.8476 13.681172933874898 4.2840996140552905 11.092593616262809 1 0 -2
1884 120 10 0.4238 14.67959819451518 4.26804024089701 11.146297821331869 1 0 -2
1764 80 10 0.4238 17.028623354273655 3.790199178673621 10.898719068671602 1 1 -3
306 1 6 0.102614 17.09146152474605 24.861839636301227 11.217729721928551 2 0 -3
309 1 6 0.102614 14.14653872099751 1.2753273282479654 11.703025424534456 2 1 -3
1846 107 10 0.4238 16.493787997855307 5.8534974869272185 10.53760443259605 2 0 -2
1733 70 9 -0.8476 12.814227182859351 0.1283222936719181 8.263049125504352 1 1 -3
305 1 6 0.102614 15.731397662633848 0.12590635222070878 10.056304621150273 2 1 -3
290 1 1 0.090236 16.069806054260305 24.58362299028071 10.83400580257629 2 0 -3
1391 5 6 0.102614 18.39140030038876 2.0237323572728965 6.6573361864346 1 1 -2
1727 68 9 -0.8476 18.55348494182428 4.515366548251115 6.8937362881118975 1 1 -3
1376 5 1 0.090236 18.01823155428645 1.1147253899611071 7.1186313515114055 1 1 -2
1729 68 10 0.4238 18.508417170305215 4.536413663140821 7.892495989938531 1 1 -3
1697 58 9 -0.8476 18.744417484963968 3.0700123208576406 11.390546357617309 1 1 -3
1728 68 10 0.4238 19.341358772960213 3.9703339956985557 6.607048529130066 1 1 -3
1390 5 6 0.102614 18.54337868209882 1.0288424869867883 8.018400193268814 1 1 -2
1694 57 9 -0.8476 20.119751085612265 3.146251271569193 9.100088047201805 1 1 -3
1635 28 7 -1.32 20.510627576127227 3.068326856470192 6.442187267828615 1 0 -5
1696 57 10 0.4238 20.29326349970419 3.050218344752052 8.119952187704525 1 1 -3
1776 84 10 0.4238 21.64411302072135 1.9946211004966186 7.051185400297668 1 1 -3
503 2 6 0.102614 22.33553938129384 3.7826716901818456 7.574091378215803 1 1 -2
502 2 6 0.102614 21.818099583294313 4.800336188198628 8.775421717127651 1 1 -2
501 2 6 0.102614 22.16237539286285 5.50183791074149 7.189529206733229 1 1 -2
485 2 1 0.090236 22.42934935510641 4.7892366456988995 7.924943777246683 1 1 -2
1775 84 9 -0.8476 22.125703674519514 1.2797293023753873 7.558132437910941 1 1 -3
1777 84 10 0.4238 21.893108542209312 1.3449224917504647 8.528516080034873 1 1 -3
1695 57 10 0.4238 20.675882085209736 2.4848992531284244 9.603404505820297 1 1 -3
1761 79 10 0.4238 20.34001051608962 4.777693101053665 9.958485852247527 1 1 -3
1685 53 7 -1.32 21.617091224483424 1.4787967669800632 10.183493463201986 1 1 -3
498 2 6 0.102614 23.109806529802547 5.757910562349412 10.257210422333557 1 1 -2
484 2 1 0.090236 23.849081045656035 6.012474548812523 9.499923690393706 1 1 -2
1699 58 10 0.4238 19.11619625407495 3.1566780684789277 10.46628199855717 1 1 -3
1708 61 10 0.4238 20.28525016681811 0.6895069467801243 10.435999430921258 1 1 -3
1686 53 8 0.32 22.501844155768666 1.0842495173225188 10.240934430914999 1 1 -3
1706 61 9 -0.8476 19.31818219354235 0.5010544424845162 10.607057580837795 1 1 -3
1760 79 9 -0.8476 20.450373910870667 5.646959798667265 10.440347199555983 1 1 -3
1707 61 10 0.4238 18.885660714577796 1.3111657918945825 11.002835228770387 1 1 -3
1809 95 10 0.4238 22.156581564791537 2.7637914497836267 11.027005856997455 1 1 -3
1698 58 10 0.4238 19.20890357748482 3.7140375655860716 11.998394495725059 1 1 -3
1762 79 10 0.4238 20.440839173015135 5.484656040700133 11.427039590753614 1 1 -3
1810 95 10 0.4238 21.783371377686997 3.971822291699605 12.060441226818995 1 1 -3
1808 95 9 -0.8476 22.522449999130814 3.3972810819090506 11.708787610188587 1 1 -3
482 2 3 -0.6068 23.828488729457618 4.980331695798173 8.377671635675242 1 1 -2
493 2 6 0.100836 23.719494115669605 3.2617492157487766 9.680379534531916 1 1 -2
494 2 6 0.100836 24.31172200011693 2.904748728518342 8.115014664464285 1 1 -2
481 2 1 0.188236 24.40704108446463 3.640332430067095 8.938337037540647 1 1 -2
483 2 1 0.090236 24.58252455536629 5.449346476442851 7.133038012641253 1 1 -2
1038 4 6 0.102614 5.570999972816516 10.831341556047136 5.397618000122371 1 1 -2
1040 4 6 0.102614 5.92648993266127 9.173094861405303 5.451875816535562 1 1 -2
1026 4 1 0.090236 6.252699090243714 10.108288419500182 5.884006226953311 1 1 -2
442 2 5 0.137136 5.332576722858498 7.6376466415419175 6.35609842958018 2 1 -2
1039 4 6 0.102614 6.127437219604426 10.210199494611519 6.952165999455932 1 1 -2
424 2 2 -0.09836399999999999 4.909248101785181 7.531060174945009 7.3475184464170615 2 1 -2
418 2 2 -0.188164 3.6042584888646063 6.974920641657821 7.481354800740915 2 1 -2
425 2 2 -0.120364 5.728879498935904 7.636622473309037 8.49318240370998 2 1 -2
417 2 2 -0.09836399999999999 3.030496560760911 6.584745900784279 8.695072145349435 2 1 -2
1102 4 6 0.102614 4.481381220976857 10.629352879106227 7.916357287155441 1 1 -2
1101 4 6 0.102614 4.843623070822301 11.777305047293027 9.172652718194797 1 1 -2
1088 4 1 0.090236 4.0402746098567635 11.498647546861712 8.416844671154148 1 1 -2
1087 4 3 -0.6068 2.8874141202743537 10.987347901946398 9.266628187465656 1 1 -2
432 2 6 0.100836 1.7043743420465993 6.58270306520915 6.352819857529203 2 1 -2
430 2 5 0.137136 2.077911033639664 6.111851645373305 8.790443509690164 2 1 -2
415 2 2 -0.011164 5.2096005117119235 7.168758276420969 9.711678243374926 2 1 -2
416 2 2 -0.120364 3.8716745785884714 6.701396661178743 9.780256723821903 2 1 -2
1109 4 5 0.137136 2.3311392949769476 9.231002546466465 6.038922468607811 1 1 -2
1098 4 6 0.100836 2.2497915184108885 9.251427835983495 8.371082066449064 1 1 -2
429 2 5 0.160636 3.49277719012966 6.48951020727654 10.774983362264171 2 1 -2
1085 4 2 -0.188164 1.3701097330728933 10.84127229239117 7.131834654882553 1 1 -2
1091 4 2 -0.09836399999999999 1.8043619922083884 10.139421657082039 5.967230149392069 1 1 -2
1086 4 1 0.188236 1.8374098471884286 10.238738603245093 8.528883056949748 1 1 -2
1688 54 8 0.32 1.2162386602016608 7.613946484608619 10.424496641027917 4 2 0
1104 4 6 0.102614 3.9243190174371883 9.291548162614326 9.784276913325414 1 1 -2
1089 4 1 0.090236 3.502822369992317 10.131897989390392 10.336717137740136 1 1 -2
1100 4 6 0.102614 3.613064804940684 12.255522564234186 7.774384562850479 1 1 -2
1103 4 6 0.102614 2.7335880617609902 9.898255421014477 11.038186720005998 1 1 -2
414 2 1 -0.036264 6.1068567086892465 7.022885855349002 10.924184952498145 2 1 -2
426 2 4 0.046836 6.148480468048936 9.195532675253606 11.476239553646963 2 1 -2
1105 4 6 0.102614 4.313730977363373 10.665042859734317 10.80099108849391 1 1 -2
1099 4 6 0.100836 1.0229245866671142 10.19575438089961 9.264044040530772 1 1 -2
1687 54 7 -1.32 0.48582045114065936 8.1252571640211 9.961942864369716 4 2 0
1084 4 2 -0.09836399999999999 0.6898727439633019 12.063620229692232 6.997065258886734 1 1 -2
1840 105 10 0.4238 6.429675161557862 11.727318845409068 10.173029374524114 1 0 -3
1649 35 7 -1.32 7.002532270620014 11.1108174087511 8.993711956005649 1 1 -4
1650 35 8 0.32 7.895268706331338 10.91055546853359 9.160012179078533 1 1 -4
1025 4 3 -0.6068 7.6711400558991905 10.441438970580878 5.471938114597654 1 1 -2
443 2 5 0.160636 6.798163745761304 8.078105569853744 8.434324957548089 2 1 -2
1028 4 1 0.090236 8.640454288750306 9.407877494623186 6.108649024964983 1 1 -2
1044 4 6 0.102614 8.34192698463359 9.138886529929774 7.123874840245917 1 1 -2
1046 4 6 0.102614 8.529377525996816 8.524715948022221 5.470597372546271 1 1 -2
1045 4 6 0.102614 9.6709560568437 9.7406226182257 6.124840645222852 1 1 -2
1804 93 10 0.4238 12.327956930124357 10.372723237162683 5.6779846249018675 1 0 -3
1803 93 10 0.4238 11.195007713392638 11.476135418391685 6.084827136712367 1 0 -3
466 2 6 0.102614 11.894120843593049 7.853973715263447 6.6427538105348125 2 1 -2
465 2 6 0.102614 11.073554982819262 8.85127368914836 7.848595780267356 2 1 -2
464 2 6 0.102614 10.394852077476171 7.280997546606065 7.198117862263704 2 1 -2
452 2 1 0.090236 11.276263378490256 7.81590154279364 7.521556156815387 2 1 -2
1816 97 10 0.4238 11.639297295042457 11.478785564730096 8.206902002012509 1 0 -3
451 2 3 -0.6068 11.957956805011943 6.987068033978082 8.636561317985318 2 1 -2
1814 97 9 -0.8476 12.155672438499503 10.705095961659106 8.573993639907775 1 0 -3
472 2 6 0.102614 10.308472701383664 7.294836718128379 10.258187916244498 2 1 -2
454 2 1 0.090236 11.412424599126453 7.527148700339832 10.018889276297584 2 1 -2
470 2 6 0.102614 11.407720194890896 8.646231926465152 9.918801789173422 2 1 -2
428 2 4 0.069836 7.18625698842063 7.11226250700811 10.70443295200232 2 1 -2
471 2 6 0.102614 11.982245429343733 7.1600880002542695 10.900986358312108 2 1 -2
1037 4 6 0.100836 7.822526229006918 11.81436527728382 7.113344758398185 1 1 -2
402 2 6 0.102614 12.531183044621102 9.285354593658257 10.812244567365937 2 1 -2
1815 97 10 0.4238 12.715123132178537 10.303620229131099 7.848854154268246 1 0 -3
1655 38 7 -1.32 13.509872300888109 9.629335138218991 6.413509500518877 1 1 -2
467 2 6 0.102614 13.966322131272587 6.922125929794252 7.554363445524658 2 1 -2
453 2 1 0.090236 13.508280623299058 7.228115627918812 8.525035736670576 2 1 -2
468 2 6 0.102614 13.698918766594115 8.275272679058693 8.61019906287336 2 1 -2
469 2 6 0.102614 14.03731666117798 6.800267735927929 9.397643407715304 2 1 -2
1656 38 8 0.32 14.365678686743207 9.298148428932874 6.811086821824747 1 1 -2
657 3 6 0.100836 15.024744685352761 11.540680160359315 5.698745095228187 2 1 -2
663 3 6 0.102614 14.471542973784175 11.476605922655255 8.025531715622002 2 1 -2
403 2 6 0.102614 14.237730099489122 8.694383117276054 10.565481008557592 2 1 -2
1844 107 9 -0.8476 16.471636686348248 6.8370262121200325 10.716979886504124 2 0 -2
1845 107 10 0.4238 17.2418452730601 7.0861909559782985 11.304083458649997 2 0 -2
408 2 6 0.102614 12.946948185752117 6.732018768568058 12.217487943509425 2 1 -2
390 2 1 0.090236 13.60152260991272 9.358639784667977 11.176288236234658 2 1 -2
404 2 6 0.102614 13.86406406856943 10.414369326899642 11.159298631293591 2 1 -2
410 2 6 0.102614 14.736343457235156 6.744328552392939 12.20514854597065 2 1 -2
499 2 6 0.102614 23.52134589309349 6.980279210245524 9.042327369611094 1 1 -2
1202 4 5 0.137136 18.29621563792007 10.83341450881645 9.466570479800678 0 1 -2
1185 4 2 -0.120364 18.764073972217602 10.700212713012286 7.347096818081421 0 1 -2
1203 4 5 0.160636 18.675491227100068 9.613905892444462 7.374099344093292 0 1 -2
1184 4 2 -0.09836399999999999 18.571522592949208 11.386998076041015 8.558435224929406 0 1 -2
1175 4 2 -0.011164 19.03592312064255 11.368264501342935 6.112329877670741 0 1 -2
1266 4 5 0.160636 19.72819206379664 6.688586783279309 6.754337005890954 0 1 -2
1247 4 2 -0.120364 20.611639260110778 7.275048697993155 6.618909051327108 0 1 -2
1246 4 2 -0.09836399999999999 21.21471038540645 8.003802629226767 7.630213139547679 0 1 -2
1264 4 6 0.102614 21.11077183727283 10.8158558976157 7.480163324238836 0 1 -2
1253 4 5 0.137136 23.96139172789617 9.171699263763761 5.907809849441259 0 1 -2
1239 4 2 -0.09836399999999999 22.96558009807803 8.747351307997551 6.121730398138376 0 1 -2
1240 4 2 -0.188164 22.454590956010584 8.656635598022659 7.404765502605552 0 1 -2
1245 4 1 0.090236 21.731165738695594 11.387182250400127 8.205358697282493 0 1 -2
1262 4 6 0.102614 22.554850337570834 11.839988607283079 7.690222446285831 0 1 -2
1241 4 1 0.188236 23.19899607651672 9.309510945714102 8.577184556362619 0 1 -2
1265 4 5 0.137136 20.839093684640467 7.915717332952507 8.672038645216745 0 1 -2
1256 4 6 0.102614 20.475029138776982 9.617209720171793 9.686632972514198 0 1 -2
1242 4 3 -0.6068 22.38774998911201 10.440933627984306 9.27965788462544 0 1 -2
1255 4 6 0.100836 23.464065944144856 8.62310622999185 9.341876383136936 0 1 -2
1260 4 6 0.102614 24.239022894082744 11.474035296860423 9.537522521722693 0 1 -2
1257 4 6 0.102614 21.06614706185521 10.751417598533612 10.811382019784732 0 1 -2
1243 4 1 0.090236 21.383855447522627 9.912310309544921 10.193309959722015 0 1 -2
1258 4 6 0.102614 21.80034307211521 9.029267351137788 10.773161546660994 0 1 -2
1244 4 1 0.090236 23.367709189712677 11.205880709522548 10.109132667458583 0 1 -2
1261 4 6 0.102614 22.858234890639004 12.049341540612247 10.554954098974433 0 1 -2
500 2 6 0.102614 24.821445863589936 6.061234779150482 9.840798018694116 1 1 -2
1254 4 6 0.100836 24.184841884254162 9.638669129277941 8.290277679293787 0 1 -2
1259 4 6 0.102614 23.619595474297377 10.635126841652358 11.080769227888567 0 1 -2
495 2 6 0.102614 24.106431440371175 6.265338745880764 6.620753972658495 1 1 -2
1022 4 2 -0.09836399999999999 6.265711394819702 13.540139792395873 6.243262956112242 1 1 -2
1003 4 5 0.160636 6.102095154227113 16.65705954566998 6.806076294696972 1 1 -2
990 4 2 -0.120364 5.133550381017655 17.266696447155077 6.678632880634054 1 1 -2
1034 4 5 0.160636 4.426908854497821 14.666069966018707 6.224366449157127 1 1 -2
1035 4 5 0.137136 6.283263469571898 13.324104575318627 7.333450249652703 1 1 -2
991 4 2 -0.09836399999999999 4.125581327910993 17.058359319435446 7.643742366608766 1 1 -2
1004 4 5 0.137136 4.011824223760671 16.189679239852865 8.352548222691173 1 1 -2
1009 4 6 0.102614 2.590115767986931 14.809252597082054 8.620638171969528 1 1 -2
992 4 2 -0.188164 2.97266254366485 17.88832701991644 7.548469079559953 1 1 -2
1634 27 8 0.32 5.242511433941644 14.361122682127615 8.972511103792998 3 -1 -4
1108 4 6 0.102614 1.8668833477947804 12.781693113605844 9.022205709398957 1 1 -2
995 4 1 0.090236 1.643086412224481 15.318035893870986 8.70075909139402 1 1 -2
1633 27 7 -1.32 4.55016963610115 14.192493858624177 9.625451774759359 3 -1 -4
1090 4 1 0.090236 2.2774832022508718 12.182910743725008 9.864437192062775 1 1 -2
616 2 5 0.160636 5.606380049116392 16.378734821430285 9.799969872607308 2 0 -2
1106 4 6 0.102614 3.078030314076695 12.785036318891649 10.393229868503276 1 1 -2
1107 4 6 0.102614 1.4557785741842162 11.896176477509982 10.498232289263836 1 1 -2
1007 4 6 0.102614 1.2662410003712918 15.596132525797126 7.668046214222402 1 1 -2
993 4 1 0.188236 1.8675370838024739 17.817673386667188 8.607323162530228 1 1 -2
994 4 3 -0.6068 1.6869241083189965 16.572219145320318 9.520523322492009 1 1 -2
1839 105 10 0.4238 5.481935986711083 12.958945764489789 10.674526396751554 1 0 -3
1013 4 6 0.102614 3.755469449850723 16.24032583615331 10.073658370519325 1 1 -2
997 4 1 0.090236 2.7841407639190163 16.411973972830054 10.638073935922842 1 1 -2
1015 4 6 0.102614 2.4902751140728028 15.576511351917699 11.233899734100703 1 1 -2
1008 4 6 0.102614 0.9376009570317027 14.578242733706794 9.117640807229193 1 1 -2
1838 105 9 -0.8476 6.093962290005665 12.226204918847989 10.972032609749917 1 0 -3
1010 4 6 0.102614 0.5211669085928243 17.035294279080276 11.171532541798712 1 1 -2
996 4 1 0.090236 0.3195555208958343 16.59553452731403 10.235517383055896 1 1 -2
1014 4 6 0.102614 2.8001763357641707 17.235577224067846 11.287116326626457 1 1 -2
602 2 2 -0.120364 6.662331255914522 16.70582997513869 9.631875718413383 2 0 -2
1652 36 8 0.32 10.021181544395777 12.277172371531174 8.091162898058046 2 0 -3
617 2 5 0.137136 7.356989310715774 14.619567395894148 9.444904195668562 2 0 -2
603 2 2 -0.09836399999999999 7.594223866873572 15.682426900235654 9.485971727467824 2 0 -2
1024 4 1 0.188236 8.011169488657636 11.84751969232344 5.998550827243427 1 1 -2
1036 4 6 0.100836 9.108532334364071 11.895850600541381 5.830562210999703 1 1 -2
722 3 6 0.102614 9.740140434696864 15.852514828527227 6.474741307150002 2 1 -2
720 3 6 0.102614 10.787422866476298 14.445073129691282 6.8150362263090285 2 1 -2
1651 36 7 -1.32 10.58778512305935 12.453661714146401 7.293972842260491 2 0 -3
1829 102 9 -0.8476 12.471954459575802 16.943865992809734 8.433560252185336 1 0 -3
619 2 6 0.100836 9.430440659160633 14.301776827484474 8.445612624134327 2 0 -2
626 2 6 0.102614 8.8734816499768 12.643264421785213 9.5729052617078 2 0 -2
604 2 2 -0.188164 8.925283566735652 15.938478430705787 9.44813362858273 2 0 -2
610 2 2 -0.09836399999999999 9.29983014761659 17.281322901679424 9.60335780915609 2 0 -2
605 2 1 0.188236 9.921392606533248 14.847453137700485 9.289394941471677 2 0 -2
618 2 6 0.100836 10.86666973769463 15.226608665260589 8.971086660131855 2 0 -2
621 2 6 0.102614 12.430502940063006 13.869226257856528 10.372636028273655 2 0 -2
622 2 6 0.102614 11.63624081677331 12.654152228758997 9.455407698856847 2 0 -2
628 2 6 0.102614 9.31111108262609 12.132736386121634 11.28899277581796 2 0 -2
627 2 6 0.102614 8.139478824021946 13.258030572471245 10.989844712951736 2 0 -2
609 2 1 0.090236 9.06958546446172 12.904338849710898 10.627781027996122 2 0 -2
606 2 3 -0.6068 10.191756343608613 13.97546047189358 10.540703070473782 2 0 -2
607 2 1 0.090236 11.54438726524229 13.2124556097497 10.374173594363688 2 0 -2
629 2 5 0.137136 10.375834248576698 17.491329652878512 9.523663028342055 2 0 -2
277 1 6 0.102614 6.3545093040614615 14.94289978011854 11.510029154398644 2 0 -3
620 2 6 0.102614 11.587522020270981 12.585168093240812 11.211258448921788 2 0 -2
1788 88 10 0.4238 11.97467113535597 17.980516112722796 12.10933828136309 1 0 -3
1831 102 10 0.4238 12.833889713278605 16.895205449018974 9.364489901294625 1 0 -3
726 3 6 0.102614 12.541986499321293 15.597500024242601 5.886991807470482 2 1 -2
664 3 6 0.102614 12.875552719019957 12.452254266100104 6.7371269869044905 2 1 -2
666 3 6 0.102614 12.841233797035983 13.84958791846181 7.653749180493716 2 1 -2
1830 102 10 0.4238 13.205093249234691 17.200870992818018 7.803916338668753 1 0 -3
1632 26 8 0.32 11.998564612741513 16.974745226355736 10.74977119107856 2 -1 -1
661 3 6 0.102614 16.024810381235227 12.113966038861724 8.450069583392724 2 1 -2
647 3 1 0.090236 13.361622959406974 13.397329232702715 6.804642654661995 2 1 -2
665 3 6 0.102614 13.149452603192028 13.987916968835039 5.9023533875430205 2 1 -2
1617 19 7 -1.32 14.308272173458077 17.817941334419558 7.018475857513705 2 3 -2
644 3 3 -0.6068 14.884591738351505 13.273033848459159 7.03616549097111 2 1 -2
658 3 6 0.102614 16.55701246486545 14.459582595662058 7.694022752415435 2 1 -2
1704 60 10 0.4238 14.904763188696197 17.40575569071548 8.694304463077478 1 0 -3
645 3 1 0.090236 15.476514052674622 14.65969946813257 7.4017682051114555 2 1 -2
643 3 1 0.188236 15.568615656050056 12.582561727136804 5.855771353795404 2 1 -2
1717 64 10 0.4238 16.12743074953871 17.13908219327036 6.980656099780349 1 0 -3
656 3 6 0.100836 16.528009533689655 12.299550886060864 6.192268342675036 2 1 -2
1715 64 9 -0.8476 17.11285887683485 17.170880660542558 6.813577261232649 1 0 -3
659 3 6 0.102614 14.888387011321356 15.083143828491888 8.252793236898853 2 1 -2
646 3 1 0.090236 15.017672428363321 12.334593819310209 8.210604203421559 2 1 -2
660 3 6 0.102614 15.380950672565383 15.34362340830451 6.497522565578413 2 1 -2
1192 4 6 0.100836 17.867031904894787 14.645997403232084 9.435824098825563 0 1 -2
1878 118 10 0.4238 17.07694182938635 17.074971450944318 10.310472617296014 2 0 -2
662 3 6 0.102614 14.636101980677171 12.788838490759389 9.128517405233904 2 1 -2
1705 60 10 0.4238 14.252870627169333 17.30639447363336 10.18821766223502 1 0 -3
1191 4 6 0.100836 17.466093886294225 13.178345756493112 10.257460666306713 0 1 -2
1618 19 8 0.32 14.362983297703982 18.11047889947325 6.059906565662101 2 3 -2
1703 60 9 -0.8476 15.107303352913005 17.30777698803621 9.668662059455222 1 0 -3
1631 26 7 -1.32 12.933643656632993 17.156119426038316 11.023765792224967 2 -1 -1
1752 76 10 0.4238 15.810717854658677 15.58030901759014 10.107443253438852 1 0 -3
1898 125 9 -0.8476 15.333407280141298 12.38079698781619 11.406161128001044 2 0 -2
1751 76 9 -0.8476 15.621477717014209 14.792395576007594 10.69342577308903 1 0 -3
1899 125 10 0.4238 15.5910589570233 13.27437349310216 11.03855860758442 2 0 -2
1753 76 10 0.4238 14.878107153172271 15.016585083662182 11.323611632790998 1 0 -3
1861 112 10 0.4238 13.999161460671843 17.645509848993306 12.096713752132802 2 0 -2
1196 4 6 0.102614 18.072291645225512 15.552772876032504 11.345044035534842 0 1 -2
1167 4 6 0.102614 20.048776849095844 17.934104949725956 5.930772698740481 0 1 -2
1263 4 6 0.102614 21.109502704393805 12.138085050441795 8.717570247918712 0 1 -2
1200 4 6 0.102614 20.272097377838577 12.143497686245897 10.64907212645545 0 1 -2
1179 4 1 0.188236 18.26608087424293 13.648390795853542 9.720574195190164 0 1 -2
1190 4 5 0.137136 18.874774051116354 14.53261913314078 7.386806042823356 0 1 -2
1177 4 2 -0.09836399999999999 18.85662839149144 13.416812302754865 7.35890963547755 0 1 -2
1178 4 2 -0.188164 18.53882224744369 12.77073760984882 8.568706144934172 0 1 -2
1877 118 9 -0.8476 18.016680413528043 17.403497344181304 10.215830274044558 2 0 -2
1176 4 2 -0.120364 19.02431873121717 12.806058310735606 6.156461627714625 0 1 -2
1151 4 1 0.090236 20.523089946601708 17.417040248667973 6.751289143037291 0 1 -2
1165 4 6 0.102614 20.519148160994995 16.342916442032163 6.6035041051283505 0 1 -2
1149 4 3 -0.6068 21.94547519759663 17.803286636492622 6.820038619477454 0 1 -2
1171 4 5 0.137136 23.182541914997913 14.800770600014731 6.713632053584943 0 1 -2
1170 4 6 0.102614 22.036164867225075 17.45015052440236 8.991077356143315 0 1 -2
1152 4 1 0.090236 22.484919105842067 17.110287679155377 8.071334664760137 0 1 -2
1168 4 6 0.102614 22.48443982343197 16.009289630854674 8.142792634919239 0 1 -2
1195 4 6 0.102614 20.950472264789482 14.365220101234558 9.115948898828448 0 1 -2
1169 4 6 0.102614 23.59684817769265 17.339260852707227 8.021777914465734 0 1 -2
1610 15 8 0.32 23.58449938159167 13.398061389275336 8.723900050988917 1 0 -2
1609 15 7 -1.32 23.620023342361016 14.276796527824704 9.262582141876777 1 0 -2
1193 4 6 0.102614 19.947416869876555 15.71659632462101 9.31005248239162 0 1 -2
1181 4 1 0.090236 20.45682334371969 14.904832797822134 9.822205709372547 0 1 -2
1180 4 3 -0.6068 19.422359234620714 14.092071950422094 10.652741867253102 0 1 -2
1194 4 6 0.102614 21.1869667390986 15.242961870963951 10.511838324008476 0 1 -2
182 1 6 0.102614 22.940873683258722 17.558430552133977 10.654788096000049 1 0 -3
1166 4 6 0.102614 19.96600396086604 17.734480967855 7.630767181894007 0 1 -2
1183 4 1 0.090236 19.9523975758854 12.88994509235707 11.378481220160937 0 1 -2
180 1 6 0.102614 21.372432997019104 16.755439341866733 11.349384649294862 1 0 -3
166 1 1 0.090236 22.187489656041045 17.600786129318955 11.481455370223678 1 0 -3
1199 4 6 0.102614 19.068491015378157 12.646334667741007 11.989259759364355 0 1 -2
1201 4 6 0.102614 20.803043994117935 13.148188657204482 12.051875218068751 0 1 -2
1182 4 1 0.090236 18.90931688238871 15.011137390794547 11.74356924576923 0 1 -2
1198 4 6 0.102614 19.610145506021247 15.76011395367873 12.05188475611102 0 1 -2
343 2 6 0.102614 22.99137744832165 12.955657406004478 11.985413648784437 1 1 -2
1012 4 6 0.102614 24.719151533776873 17.045996164318403 9.611933211788646 0 1 -2
1083 4 2 -0.120364 0.4114201789588562 12.52814181246916 5.697897195601832 1 1 -2
1097 4 5 0.137136 0.3457974976128465 12.65976472606203 7.898447725298127 1 1 -2
1011 4 6 0.102614 25.09329106235291 15.612030604748657 10.436577171903144 0 1 -2
347 2 6 0.102614 0.45492078699838684 14.386270154739815 11.671704146973667 2 1 -2
1005 4 6 0.100836 0.9301991328037722 17.838984780829385 7.9966613691515125 1 1 -2
634 2 4 0.045503 5.436643122130021 20.39253437474879 7.830097765421921 2 0 -2
598 2 5 0.160636 4.884296973481283 23.02519283364451 7.906165699295562 2 0 -2
580 2 2 -0.120364 5.900455215717332 23.09246508047041 8.390844993354944 2 0 -2
614 2 1 -0.088964 6.277616537295312 19.80206649999125 8.188196462555641 2 0 -2
1590 5 4 0.045503 2.5163061877200574 23.27496087476667 7.44471327804932 2 0 -2
1568 5 1 -0.088964 2.02849755339003 22.52063693456278 6.781559795315236 2 0 -2
1588 5 4 0.045503 1.9408273772925646 21.70210697656845 7.487603428774097 2 0 -2
998 4 2 -0.09836399999999999 2.9006836141450547 18.914105374264082 6.549412399105414 1 1 -2
600 2 1 -0.036264 5.947883728641801 19.137547082475834 9.589848986154054 2 0 -2
615 2 4 0.069836 5.00691515832247 18.640317212318912 9.527076771208856 2 0 -2
583 2 4 0.069836 4.283328776598315 21.56012251970261 9.693912733971327 2 0 -2
569 2 1 -0.036264 5.172068332024065 21.601407371354128 10.367893739930153 2 0 -2
1006 4 6 0.100836 1.9191324341775113 18.680998926556597 9.212830034583108 1 1 -2
1016 4 5 0.137136 2.083907461627833 19.601234262771797 6.574038811986089 1 1 -2
599 2 1 -0.07226399999999999 5.694202850057223 20.200615124128944 10.723822506562533 2 0 -2
539 2 2 -0.011164 2.6114953360790265 23.67552207742132 10.515018816763352 2 0 -2
549 2 2 -0.120364 1.7063072886200596 22.589597316489964 10.74421569166794 2 0 -2
567 2 5 0.160636 1.9310008754729606 21.786597956006204 11.393963556491059 2 0 -2
1554 5 1 -0.036264 0.5743612642046396 22.762493629410372 6.271242472007923 2 0 -2
1569 5 4 0.069836 25.09042966865543 22.736363321050554 7.159574196483508 1 0 -2
548 2 2 -0.09836399999999999 0.4214397772581853 22.71749608591142 10.193771262486537 2 0 -2
613 2 4 0.046836 4.8471072516169 19.7191868825141 11.319946200602516 2 0 -2
568 2 1 -0.07226399999999999 4.683492836496982 22.41301662376079 11.604201554087652 2 0 -2
973 4 5 0.137136 10.55231147821311 18.561758641578294 7.065935800406481 1 1 -2
636 2 4 0.045503 6.6266298602417555 18.97663823939365 7.533756440340827 2 0 -2
570 2 2 -0.011164 6.23413585939032 22.45023175947039 9.625748114711682 2 0 -2
635 2 4 0.045503 7.162651139951308 20.344248360539694 8.389630786246764 2 0 -2
601 2 2 -0.011164 6.995937896169933 18.03584596443359 9.762891264524916 2 0 -2
972 4 5 0.160636 8.390867423241644 18.4667226623777 6.2349144986640095 1 1 -2
958 4 2 -0.120364 8.865196011923683 19.45147158221183 6.112917084744298 1 1 -2
966 4 2 -0.09836399999999999 10.397236354739203 21.888812172755593 6.117685889871013 1 1 -2
959 4 2 -0.09836399999999999 10.14073410627613 19.53676081237468 6.727636704399548 1 1 -2
960 4 2 -0.188164 10.947606269076262 20.664278371419805 6.757319477834377 1 1 -2
961 4 1 0.188236 12.47802967232632 20.674805041193977 7.17708950952207 1 1 -2
977 4 6 0.102614 11.999051596733322 22.981391562739596 7.993919762314361 1 1 -2
976 4 6 0.102614 10.874209168728688 22.156560261085076 8.97033295798417 1 1 -2
963 4 1 0.090236 11.927660449857084 22.385722809737146 8.887187128917228 1 1 -2
572 2 2 -0.09836399999999999 8.498102740069077 23.338846980310187 9.408778756453271 2 0 -2
630 2 5 0.160636 8.708675448486119 19.4058380090433 9.863587070851073 2 0 -2
611 2 2 -0.120364 8.402105333516207 18.36498081749931 9.791269638652603 2 0 -2
978 4 6 0.102614 12.211080514790403 22.916237487736737 9.86257421935586 1 1 -2
571 2 2 -0.120364 7.54368492120499 22.58746361686473 10.132563419108324 2 0 -2
612 2 4 0.046836 6.552220192634041 20.306905050244687 11.351771162465475 2 0 -2
584 2 5 0.160636 7.836110420225022 22.14769310585558 11.069187436244302 2 0 -2
962 4 3 -0.6068 12.847997712918858 21.181124523296916 8.56040462344137 1 1 -2
982 4 6 0.102614 11.62981331156955 19.620256711233772 9.316757004445877 1 1 -2
1886 121 9 -0.8476 10.35299101906753 20.547199872771543 12.019946974975781 2 0 -2
696 3 6 0.102614 14.529161382804864 24.251311281994468 5.546685913108861 2 1 -2
1716 64 10 0.4238 17.50450065311901 17.964285059637803 7.279540163841246 1 0 -3
975 4 6 0.100836 12.834478588931745 19.67783967739129 7.010285900427644 1 1 -2
974 4 6 0.100836 13.028460821952674 21.31888801943741 6.507536491104377 1 1 -2
980 4 6 0.102614 14.546710934783027 22.512897260914876 7.973161546191283 1 1 -2
964 4 1 0.090236 14.353527156678314 21.65675378767004 8.65291875754514 1 1 -2
965 4 1 0.090236 12.62924486960856 19.98074710919426 9.572861669725118 1 1 -2
983 4 6 0.102614 12.803651612055729 20.273089022136496 10.585032828681967 1 1 -2
981 4 6 0.102614 14.548020616393604 22.093145693926694 9.599251445200881 1 1 -2
984 4 6 0.102614 13.401106142235292 19.202736881625192 9.42048494825931 1 1 -2
979 4 6 0.102614 15.101366592698684 20.891331450374594 8.548333600447908 1 1 -2
1768 81 10 0.4238 15.188575737613528 19.219035553397447 6.8125847183060255 1 0 -3
1766 81 9 -0.8476 15.752156596108897 20.04360445386194 6.862161318981063 1 0 -3
1767 81 10 0.4238 16.660654530880272 19.806207506500037 7.2060642376636315 1 0 -3
1395 5 6 0.102614 17.200378520083675 23.548757885370854 7.194953739574292 1 0 -2
1683 52 7 -1.32 17.92844166771922 19.21730286132476 8.257267112299534 3 2 -3
1394 5 6 0.102614 18.548808624910826 22.962049573488933 6.12494686217409 1 0 -2
1377 5 1 0.090236 18.205462549486775 23.705879425298335 6.854205687613184 1 0 -2
1684 52 8 0.32 17.299096913783238 19.6811686174836 8.877793975819728 3 2 -3
1848 108 10 0.4238 18.051571691950194 20.929565719766224 9.382327527163048 1 0 -2
1847 108 9 -0.8476 17.521398462066912 21.369677314227715 10.107043437525332 1 0 -2
301 1 6 0.100836 14.02267921117684 23.007782676143478 11.17846588235597 2 0 -3
1863 113 10 0.4238 15.652634583647107 19.049032093579847 10.897260532279784 2 0 -2
1864 113 10 0.4238 16.372390064359045 20.513719639252123 10.95431805156051 2 0 -2
1862 113 9 -0.8476 15.603763714466593 19.96811652688988 11.288272817092057 2 0 -2
1879 118 10 0.4238 18.058203513453968 18.090218747437966 9.490099764073252 2 0 -2
1393 5 6 0.102614 18.780676367195746 23.63768757184104 7.775616244559709 1 0 -2
1849 108 10 0.4238 18.1101551361305 21.997107357000345 10.616643458304818 1 0 -2
1773 83 10 0.4238 19.208535139786605 20.218533036780805 7.983482595023189 1 0 -3
1774 83 10 0.4238 20.149048440172457 21.275681116287046 7.168322458371545 1 0 -3
1772 83 9 -0.8476 19.84176296387937 20.98705233616728 8.075110390635789 1 0 -3
558 2 6 0.102614 20.513532863150296 23.205073823092597 9.09301089002037 1 0 -2
1601 11 7 -1.32 20.775542661019898 21.89765252421295 5.885626583598069 2 0 -3
1162 4 6 0.102614 21.926097145680984 19.635940837866706 8.033767491197707 0 1 -2
557 2 6 0.102614 21.512417832528165 23.946311628965177 7.641062600071141 1 0 -2
1163 4 6 0.102614 21.70564900031154 19.791718312064937 6.23604375900366 0 1 -2
1150 4 1 0.090236 22.223181999218518 19.26736530942042 7.045354932495082 0 1 -2
1164 4 6 0.102614 23.300641539973675 19.308128250864804 6.962937384975357 0 1 -2
561 2 6 0.102614 22.60106749544847 21.099981869595688 9.412056928698446 1 0 -2
545 2 1 0.090236 21.38567393831765 23.86209403876579 8.734614683516009 1 0 -2
546 2 1 0.090236 22.901282565506918 21.821689206764873 8.65783946425936 1 0 -2
560 2 6 0.102614 23.977853344675772 21.564284269369452 8.461410734098186 1 0 -2
544 2 3 -0.6068 22.628011988407458 23.20292363802858 9.324617952958443 1 0 -2
562 2 6 0.102614 22.375151818839647 21.724976959904907 7.669891977087021 1 0 -2
183 1 6 0.102614 21.49456059517123 19.566383147521172 9.697136849770088 1 0 -3
185 1 6 0.102614 20.225853589024368 18.45906819181426 10.063541238264754 1 0 -3
167 1 1 0.090236 20.755065826540914 19.293616507933613 10.438756581762966 1 0 -3
175 1 6 0.100836 23.136164816044563 20.10103092746536 10.844571870557782 1 0 -3
184 1 6 0.102614 20.113765667150936 20.083792086436702 10.57679247904114 1 0 -3
564 2 6 0.102614 23.109811593452875 22.384851061064793 11.284891252802446 1 0 -2
563 2 6 0.102614 21.435831183032974 22.522450606595818 10.991956009180011 1 0 -2
547 2 1 0.090236 22.406653143201176 23.03649894879026 10.856647654186098 1 0 -2
1832 103 9 -0.8476 19.271686240312917 22.959407308811706 11.193648838045913 1 0 -3
164 1 3 -0.6068 21.503057182295642 18.900821901262375 11.63535644423345 1 0 -3
1647 34 7 -1.32 24.1841424744768 19.32749116806218 9.061202848575423 1 0 -3
542 2 2 -0.188164 25.16662965473855 23.900178876172546 9.504143267684658 1 0 -2
566 2 5 0.137136 24.92156387892073 21.80222595891499 10.400874648395778 1 0 -2
1648 34 8 0.32 24.969764740490156 19.404508860242082 8.531917299353417 1 0 -3
538 2 1 -0.036264 3.9621694185822616 23.76411752579739 11.39915904767439 2 0 -2
540 2 2 -0.120364 2.3119610321328596 24.67487100189154 9.594534480180808 2 0 -2
552 2 4 0.069836 4.657599679726442 24.43400043757714 10.847000153255005 2 0 -2
541 2 2 -0.09836399999999999 1.0549017795972244 24.764683985827055 9.144540423997594 2 0 -2
585 2 5 0.137136 9.392565998814414 23.520000690655706 9.916270616552193 2 0 -2
597 2 5 0.137136 6.543571504751263 24.47265210606122 6.8642783326188574 2 0 -2
579 2 2 -0.09836399999999999 6.833030737763509 23.877215621973903 7.699234442961909 2 0 -2
574 2 1 0.188236 9.186334244159484 24.91756832721569 7.525345770969893 2 0 -2
573 2 2 -0.188164 8.169925409450773 24.001775797605937 8.248610412734974 2 0 -2
586 2 6 0.100836 8.990483948716808 24.855465622568573 6.427029845440278 2 0 -2
587 2 6 0.100836 10.213949479392781 24.587525705581214 7.646605449819296 2 0 -2
307 1 6 0.102614 16.131751135656394 23.635207717301547 10.347567783430467 2 0 -3
300 1 6 0.100836 13.162229627753431 24.612025103496364 11.03548137860644 2 0 -3
287 1 1 0.188236 13.731202118698208 23.89496354396568 11.706812816594915 2 0 -3
1624 22 8 0.32 15.961452458730962 24.37505454821344 8.228783331068733 1 3 -1
1735 70 10 0.4238 13.756520559510694 25.04496467052956 8.012734029311394 1 0 -3
1623 22 7 -1.32 15.271175970554426 24.864108292549275 7.79457176879262 1 3 -1
565 2 6 0.102614 22.40999586071301 23.985034548902185 11.374117267977804 1 0 -2
1374 5 3 -0.6068 18.318657165854667 25.07771618575274 6.146673782202338 1 0 -2
1388 5 6 0.102614 20.33280619367636 25.213169522203728 6.813425435840713 1 0 -2
1570 5 5 0.160636 23.320651640675997 23.960470546384805 5.913411103057199 1 0 -2
555 2 6 0.100836 23.873797250133876 24.087595689181157 7.824781718353909 1 0 -2
543 2 1 0.188236 23.827035504813942 24.12854406673388 8.937049680149462 1 0 -2
559 2 6 0.102614 21.09282424586445 24.837445801394978 9.106688145191628 1 0 -2
556 2 6 0.100836 23.637491581285573 0.09498870322357789 9.111235770024665 1 1 -2
1834 103 10 0.4238 19.094927029657505 23.94314732095922 11.225378200379996 1 0 -3
212 1 6 0.102614 23.342155769828082 0.1464306627547245 11.678591424009 1 1 -3
506 2 1 -0.07226399999999999 4.280181959805465 2.0002711398554767 12.563045381267541 2 1 -2
519 2 4 0.046836 5.204434618974187 1.511653091653134 12.930358121580836 2 1 -2
520 2 4 0.046836 4.098185266413326 2.868002587774038 13.173193256628393 2 1 -2
507 2 1 -0.036264 3.1387579032398105 0.9107050016601415 12.706980430847109 2 1 -2
245 1 6 0.102614 4.8168416568686965 2.9824664888434747 15.154294503326959 2 1 -3
518 2 2 -0.120364 2.5418874275311416 0.7160625170546995 15.190121479610067 2 1 -2
246 1 6 0.102614 3.237819816854397 3.584784393442795 15.749108307922837 2 1 -3
368 2 5 0.137136 1.9371913843374593 5.609990791241341 14.487198858882662 2 1 -2
508 2 2 -0.011164 2.367216587393965 1.330070556015315 13.958129972779934 2 1 -2
248 1 5 0.137136 5.932561542952384 1.8101144057340872 15.974222232731396 2 1 -3
229 1 1 0.090236 4.335795220201 3.780530493820288 15.72798732849762 2 1 -3
247 1 6 0.102614 4.6746812305521726 4.712490201341406 15.239277362685128 2 1 -3
509 2 2 -0.120364 1.452328228004332 2.3892400286214355 13.921394120673707 2 1 -2
230 1 2 -0.09836399999999999 5.614580035780867 0.91559613801959 16.534239420698164 2 1 -3
517 2 2 -0.09836399999999999 1.9036119393335285 1.285238282525814 16.34745280529232 2 1 -2
510 2 2 -0.09836399999999999 0.9469378077413447 3.0426014179064693 14.947366699494252 2 1 -2
522 2 5 0.160636 1.257694590548182 2.754418400654695 12.907221826861356 2 1 -2
511 2 2 -0.188164 1.0904569087265437 2.5180061850726765 16.27783549279046 2 1 -2
228 1 1 0.090236 6.3116819351612 3.933273080719892 17.361502211403746 2 1 -3
226 1 3 -0.6068 4.7971459067018705 3.827439479383886 17.230238369342104 2 1 -3
535 2 5 0.137136 2.0856500465733863 0.8070031521810823 17.39019695078465 2 1 -2
239 1 6 0.102614 4.412504998758109 5.986600311693795 17.30385487399198 2 1 -3
512 2 1 0.188236 0.5856022296192156 3.1930242173364745 17.571880047597922 2 1 -2
224 1 2 -0.188164 4.7760363530252645 1.115999958500293 17.666238671764248 2 1 -3
225 1 1 0.188236 4.263515690996824 2.5466602736907875 18.010639651270907 2 1 -3
227 1 1 0.090236 4.130573012475211 5.10204507205791 17.904577673234236 2 1 -3
240 1 6 0.102614 3.0833606565352736 4.977575851856985 17.733024029203094 2 1 -3
525 2 6 0.100836 0.6719894154186086 4.275857987546957 17.412526925319796 2 1 -2
458 2 4 0.046836 6.538378233151824 5.426942181712019 12.311691061359015 2 1 -2
244 1 6 0.102614 6.787161923167537 3.3557573069438176 16.616201110521956 2 1 -3
242 1 6 0.102614 6.693616028548054 4.946920274048919 17.19996193793945 2 1 -3
1682 51 8 0.32 6.422802074395751 3.9264541267378372 13.55283778261602 1 1 -3
1681 51 7 -1.32 6.9641620201325765 3.9329162015594354 14.34890695212152 1 1 -3
1912 129 10 0.4238 7.586398039473321 2.3448606540382078 14.205404743776299 2 0 -2
1910 129 9 -0.8476 8.0746852725626 1.4978331392435582 13.995368772741996 2 0 -2
1911 129 10 0.4238 8.801769428603535 1.6871126420789262 13.335431760213696 2 0 -2
1801 92 10 0.4238 11.789355844014962 2.197580321713664 12.553767084213028 1 1 -3
849 3 6 0.102614 10.013325056008014 4.9026146401938036 14.682947309660577 2 2 -3
847 3 6 0.102614 8.610469171650214 5.095936403348364 15.897762214205846 2 2 -3
843 3 6 0.100836 11.62862335161102 4.103616772743562 15.902125830981875 2 2 -3
841 3 5 0.137136 9.427944343439055 2.8465857062402997 16.01712247738649 2 2 -3
833 3 1 0.090236 9.438904263431874 5.591593588984697 15.307927317287813 2 2 -3
830 3 1 0.188236 11.25838028968998 4.623504426909935 16.805001162956465 2 2 -3
1782 86 10 0.4238 11.338041087385093 1.5433554147028767 17.59379109045512 1 1 -3
840 3 5 0.160636 8.34097366050217 1.1687737812580796 17.42498762453978 2 2 -3
828 3 2 -0.09836399999999999 9.55848804805002 2.913844233451961 17.13349810370751 2 2 -3
311 1 5 0.137136 11.934285186034822 25.18267543767731 13.09145886920292 2 0 -3
1781 86 9 -0.8476 12.015176306262452 0.8826049166820017 17.917660893220017 1 1 -3
1865 114 9 -0.8476 12.453681732684341 2.1305069621473254 15.174459386287662 2 0 -2
1875 117 10 0.4238 13.00919603097341 4.220426402813996 12.863551111259293 2 0 -2
1874 117 9 -0.8476 12.65429709980178 4.529385906941346 13.745926185421373 2 0 -2
308 1 6 0.102614 14.393943736581207 0.976888731406943 13.520004382881218 2 1 -3
1876 117 10 0.4238 13.413565124957385 4.659051552474643 14.383652011677993 2 0 -2
1867 114 10 0.4238 12.606634347868342 3.064637704397473 14.851968815777028 2 0 -2
1659 40 7 -1.32 14.660228362498614 5.070398665528204 15.275085683974986 0 2 -4
291 1 1 0.090236 14.80973667433471 0.8546205568729327 12.534437878017872 2 1 -3
310 1 6 0.102614 15.697734512989737 1.4587355055909856 12.411000994397785 2 1 -3
1660 40 8 0.32 15.336654895183221 5.229135488457983 14.58765231554934 0 2 -4
1737 71 10 0.4238 17.73585923489003 3.1424381111783206 14.452840006927405 1 1 -3
1759 78 10 0.4238 15.423138174304334 3.5878854261533704 15.13254006285657 1 1 -3
1757 78 9 -0.8476 15.691222662199102 2.6294783893643117 15.03465332446058 1 1 -3
1758 78 10 0.4238 15.216030076770865 2.0786998285949463 15.720824070441745 1 1 -3
1866 114 10 0.4238 13.220487272074019 1.8469345899796714 15.750298766794252 2 0 -2
1882 119 10 0.4238 14.643344267181384 4.499124473715813 16.7325141774755 1 0 -2
1795 90 10 0.4238 14.473841732176743 24.896512293125745 16.513863117152553 1 0 -3
1637 29 7 -1.32 14.401569865143133 1.4185560990745196 16.922416663655262 1 1 -3
1418 5 6 0.102614 17.60421442993257 1.4254298343228362 16.49355415914301 1 1 -3
1783 86 10 0.4238 12.908992078669321 1.1026137507382283 17.526911886117468 1 1 -3
1881 119 10 0.4238 14.476203036465774 2.995879929581887 17.348089264522024 1 0 -2
1880 119 9 -0.8476 14.703657817676943 3.945616965195123 17.56316892082439 1 0 -2
1638 29 8 0.32 15.151271616122258 1.5338094206295234 17.57165742099602 1 1 -3
26 1 6 0.102614 17.432469769397287 5.020604732329763 15.773902076934641 1 0 -3
10 1 1 0.090236 17.631476816370437 5.797248694189956 16.538446804944748 1 0 -3
1406 5 1 0.090236 17.91805471081689 0.38770955426205883 16.53052960136406 1 1 -3
1420 5 6 0.102614 17.126370705723787 24.849982622095354 16.066084834289832 1 0 -3
842 3 6 0.100836 12.119863315352072 4.817748908582091 17.41736293946188 2 2 -3
30 1 6 0.102614 19.15411244555824 4.363163516158541 18.718209621140694 1 0 -3
29 1 6 0.102614 18.982131224953292 3.5950164445961432 17.117444199160083 1 0 -3
11 1 1 0.090236 19.461432912559488 4.433367591547656 17.658793351285922 1 0 -3
8 1 3 -0.6068 19.13540251489416 5.784243987092696 16.981456338092975 1 0 -3
1690 55 8 0.32 20.460556773340492 4.136961178476605 13.597326572551289 1 -1 -2
1738 71 10 0.4238 19.159726471673437 3.7001476383514844 13.879974324315302 1 1 -3
1736 71 9 -0.8476 18.714788118779715 3.225468716009527 14.639385103430909 1 1 -3
24 1 6 0.102614 19.97974357027684 4.924017348124139 15.26938454076636 1 0 -3
1689 55 7 -1.32 20.181918732932168 4.675093135094604 12.837274152848783 1 -1 -2
213 1 6 0.102614 23.886074326892313 1.7575784601943687 12.400139542361156 1 1 -3
376 2 6 0.102614 22.7509361747637 5.5167910097530175 12.85800389747726 1 1 -2
208 1 6 0.102614 22.925568539253113 2.1555106288343406 14.472418630644768 1 1 -3
196 1 1 0.090236 23.276106029478434 1.2270572014739631 14.889945954958762 1 1 -3
198 1 1 0.090236 21.56672257804624 0.11020107356674574 13.439238797255594 1 1 -3
210 1 6 0.102614 22.642013352918198 1.0392372266367071 15.733549806276715 1 1 -3
9 1 1 0.090236 20.07678757448093 5.842416701862969 15.776677738236442 1 0 -3
1779 85 10 0.4238 20.0965521589425 2.3239277919557457 15.754816197108445 1 1 -3
532 2 6 0.102614 23.389507154785086 3.312571406701316 15.943882783084764 1 1 -2
534 2 6 0.102614 23.67822054726382 4.612826084580719 16.76805179454273 1 1 -2
1797 91 10 0.4238 19.175905974834983 5.879912144448748 13.01633160987723 1 1 -3
214 1 6 0.102614 21.28417284086394 0.9452826389699502 12.88617877159127 1 1 -3
1778 85 9 -0.8476 20.8687562541647 2.030680549150099 16.318466637292445 1 1 -3
516 2 1 0.090236 23.244274085198207 3.664361536872092 16.895583779459194 1 1 -2
1419 5 6 0.102614 18.861301064168543 0.3434068324965129 15.987189646971483 1 1 -3
1780 85 10 0.4238 20.928254538351574 1.0324996312457722 16.308980072947584 1 1 -3
533 2 6 0.102614 22.264870421121927 3.8331862076009475 17.28857044315788 1 1 -2
528 2 6 0.102614 24.29361241998241 0.8743235150142293 17.230948067013486 1 1 -2
209 1 6 0.102614 24.32895944513438 1.3026396092406436 15.213039616721746 1 1 -3
197 1 1 0.090236 23.92776368305293 0.6143854480004451 12.520402123407404 1 1 -3
372 2 6 0.102614 23.33907319968109 6.408328889118022 15.193032397148365 1 1 -2
369 2 6 0.100836 0.175480914092143 5.61070074533568 13.014211392752163 2 1 -2
523 2 5 0.137136 0.3072366217334406 3.915269077619604 14.730599300062382 2 1 -2
413 2 1 -0.07226399999999999 5.858050027057172 8.162275835239134 11.908810053068551 2 1 -2
427 2 4 0.046836 4.748021005027762 8.111555333311497 12.117467249551634 2 1 -2
395 2 4 0.046836 5.75530517513787 10.226989773432724 13.561108457756669 2 1 -2
382 2 1 -0.07226399999999999 6.232882710451529 9.41601505800571 14.102282042528829 2 1 -2
353 2 2 -0.011164 3.752783217438904 8.507700168562039 14.419357731282819 2 1 -2
354 2 2 -0.120364 3.3696093678994075 7.171110253799094 14.676603791882838 2 1 -2
363 2 2 -0.120364 2.8980271026272004 9.241393552276318 13.54445572295228 2 1 -2
381 2 5 0.160636 3.1086112730364532 10.364403378564814 13.381801089466705 2 1 -2
367 2 5 0.160636 3.876305942417635 6.536656705832508 15.366957643657509 2 1 -2
352 2 1 -0.036264 5.089597565427499 9.064089020074132 15.093741820580352 2 1 -2
355 2 2 -0.09836399999999999 2.1548629836681554 6.633114185381696 14.248993604583552 2 1 -2
366 2 4 0.069836 5.534412625880739 8.320352279931805 15.74661450454084 2 1 -2
364 2 4 0.046836 4.887308955002722 11.238330691663993 15.430911191161547 2 1 -2
351 2 1 -0.07226399999999999 4.849682759608046 10.294335838734348 15.971711159613713 2 1 -2
362 2 2 -0.09836399999999999 1.763919148401413 8.685136228084115 13.048195750604688 2 1 -2
380 2 5 0.137136 1.1678585592954829 9.187572892842885 12.376425034381386 2 1 -2
356 2 2 -0.188164 1.3595789637104991 7.355332709697256 13.370156383284565 2 1 -2
365 2 4 0.046836 5.688256573712431 10.370992070606748 16.688627746653026 2 1 -2
334 2 4 0.046836 3.0484360104299526 8.141329607774496 17.09186466998561 2 1 -2
321 2 2 -0.011164 2.304685665906579 11.004600153128282 16.213079725221476 2 1 -2
331 2 2 -0.120364 1.1952845653435287 10.262497840921846 15.753350084437237 2 1 -2
350 2 5 0.160636 1.215740976228496 9.16623880175037 15.899163555968876 2 1 -2
322 2 2 -0.120364 2.3404696799533675 12.365687762136238 15.990645247993598 2 1 -2
320 2 1 -0.036264 3.544448458662011 10.337567975007666 16.847660937534933 2 1 -2
831 3 3 -0.6068 10.51224921104677 5.966574075010864 16.399528854281506 2 2 -3
383 2 1 -0.036264 6.719344532117866 8.244133853115564 13.13903593637617 2 1 -2
397 2 4 0.069836 6.573661566976786 7.359864130043449 13.76644271557768 2 1 -2
396 2 4 0.046836 6.983449790160406 9.835940934639476 14.74811457533511 2 1 -2
412 2 5 0.160636 8.023318543619522 10.611894466955906 12.3535794294657 2 1 -2
384 2 2 -0.011164 8.18496934402283 8.503527217693952 12.719532527361388 2 1 -2
398 2 5 0.160636 8.619360457470346 6.32795414039974 12.889777956137216 2 1 -2
385 2 2 -0.120364 9.08700915753083 7.37302054498074 12.81576288534939 2 1 -2
394 2 2 -0.120364 8.691599458377206 9.787492328925717 12.560254957711347 2 1 -2
393 2 2 -0.09836399999999999 10.090306208965584 10.03562739324966 12.66955967666721 2 1 -2
386 2 2 -0.09836399999999999 10.419823995121787 7.630881220436965 12.866061936976232 2 1 -2
387 2 2 -0.188164 10.939480948897602 8.962523933341048 12.91654239593583 2 1 -2
411 2 5 0.137136 10.457216350574525 11.11738474064503 12.70769521828361 2 1 -2
399 2 5 0.137136 11.098685556125586 6.805121570944332 13.08629481790966 2 1 -2
848 3 6 0.102614 8.97933931155235 6.382712584751334 14.865977983028024 2 2 -3
844 3 6 0.102614 11.215670387114876 7.593455853471467 15.19570736457595 2 2 -3
1670 45 8 0.32 9.340649575546273 11.749528966734298 16.025430323206045 2 1 -3
832 3 1 0.090236 11.593262252234302 6.854013719906349 15.928194832598873 2 2 -3
1669 45 7 -1.32 10.017701281480266 12.311984736520749 16.587112532910048 2 1 -3
1818 98 10 0.4238 12.270533196172194 9.611681003819356 17.120290577724376 1 0 -3
1817 98 9 -0.8476 11.54597546878996 9.22465560603156 17.690573312672022 1 0 -3
1785 87 10 0.4238 8.063484384280471 9.529249211302139 16.76017663091538 1 0 -3
1843 106 10 0.4238 11.350458931475165 11.78888379856332 15.74282757274469 2 0 -2
845 3 6 0.102614 12.268338106719913 6.2359823151221265 15.226549753422495 2 2 -3
388 2 1 0.188236 12.379457114242145 9.25438014683908 13.36363963391015 2 1 -2
400 2 6 0.100836 12.517563987827963 10.3227491730777 13.491676410841514 2 1 -2
401 2 6 0.100836 12.439442036660225 8.930658100324473 14.36858424312357 2 1 -2
846 3 6 0.102614 12.094064851610044 7.291864777447399 16.78140291165252 2 2 -3
1842 106 10 0.4238 12.959559316270711 11.899545010278683 15.99809809683862 2 0 -2
1841 106 9 -0.8476 12.251995844412683 11.532604151370423 15.394191390984766 2 0 -2
27 1 6 0.102614 17.07137981623591 5.63947392148825 17.50641865906705 1 0 -3
389 2 3 -0.6068 13.61711220815256 8.777633066853653 12.640171981814687 2 1 -2
392 2 1 0.090236 13.843625151420694 7.17421547008235 12.72689597792165 2 1 -2
409 2 6 0.102614 13.886979563414398 6.847279241644376 13.809436492848732 2 1 -2
405 2 6 0.102614 14.776093226140183 10.402049940233313 13.378457593804933 2 1 -2
391 2 1 0.090236 14.90105912891959 9.356479894284906 13.331820134202179 2 1 -2
406 2 6 0.102614 15.000808249196847 8.826168527280869 14.346621940683994 2 1 -2
407 2 6 0.102614 15.826657201843398 9.073932155758852 12.80959754793604 2 1 -2
1837 104 10 0.4238 14.861955771325862 6.490936466502458 15.950574959644456 1 1 -3
1835 104 9 -0.8476 14.96209052724288 7.361581237343462 16.43218283718337 1 1 -3
1836 104 10 0.4238 14.807668678911927 7.221193976469667 17.410160502322867 1 1 -3
25 1 6 0.102614 17.382891595051227 6.852778448923196 16.12758246159123 1 0 -3
5 1 2 -0.09836399999999999 18.359780140531 9.35967744076837 17.62392800929797 1 0 -3
18 1 5 0.160636 17.595721451053457 11.345796246448066 17.598255316259745 1 0 -3
19 1 5 0.137136 17.474324076527843 9.006060602612674 18.17751510332708 1 0 -3
360 2 1 0.090236 22.741417168196918 6.576305285952875 12.695948948453024 1 1 -2
374 2 6 0.102614 22.651263200649034 6.842052054356987 11.63427784930639 1 1 -2
22 1 6 0.102614 21.168127642382196 5.930831096758719 16.019194918413962 1 0 -3
23 1 6 0.102614 19.78121047089968 6.638028001548985 15.048397998665205 1 0 -3
1796 91 9 -0.8476 18.651627648046777 6.72166880238999 12.887594738877537 1 1 -3
1798 91 10 0.4238 19.228834823314017 7.509820941971005 13.101237235746753 1 1 -3
1850 109 9 -0.8476 20.43796518666325 8.977220740980961 13.441934594044632 1 0 -2
1852 109 10 0.4238 19.710471598177996 9.307708435324622 14.043204881104264 1 0 -2
1851 109 10 0.4238 21.034120372633865 9.739503911266585 13.189905542978716 1 0 -2
1593 7 7 -1.32 21.93499794419676 11.10008920167851 13.15890465126697 1 -1 -4
1594 7 8 0.32 21.1172121237771 11.616622675096187 13.477396751513227 1 -1 -4
379 2 6 0.102614 24.219410736849845 8.677195544248859 11.79565722271092 1 1 -2
361 2 1 0.090236 23.788180460364096 8.694932179559823 12.830228990394671 1 1 -2
358 2 3 -0.6068 23.93038180034595 7.240932925449015 13.282919199261313 1 1 -2
377 2 6 0.102614 22.766491326839365 9.080274849266273 12.773045499744182 1 1 -2
375 2 6 0.102614 21.845748880812117 6.90279159565618 13.219651956031996 1 1 -2
339 2 6 0.100836 23.34735662610747 12.201293740673178 13.984236721036087 1 1 -2
359 2 1 0.090236 23.89857737537561 7.236474824111272 14.845744094095322 1 1 -2
32 1 5 0.160636 21.596191359736636 10.680255219017033 15.786254312183015 1 0 -3
373 2 6 0.102614 23.46546421535563 8.17925701540969 15.188723780497108 1 1 -2
13 1 2 -0.120364 20.70124386945745 10.381058848019471 16.435406708977133 1 0 -3
31 1 5 0.137136 21.405513941567577 8.35278229121115 16.355782328783803 1 0 -3
3 1 2 -0.011164 19.641706564966967 11.224265854097471 16.76805951520781 1 0 -3
12 1 2 -0.09836399999999999 20.614636146096764 8.991079387313647 16.74892358542339 1 0 -3
4 1 2 -0.120364 18.469086445077828 10.74654964894663 17.40541837741123 1 0 -3
6 1 2 -0.188164 19.430990799450505 8.464670267574645 17.356778805340255 1 0 -3
7 1 1 0.188236 19.50639435525811 7.052016363392911 17.93273598620346 1 0 -3
1724 67 9 -0.8476 22.438271623728802 6.314938465670352 17.694598676307443 1 1 -3
1725 67 10 0.4238 23.436087597843553 6.319490110335394 17.62873569073227 1 1 -3
55 1 6 0.102614 23.15121124586439 10.18025202857539 17.567811414964567 1 0 -3
53 1 6 0.102614 23.647060211384023 8.438950456095247 17.48087862710551 1 0 -3
378 2 6 0.102614 24.330954079819968 9.311963270467698 13.462088352138066 1 1 -2
371 2 6 0.102614 24.918688651307598 7.256918212897692 15.214271303757728 1 1 -2
349 2 5 0.137136 24.249611212811708 10.395782101564325 14.986074941207026 1 1 -2
370 2 6 0.100836 0.2106587427555024 6.951302305674837 11.728535451436235 2 1 -2
357 2 1 0.188236 0.14243110123500366 6.695413172392995 12.799255318914623 2 1 -2
330 2 2 -0.09836399999999999 25.17684279098283 10.955585124675657 15.19881868745449 1 1 -2
324 2 2 -0.188164 0.11639849958493187 12.32545998863844 15.001500050249842 2 1 -2
1677 49 7 -1.32 25.113008510272763 6.360045376767426 17.371274928260355 1 1 -2
348 2 6 0.102614 0.4662830956084035 12.651241456368512 12.25203463311588 2 1 -2
274 1 6 0.102614 4.914424886614971 12.8627474904538 12.922094183274881 2 0 -3
259 1 1 0.090236 4.559160540633623 13.863883753819055 12.926801608339765 2 0 -3
268 1 6 0.100836 4.525379797907729 16.48981055278393 12.95970335434928 2 0 -3
273 1 6 0.102614 4.215120498947455 14.07178686351049 11.884348235427398 2 0 -3
257 1 3 -0.6068 5.688506759472696 14.82193781872242 13.501732592380826 2 0 -3
256 1 1 0.188236 5.0574556208394785 16.17989071798496 13.855317902777772 2 0 -3
255 1 2 -0.188164 5.833837553120828 17.41466013840362 14.333238717961805 2 0 -3
275 1 6 0.102614 3.641211648853012 13.767023647490614 13.644089507736686 2 0 -3
269 1 6 0.100836 4.300414609294016 16.05772245455639 14.604906663630674 2 0 -3
272 1 6 0.102614 6.715456481051223 13.295500512354392 14.675705481147514 2 0 -3
258 1 1 0.090236 6.223966232240076 14.263396089123118 14.819997377690632 2 0 -3
270 1 6 0.102614 5.472485399969547 14.168313517547368 15.58312254786945 2 0 -3
1591 6 7 -1.31955 2.172357553532112 15.928159227114138 13.702441480711196 2 0 -3
261 1 2 -0.09836399999999999 5.773305707615631 17.732094067969577 15.68693131142323 2 0 -3
1592 6 8 0.32 1.8989007277958059 16.759681006663897 14.17882378107903 2 0 -3
336 2 5 0.160636 3.255789802640653 12.861433456359649 16.218873229980417 2 1 -2
170 1 4 0.046836 2.476954802872792 17.292028394747497 15.903240526766833 2 0 -3
171 1 4 0.046836 0.7799401358059247 17.076790087203825 16.027893463655843 2 0 -3
279 1 5 0.137136 5.239345909269315 17.07858835539293 16.344214206446765 2 0 -3
157 1 1 -0.07226399999999999 1.6183142289418322 17.671642181843374 16.44346929666723 2 0 -3
337 2 5 0.137136 1.2893235960914637 14.12968667334297 15.224051137811626 2 1 -2
323 2 2 -0.09836399999999999 1.2700898889160752 13.029326881257937 15.376903767490038 2 1 -2
346 2 6 0.102614 1.16076285611117 13.949271899348137 13.189701872698635 2 1 -2
329 2 1 0.090236 0.33552153006241536 13.695482528842337 12.528951990301545 2 1 -2
173 1 5 0.160636 1.703204294107341 18.44372672737903 13.259850994949185 2 0 -3
142 1 5 0.160636 2.7028654237637304 14.830094157797213 17.540108374566103 2 0 -3
260 1 1 0.090236 6.807552051911023 14.802498060475813 12.487717426690551 2 0 -3
267 1 5 0.137136 6.686572436658243 17.989528696379736 12.494727866375623 2 0 -3
278 1 6 0.102614 7.2460025794997085 13.828647837765729 12.562859538119799 2 0 -3
276 1 6 0.102614 7.5143443826078276 15.562981178583044 12.736116927439104 2 0 -3
271 1 6 0.102614 6.8403490883383276 15.111844577032773 15.138572505641475 2 0 -3
625 2 6 0.102614 9.300153295358298 14.94053872083884 12.239781871680373 2 0 -2
608 2 1 0.090236 10.277327543863858 14.732876221637142 11.835196754177714 2 0 -2
623 2 6 0.102614 10.678743719576913 14.044772800942566 12.6111555327936 2 0 -2
624 2 6 0.102614 10.961930084082972 15.567021146475046 11.782605527274384 2 0 -2
1868 115 9 -0.8476 9.595052087099926 14.008815640046619 14.725875238354075 2 0 -2
1869 115 10 0.4238 9.803264275832019 14.933445260093793 15.044783829138877 2 0 -2
1896 124 10 0.4238 10.607573482600284 17.229175081973466 14.653020859584029 2 0 -2
1870 115 10 0.4238 9.74432145406367 13.357976794027831 15.47026946225267 2 0 -2
1895 124 9 -0.8476 10.266028662047152 16.800829767268667 15.48959863337461 2 0 -2
1897 124 10 0.4238 11.002102053730884 16.754719614452256 16.164924361036647 2 0 -2
1822 99 10 0.4238 12.119680327206403 14.66189715103029 17.078226377707537 1 0 -3
1693 56 10 0.4238 8.499964649102596 12.358703468388905 17.058578540581202 1 0 -3
150 1 6 0.102614 8.202765283637856 14.724492880422499 17.170312810270936 2 0 -3
149 1 6 0.102614 9.057174946345949 16.325055608761453 17.33605400043546 2 0 -3
254 1 2 -0.09836399999999999 6.602284391184481 18.22448942125348 13.48767722849645 2 0 -3
1820 99 9 -0.8476 12.261478630732366 13.718852621599238 17.37915034632279 1 0 -3
1821 99 10 0.4238 11.427187844313448 13.19012208611427 17.22295184781879 1 0 -3
1691 56 9 -0.8476 7.515106888970228 12.430287633019795 17.216458318705726 1 0 -3
151 1 6 0.102614 7.352151497283511 16.324819278288324 17.423307018540562 2 0 -3
135 1 1 0.090236 8.200005158174571 15.709102331935346 17.62253281046972 2 0 -3
313 1 4 0.045503 17.009446140344515 11.379768751294248 15.416909702846775 1 0 -3
14 1 1 -0.09496400000000001 17.217410038308657 12.362515815931028 15.1130110268087 1 0 -3
1855 110 10 0.4238 13.292603432089445 15.956730104416724 12.098220314293618 2 0 -2
1853 110 9 -0.8476 13.432039192264925 15.154194446134795 12.678297275586651 2 0 -2
1892 123 9 -0.8476 13.087733022957785 12.580202046544755 12.85544257831613 2 0 -2
1894 123 10 0.4238 13.314532525167081 13.553692383979682 12.825884682985743 2 0 -2
1893 123 10 0.4238 12.78694869443489 12.335879696989087 13.777305014112452 2 0 -2
1854 110 10 0.4238 13.8438950423629 15.436643692045685 13.544664518743925 2 0 -2
1746 74 10 0.4238 12.712367765559534 17.518651735159565 15.892610859196518 1 0 -3
1900 125 10 0.4238 14.46267981755703 12.458605848464577 11.891727186520775 2 0 -2
315 1 4 0.045503 16.682355773664526 12.531398723147378 14.18437020191599 1 0 -3
1856 111 9 -0.8476 16.479828505275705 15.774801187012574 16.42611921530792 2 0 -2
1857 111 10 0.4238 15.738088829772952 15.260459589828823 15.995688757702053 2 0 -2
1858 111 10 0.4238 17.294259832807086 15.732640377097143 15.847397166151826 2 0 -2
314 1 4 0.045503 16.831087449879682 12.98920102628876 15.885431040216918 1 0 -3
1889 122 9 -0.8476 13.798365025831746 15.192241946748224 15.46426990768591 2 0 -2
1890 122 10 0.4238 13.424946241159912 14.277293900243114 15.617317624280929 2 0 -2
1891 122 10 0.4238 13.375967697135154 15.835714316714007 16.10264223034256 2 0 -2
1608 14 8 0.32 12.53578478592548 16.02878076839297 17.925294561002815 3 0 -3
1607 14 7 -1.32 12.458136978343985 16.557556394303518 17.081643745615203 3 0 -3
1902 126 10 0.4238 13.835604582796613 17.15459852569426 17.623191820523637 2 0 -2
1903 126 10 0.4238 15.384781595785366 16.819499911551816 17.230289063541967 2 0 -2
1901 126 9 -0.8476 14.792755711805613 17.34804188195759 17.838683457428004 2 0 -2
16 1 4 0.046836 19.12845029130436 12.025675538548224 14.115051767477363 1 0 -3
1197 4 6 0.102614 18.45889093072485 14.449627602296006 12.593733533901505 0 1 -2
1805 94 9 -0.8476 18.969594434726737 16.763328259752832 14.63122144108969 1 0 -3
1806 94 10 0.4238 19.13023602730147 17.323139950448684 15.444117588320713 1 0 -3
46 1 4 0.046836 18.912232187414254 14.558776632330076 16.629690947170204 1 0 -3
15 1 4 0.046836 18.819856147752134 13.796308552237477 14.473793873504162 1 0 -3
1 1 1 -0.07226399999999999 18.749793116671356 12.735849920924855 14.914098817243735 1 0 -3
1807 94 10 0.4238 19.84591624882846 16.460700886330137 14.256424887203783 1 0 -3
1671 46 7 -1.32 21.206369990461944 15.985074534430792 13.730165561151699 1 0 -4
1672 46 8 0.32 21.425290715523488 15.136723548818386 14.165779154163792 1 0 -4
344 2 6 0.102614 22.189888000151484 13.924262278423061 13.148645452456922 1 1 -2
345 2 6 0.102614 23.166653709951078 14.734873529119886 11.820314690971404 1 1 -2
328 2 1 0.090236 23.1137137393374 13.87452878662336 12.506272926466874 1 1 -2
181 1 6 0.102614 22.62008853468494 17.434867108394684 12.5078073897281 1 0 -3
342 2 6 0.102614 23.37348245576832 15.479782286584255 14.61591014540621 1 1 -2
325 2 1 0.188236 24.02632246379629 12.966577458337404 14.442438953536202 1 1 -2
338 2 6 0.100836 23.403477971056674 13.422962321422721 15.209026439978372 1 1 -2
17 1 4 0.069836 20.687628571857736 12.818224557558622 15.683094712381113 1 0 -3
2 1 1 -0.036264 19.727333095872538 12.627877328153525 16.134477050333196 1 0 -3
78 1 4 0.046836 20.574030174127117 15.944342078632326 16.27933726880685 1 0 -3
77 1 4 0.046836 22.110336726453404 14.975918312855272 16.295790739833414 1 0 -3
64 1 1 -0.07226399999999999 21.356382347988905 15.49555404395515 16.97707716853622 1 0 -3
109 1 4 0.046836 23.885699461838534 15.897064350801191 17.002611046259986 1 0 -3
108 1 4 0.046836 23.708679198218974 17.58422899537863 16.614334681747046 1 0 -3
33 1 1 -0.07226399999999999 19.413562146058574 13.789631272247432 17.215991676671095 1 0 -3
179 1 6 0.102614 19.78188087779383 18.201810375986433 12.766905910823827 1 0 -3
34 1 1 -0.036264 20.587902225525703 14.496120172996182 17.893038998042222 1 0 -3
65 1 1 -0.036264 21.98333626734062 16.652806821543372 17.734663375387655 1 0 -3
95 1 1 -0.07226399999999999 23.528378473021995 16.840966927550284 17.428663963765814 1 0 -3
63 1 5 0.160636 23.47907601433397 13.863310884951279 17.516071577943187 1 0 -3
66 1 2 -0.011164 20.99302900010639 17.847201461429798 17.3708060113822 1 0 -3
326 2 3 -0.6068 24.234855329324013 13.984745482835942 13.399216329045771 1 1 -2
327 2 1 0.090236 24.173265790915686 15.457008244888998 13.933926048874548 1 1 -2
340 2 6 0.102614 23.976438170918605 16.118402782512 13.07109207090136 1 1 -2
341 2 6 0.102614 25.081951865997812 15.818281260938747 14.396018605998503 1 1 -2
582 2 4 0.046836 5.467539928122091 22.49520934231029 12.348389800266855 2 0 -2
581 2 4 0.046836 3.9737425861240414 21.680642532880597 12.061092418076713 2 0 -2
232 1 4 0.046836 5.054370212863347 20.91384238517619 14.700195307716173 2 0 -3
233 1 4 0.046836 4.365951908785294 22.46344423384253 14.59787790089911 2 0 -3
219 1 1 -0.07226399999999999 4.672586912687782 21.72281998066304 15.260468265595872 2 0 -3
202 1 4 0.046836 3.242361255685601 19.603668747722885 14.832408989531904 2 0 -3
218 1 5 0.160636 2.1232173379047263 21.471479802927412 13.363089437252642 2 0 -3
190 1 2 -0.011164 2.1242639384625694 22.317756669204087 15.276459273192817 2 0 -3
188 1 1 -0.07226399999999999 2.996330015763733 19.973837264061338 15.78410406345025 2 0 -3
200 1 2 -0.120364 1.6157677298803073 22.166120184912636 14.015154434120863 2 0 -3
220 1 1 -0.036264 5.789274982611149 22.249289820259115 16.29637486946995 2 0 -3
189 1 1 -0.036264 3.246011250358483 21.49098741912973 15.880581302966363 2 0 -3
201 1 4 0.046836 3.6593063516166193 19.58855194189333 16.54861617570353 2 0 -3
191 1 2 -0.120364 1.4008771656627137 23.168236919768496 16.188279985068498 2 0 -3
158 1 1 -0.036264 1.526781364185845 19.25055178590086 16.03976952010668 2 0 -3
221 1 2 -0.011164 5.558455248648914 23.69138726637599 16.820560704655684 2 0 -3
203 1 4 0.069836 3.2619918307173834 21.71793611264271 16.942881457332646 2 0 -3
160 1 2 -0.120364 0.7733997157965716 19.020079774838308 13.525220573564622 2 0 -3
234 1 4 0.069836 5.710095053817926 21.61815741687159 17.132186219443575 2 0 -3
204 1 5 0.160636 1.7463098079056174 23.320591359426004 17.190913267047492 2 0 -3
172 1 4 0.069836 1.117114565998564 19.801475431044608 16.90614803562424 2 0 -3
199 1 2 -0.09836399999999999 0.40966833711830336 22.729938899113883 13.587192464654377 2 0 -3
159 1 2 -0.011164 0.5184444090818827 19.445995593531258 14.886594001102393 2 0 -3
192 1 2 -0.09836399999999999 0.15313723387107564 23.746761703658024 15.77872162129517 2 0 -3
222 1 2 -0.120364 4.923372209505581 23.857063631044852 17.990213650844872 2 0 -3
1789 88 10 0.4238 12.280311298767218 18.28002556707142 13.685247954982433 1 0 -3
1787 88 9 -0.8476 11.603423703319464 18.365769000567333 12.954175907291708 1 0 -3
262 1 2 -0.120364 6.476416656732365 18.807367198522833 16.297522901081535 2 0 -3
280 1 5 0.160636 6.365372485657523 19.045026244239203 17.363289909707447 2 0 -3
264 1 4 0.046836 7.161118828517869 22.247929165762656 14.656745803811718 2 0 -3
250 1 1 -0.07226399999999999 7.2046792680155916 22.101197065725053 15.688697492828155 2 0 -3
253 1 2 -0.120364 7.274777729316338 19.360781096416055 14.07190438391505 2 0 -3
252 1 2 -0.011164 7.182881779330175 19.603571312583405 15.447488408947557 2 0 -3
266 1 5 0.160636 7.847085430050161 19.9694680353846 13.36633933980727 2 0 -3
1887 121 10 0.4238 10.521749871592524 19.673057626998627 12.475348712496187 2 0 -2
1888 121 10 0.4238 10.981953272777803 21.23686712843405 12.378779124891794 2 0 -2
295 1 4 0.046836 9.564440675726063 21.022012228418646 14.360759696478985 2 0 -3
283 1 2 -0.011164 11.368203490614357 22.481437996760192 15.025620967999092 2 0 -3
281 1 1 -0.07226399999999999 9.388558447236083 20.927856790488278 15.48704104785878 2 0 -3
294 1 4 0.046836 9.760114010803258 19.873400785710544 15.650873147129822 2 0 -3
282 1 1 -0.036264 10.42583510872398 21.902886437207563 16.108683961082477 2 0 -3
293 1 2 -0.120364 11.293444595401905 23.786021660753676 14.55416355456295 2 0 -3
263 1 4 0.046836 7.745701893728741 22.9262144566558 16.144921238453954 2 0 -3
251 1 1 -0.036264 7.923281924662851 20.850845899162657 16.004808592343707 2 0 -3
297 1 4 0.069836 9.900912228142476 22.763929542088782 16.542265796848874 2 0 -3
265 1 4 0.069836 7.993167579034947 20.82001495774037 17.085740538294473 2 0 -3
296 1 1 -0.088964 11.171012881729032 21.439830531526596 17.352413067931337 2 0 -3
317 1 4 0.045503 11.83829673337414 20.609344695058134 17.131214379665465 2 0 -3
316 1 4 0.045503 10.515062489261044 21.13602936002618 18.144602352052154 2 0 -3
1747 74 10 0.4238 13.76454595492806 17.818745135135288 14.680390379165216 1 0 -3
1859 112 9 -0.8476 14.640448293849529 18.02019845714542 12.766306796071797 2 0 -2
284 1 2 -0.120364 12.281008061916639 21.583464701237332 14.335156335773624 2 0 -3
298 1 5 0.160636 12.370258214174955 20.547353753883165 14.647629861436254 2 0 -3
318 1 4 0.045503 11.79942546034186 22.207857259182965 17.807407969580368 2 0 -3
1745 74 9 -0.8476 13.046355780425229 18.21220812496246 15.254310925193943 1 0 -3
286 1 2 -0.188164 12.96708930964203 23.30312347237517 12.811395003287561 2 0 -3
285 1 2 -0.09836399999999999 13.041417381641118 21.95084173751296 13.212837870132448 2 0 -3
299 1 5 0.137136 13.563599031513508 21.19203875095802 12.66996372759249 2 0 -3
1860 112 10 0.4238 15.036270701184579 18.86705246524575 12.411119684711087 2 0 -2
87 1 6 0.102614 16.557116934962437 20.558988236457147 13.254955097531713 1 0 -3
89 1 6 0.102614 17.959868371787095 19.62532937184922 13.745302952628048 1 0 -3
84 1 6 0.102614 14.925324563098776 21.398136779024284 14.82746174557124 1 0 -3
73 1 1 0.090236 17.356069972653096 20.53085455251447 13.950461946449517 1 0 -3
304 1 6 0.102614 15.965911083087608 22.638024383746355 12.67939061866042 2 0 -3
92 1 6 0.102614 15.338325963885714 18.934507462687435 15.072624287633063 1 0 -3
71 1 3 -0.6068 16.796501234115432 20.452185450704924 15.40507401260817 1 0 -3
72 1 1 0.090236 15.738494151736443 21.54568094148901 15.52072159925685 1 0 -3
74 1 1 0.090236 16.21518954099907 19.047174456434192 15.730544306506593 1 0 -3
91 1 6 0.102614 16.9287521439881 18.257939916351283 15.535508627565317 1 0 -3
85 1 6 0.102614 16.24549710927021 22.48210711630226 15.218262570860736 1 0 -3
302 1 6 0.102614 15.249212736593453 23.577786720392965 14.026913899537641 2 0 -3
86 1 6 0.102614 15.397499276425414 21.608360991035347 16.53212393249371 1 0 -3
90 1 6 0.102614 15.903355759375927 18.999265724603553 16.817966760482612 1 0 -3
88 1 6 0.102614 17.803261773908105 21.509267447695485 13.811941956757178 1 0 -3
70 1 1 0.188236 17.935128764301567 20.836168298872586 16.355384540751274 1 0 -3
83 1 6 0.100836 18.363048841787162 21.776584583071525 16.020423820323394 1 0 -3
1833 103 10 0.4238 19.762543797082152 22.682144536706076 12.019590386290096 1 0 -3
178 1 6 0.102614 20.252727083687112 19.893711937852572 12.832396593512541 1 0 -3
165 1 1 0.090236 20.614671671968004 18.91272178356858 12.828239112579642 1 0 -3
1755 77 10 0.4238 19.895647513788752 22.84107115968707 14.218766976021005 1 0 -3
1622 21 8 0.32 20.70638170952718 21.232044069124363 12.68490941181937 1 1 1
1621 21 7 -1.32 20.695660555559527 22.082941336405227 13.178961995781037 1 1 1
177 1 6 0.102614 21.15507174462367 18.5572973705111 13.717154525871202 1 0 -3
176 1 6 0.100836 22.148337220345383 20.938141232951374 12.014003606708366 1 0 -3
163 1 1 0.188236 22.668289046426494 19.98294890064342 11.827813935265288 1 0 -3
206 1 6 0.100836 23.065224308881476 23.28829045604084 13.34655774495715 1 0 -3
162 1 2 -0.188164 23.71398666741554 19.781950395505348 12.916956265340342 1 0 -3
186 1 5 0.137136 22.630520755957576 20.895699132241248 14.419389216764356 1 0 -3
168 1 2 -0.09836399999999999 23.470065931822923 20.337479721093636 14.178096883898242 1 0 -3
93 1 5 0.137136 20.379855183216257 20.531960419656635 15.304812503158596 1 0 -3
1754 77 9 -0.8476 19.318201562320787 23.298533488643287 14.894991847034499 1 0 -3
207 1 6 0.100836 22.908266168115155 23.816014692434635 15.077632373962514 1 0 -3
94 1 5 0.160636 22.107690132935986 18.621377930025822 15.701658894814907 1 0 -3
75 1 2 -0.09836399999999999 20.204280505975248 19.719094603229216 15.995205014797138 1 0 -3
76 1 2 -0.120364 21.21959462229654 18.745134609613267 16.317986096210305 1 0 -3
69 1 2 -0.188164 18.95046795140879 19.72584806947416 16.689593418468554 1 0 -3
194 1 1 0.188236 23.42268706722232 23.89728274837963 14.158582368630794 1 0 -3
1676 48 8 0.32 21.885004898446688 23.80126140184072 16.168013262647676 1 0 -3
82 1 6 0.100836 17.448698637971674 20.954783578245312 17.296857379219873 1 0 -3
1425 5 6 0.102614 17.95039927590978 23.00290651359355 17.6120917114279 1 0 -3
68 1 2 -0.09836399999999999 18.830666559073634 18.892814156613028 17.762107826370887 1 0 -3
111 1 5 0.160636 23.068595436186186 19.34378855648405 17.756909418743348 1 0 -3
187 1 5 0.160636 24.269955676349554 20.550190492346267 16.144020939459118 1 0 -3
169 1 2 -0.120364 24.439474038037233 20.16165040154229 15.156037934357395 1 0 -3
174 1 5 0.137136 25.13461995666728 18.900192681791125 11.559424054411732 1 0 -3
217 1 5 0.137136 25.16850328489715 22.556673274476708 12.649994402027508 1 0 -3
161 1 2 -0.09836399999999999 24.944761672466065 19.246986600818218 12.550120189050649 1 0 -3
193 1 2 -0.188164 24.80031065489098 23.463660652553607 14.522123256226863 1 0 -3
536 2 5 0.160636 3.274982847360672 25.095405279527313 15.25072834773317 2 0 -2
551 2 4 0.046836 2.919302833705407 23.989925938950464 13.249254674176537 2 0 -2
550 2 4 0.046836 4.457316844866513 24.57164808527657 13.310138009992862 2 0 -2
537 2 1 -0.07226399999999999 3.599997996671294 24.56392753859061 12.722158511696202 2 0 -2
231 1 2 -0.120364 5.969069112264139 24.776915675080716 16.051447921617175 2 0 -3
292 1 2 -0.09836399999999999 12.060094472154788 24.195407090947192 13.454821798918084 2 0 -3
249 1 5 0.160636 6.619788196688073 24.630226264345602 15.197969313449974 2 0 -3
312 1 5 0.160636 10.742318137479412 24.508666740143745 15.084642934950367 2 0 -3
289 1 1 0.090236 15.90485398727323 23.64153812179233 13.102301278314659 2 0 -3
288 1 3 -0.6068 15.094256170081222 24.517533996736418 12.085116138425573 2 0 -3
303 1 6 0.102614 16.914991356810354 23.947140365540143 13.360854214075145 2 0 -3
1794 90 10 0.4238 13.483829218182896 24.08332904919746 15.501330865568395 1 0 -3
1793 90 9 -0.8476 14.297006859702705 24.013485017189304 16.079136187134992 1 0 -3
215 1 6 0.102614 21.405054690801535 24.32859356416541 12.919092425243225 1 0 -3
1756 77 10 0.4238 19.895330272580836 23.770957568838803 15.56112475878407 1 0 -3
195 1 3 -0.6068 23.121537448213523 0.21082862867602287 13.795309699375835 1 1 -3
216 1 6 0.102614 20.975119184325962 0.11220512974036012 14.338150261488993 1 1 -3
1675 48 7 -1.32 21.296153745552466 24.57474470055837 16.43408453363476 1 0 -3
1424 5 6 0.102614 19.602986762153165 23.649365152167725 17.6389320541849 1 0 -3
211 1 6 0.102614 24.997731923290566 0.3264001894451802 12.554212173810766 1 1 -3
205 1 5 0.137136 24.68150858125606 24.226097045345057 16.480036080213786 1 0 -3
1548 5 6 0.102614 4.5616737688851705 0.8088698859901181 24.503116142179024 2 1 -3
237 1 6 0.100836 4.552546396221603 2.6837387620413415 19.07763602066305 2 1 -3
241 1 6 0.102614 4.328413024585085 5.136805232931179 18.958902386476133 2 1 -3
238 1 6 0.100836 3.1798728580864166 2.4935090863501013 17.93206265712582 2 1 -3
900 3 4 0.046836 6.305855288788294 3.0799435404999347 20.385019798354698 2 2 -3
930 3 4 0.046836 3.8863943842358113 3.841940272350927 20.366555021151747 2 2 -3
1667 44 7 -1.32 1.7455536348391372 1.3441450146501235 19.697075932907154 2 1 -3
888 3 2 -0.011164 6.0189165608410855 5.516570772878292 21.825193608939912 2 2 -3
886 3 1 -0.07226399999999999 6.201587696511019 2.8719278796389176 21.41081422470537 2 2 -3
931 3 4 0.046836 3.2339759295409776 3.2211255055800128 21.77482576356546 2 2 -3
917 3 1 -0.07226399999999999 3.8113621357569274 4.109208245101433 21.48481747899546 2 2 -3
918 3 1 -0.036264 2.9775597720477682 5.440444612603332 21.533501429815928 2 2 -3
953 3 4 0.045503 1.1858884989609606 6.351441172475929 20.7506392955948 2 2 -3
954 3 4 0.045503 1.8044016765517632 5.088517832670826 19.71998091476572 2 2 -3
932 3 1 -0.088964 1.6688045187030904 5.386859227250325 20.778686267115667 2 2 -3
899 3 4 0.046836 5.641581775279104 1.9549290348346509 21.51459688154616 2 2 -3
887 3 1 -0.036264 5.318172998068386 4.145681759869209 21.99215780930598 2 2 -3
1668 44 8 0.32 2.5375805483110936 1.2102032857935852 20.213248876553706 2 1 -3
524 2 6 0.100836 1.0745930869549571 2.7561630981593592 18.430270480985683 2 1 -2
952 3 4 0.045503 1.0704964844533034 4.674104853161599 21.37380661547644 2 2 -3
1550 5 6 0.102614 3.474501198329454 1.4083791378600867 23.26259079594017 2 1 -3
901 3 4 0.069836 5.1153098239774035 3.9558040308149085 23.057464368286 2 2 -3
1546 5 6 0.102614 0.926955341546105 0.9220440594950676 23.612799339667134 2 1 -3
122 1 6 0.102614 0.14271305316625427 0.671289137292026 20.923812433943546 2 1 -3
933 3 4 0.069836 3.6617325383487644 6.14290851147019 21.061184649461325 2 2 -3
919 3 2 -0.011164 2.8000085394461887 5.973089851825209 22.914327667504757 2 2 -3
1532 5 1 0.090236 3.6484297939564105 1.3683129837348667 24.343343030974246 2 1 -3
916 3 5 0.160636 5.648207302494338 6.1911730070055615 23.83791198741735 2 2 -3
243 1 6 0.102614 6.56167675834872 3.6709397530347694 18.34821958655767 2 1 -3
902 3 5 0.160636 6.539047618819348 5.186553612393123 19.84337328426453 2 2 -3
889 3 2 -0.120364 6.699589520392661 5.836753479965167 20.645203268165652 2 2 -3
839 3 4 0.069836 7.185683551372322 1.0060303780219848 19.88381291271972 2 2 -3
825 3 1 -0.036264 8.235113438622326 0.9529190180127456 20.16537478075928 2 2 -3
827 3 2 -0.120364 8.930382223848293 2.0021525097946604 17.930932120633045 2 2 -3
826 3 2 -0.011164 9.076077471879412 1.9873508682513705 19.35815964730979 2 2 -3
829 3 2 -0.188164 10.435252921269417 3.761309107911596 17.68583126244554 2 2 -3
835 3 2 -0.09836399999999999 10.669483985699948 3.882697677467863 19.039168119840518 2 2 -3
836 3 2 -0.120364 9.93641889272875 2.99361025987501 19.878149813782755 2 2 -3
853 3 5 0.137136 11.391820057949548 4.4682187233403665 19.41293914466111 2 2 -3
1333 5 6 0.102614 11.281993601293971 0.5191095416781504 20.331776866518 1 1 -3
1315 5 1 0.090236 11.837391152913302 0.6127083517400782 21.335943540854778 1 1 -3
854 3 5 0.160636 10.09391931827331 3.082662513205702 20.94704287010476 2 2 -3
855 3 1 -0.07226399999999999 8.270114329959764 1.2886615503865864 21.695861168653515 2 2 -3
870 3 4 0.069836 8.15154110582578 3.532676024627742 21.59814794748111 2 2 -3
856 3 1 -0.036264 7.587145111910573 2.67670047110664 22.06705057946222 2 2 -3
868 3 4 0.046836 7.6771416097447895 0.5340563036640127 22.331179850136124 2 2 -3
869 3 4 0.046836 9.276487664961143 1.3750796372846825 22.041458289444954 2 2 -3
1643 32 7 -1.32 11.2957962892103 4.7254745968416225 23.003462941266974 3 3 -2
1644 32 8 0.32 12.156441803487033 4.566388115457965 22.544262551953125 3 3 -2
871 3 5 0.160636 8.819085223114561 4.784999668893771 23.381967968358197 2 2 -3
850 3 6 0.102614 9.645415143215933 5.89671949805451 18.45878991243528 2 2 -3
857 3 2 -0.011164 7.646522305351162 2.865487576047159 23.606273178717487 2 2 -3
1332 5 6 0.102614 11.579184588327069 1.5693278694219324 21.85633818633682 1 1 -3
1322 5 5 0.137136 13.004293843390407 2.8869152901099353 22.673723005751086 1 1 -3
1324 5 6 0.100836 13.167882776021376 2.042336358452614 19.51006747434485 1 1 -3
1906 127 10 0.4238 14.829430194394304 5.326421731545845 18.35909715258785 2 0 -2
1311 5 1 0.188236 13.874723689717303 1.7249624320313086 20.31697709871701 1 1 -3
1310 5 2 -0.188164 14.480656677968268 2.8591086502919953 21.151586694456256 1 1 -3
1323 5 6 0.100836 14.763105292246609 1.5275462811076777 19.618292254997833 1 1 -3
1417 5 6 0.100836 19.03038143220273 1.9707093037659393 18.17191812549555 1 1 -3
1334 5 5 0.137136 16.072877241909726 3.1966931633409965 19.70861589375353 1 1 -3
1316 5 2 -0.09836399999999999 15.592762532075978 3.521194154472688 20.619226411893358 1 1 -3
1317 5 2 -0.120364 16.144134152286995 4.615864775306339 21.296121496458383 1 1 -3
1335 5 5 0.160636 17.019766908641834 5.176060065878875 20.947012985306934 1 1 -3
1309 5 2 -0.09836399999999999 13.914198322194984 3.295776637759991 22.319086629517777 1 1 -3
1307 5 2 -0.011164 15.534090432981868 5.100278779207903 22.461783227879543 1 1 -3
1308 5 2 -0.120364 14.449925380920828 4.3383475332472585 23.06495030639183 1 1 -3
1905 127 10 0.4238 14.6905038225039 6.050695811286264 19.816059555741468 2 0 -2
1321 5 5 0.160636 14.040076997480814 4.67383440943848 24.019733644055066 1 1 -3
1327 5 6 0.102614 14.217696019424418 0.5753860797208898 23.11278314812934 1 1 -3
1306 5 1 -0.036264 16.18835407460812 6.252004816896112 23.246251811705108 1 1 -3
1312 5 3 -0.6068 13.290499765795147 0.38468213540553564 21.04589104894439 1 1 -3
1423 5 6 0.102614 16.353275554447407 1.0682121544073961 18.564673560505618 1 1 -3
1422 5 6 0.102614 16.763210898939917 25.13839213459287 19.834584696568314 1 0 -3
1407 5 1 0.090236 16.755567295596286 0.12251321078419476 18.728589322143222 1 1 -3
1405 5 3 -0.6068 18.10681075407731 25.135255898048 17.972529206338194 1 0 -3
1313 5 1 0.090236 14.17057818298368 25.06133360143265 22.161962840389663 1 0 -3
1404 5 1 0.188236 19.20467090749768 0.9364961602405453 18.533574794721602 1 1 -3
28 1 6 0.102614 20.558657280174053 4.3713457722895805 17.82041234697774 1 0 -3
1349 5 4 0.046836 18.124085227097183 5.65588722871006 22.849580219760938 1 1 -3
1416 5 6 0.100836 20.111914369888353 0.5697888744016883 18.02957937669658 1 1 -3
1403 5 2 -0.188164 19.52476257048815 0.8755823876837463 20.085581396383695 1 1 -3
1402 5 2 -0.09836399999999999 20.51415214168407 1.7389205297475208 20.609983950833403 1 1 -3
1415 5 5 0.137136 20.994683069675517 2.5598567146055147 20.093985207728238 1 1 -3
1646 33 8 0.32 21.242516425899325 5.468305231124544 20.715742509618075 0 0 -2
526 2 6 0.102614 22.833527270848812 1.4336043279115038 18.171807754663945 1 1 -2
514 2 1 0.090236 23.912982211402365 1.5444359845562856 18.00388590770038 1 1 -2
513 2 3 -0.6068 24.24352866844437 2.972851567226317 17.903502582076193 1 1 -2
515 2 1 0.090236 24.01076674764429 3.634723781427646 19.297780103093288 1 1 -2
529 2 6 0.102614 24.12476866882558 4.751596271931192 19.12648545928613 1 1 -2
530 2 6 0.102614 23.015399110311286 3.401194953052478 19.539313581125995 1 1 -2
1139 4 6 0.102614 23.125903515265684 5.331862598115694 22.102056098870946 0 1 -3
1401 5 2 -0.120364 20.996642895002665 1.5351988094248077 21.88455912671131 1 1 -3
1414 5 5 0.160636 21.788046917195892 2.225806271628036 22.277149979362385 1 1 -3
1645 33 7 -1.32 21.902753054218458 5.828303349272829 20.076608896735358 0 0 -2
1121 4 1 0.090236 24.050629609879074 5.83428243192117 22.421547376246174 0 1 -3
1137 4 6 0.102614 24.618119920447633 5.076687630752864 22.98359632464809 0 1 -3
1400 5 2 -0.011164 20.394337379613 0.6400468632425059 22.72281913511288 1 1 -3
1409 5 2 -0.09836399999999999 18.991413346317678 24.992436783614686 20.95179576552976 1 0 -3
1410 5 2 -0.120364 19.3758121183741 24.865762380217433 22.28671482118861 1 0 -3
527 2 6 0.102614 24.47030706050269 1.2788233926458996 18.889865325459724 1 1 -2
531 2 6 0.102614 24.694881578098233 3.278743665025952 20.02307560854674 1 1 -2
632 2 4 0.045503 4.090152452911169 7.622566593819236 19.186342695161763 2 1 -2
332 2 1 -0.09496400000000001 4.465574233320184 8.497629261185004 18.652412307917814 2 1 -2
631 2 4 0.045503 4.8414232727075355 9.369568909782108 19.205745108549877 2 1 -2
633 2 4 0.045503 5.235138606674721 8.128760402301651 17.987538752473412 2 1 -2
335 2 4 0.069836 3.8372438133346582 11.042016526390794 17.646611394532314 2 1 -2
319 2 1 -0.07226399999999999 3.28866215530089 9.005250101213223 17.72452156462971 2 1 -2
1071 4 6 0.102614 2.9721595244364485 10.688475016710537 19.876545798338505 1 1 -3
333 2 4 0.046836 2.3860902273249502 9.018957506683346 18.261652558556698 2 1 -2
1075 4 6 0.102614 4.995891358951251 10.68660097023773 21.60190839722899 1 1 -3
948 3 5 0.160636 3.501307693073007 7.888116149543309 22.201038433621214 2 2 -3
1068 4 6 0.100836 2.8410515487866035 10.317372319843566 22.38037917333206 1 1 -3
1055 4 1 0.188236 2.5802408412566304 11.39669999646303 22.35339220351996 1 1 -3
1067 4 6 0.100836 1.520998434409646 11.316974128330665 22.129824730588915 1 1 -3
1057 4 1 0.090236 2.847371238042565 11.79967726277893 19.94537047076716 1 1 -3
1059 4 1 0.090236 4.906853632214549 11.720544996311617 21.604452572235985 1 1 -3
929 3 2 -0.120364 3.1095220188385984 7.337724536079467 23.06553850523705 2 2 -3
1665 43 7 -1.32 1.4455882775109858 9.233402958824776 21.1551550496399 1 0 -4
1666 43 8 0.32 1.6340207114980918 8.300966342590788 21.03124177272789 1 0 -4
898 3 2 -0.120364 6.170326673174846 6.426265612878673 22.880574168378345 2 2 -3
1678 49 8 0.32 0.610938153858344 6.493657384084774 18.130872847924387 2 1 -2
1070 4 6 0.102614 3.307884427892137 12.392240598512734 19.12803034681074 1 1 -3
1069 4 6 0.102614 1.7551121520402726 11.995861555544883 19.971669576653674 1 1 -3
947 3 5 0.137136 3.126281533126801 9.026245851357743 24.530839078120295 2 2 -3
928 3 2 -0.09836399999999999 2.993523826126493 7.959428413860432 24.349279803056433 2 2 -3
851 3 6 0.102614 10.491321063107259 7.446235284701396 18.197737589280912 2 2 -3
1654 37 8 0.32 6.422221041265095 10.620004176275986 19.430274749562294 2 -1 -2
897 3 2 -0.09836399999999999 6.909889010775297 7.655713802265268 22.68938161616728 2 2 -3
1653 37 7 -1.32 7.250163633039066 11.148846897980153 19.55451762969711 2 -1 -2
903 3 5 0.137136 7.900199901031778 7.261253127971993 19.514032007496176 2 2 -3
890 3 2 -0.09836399999999999 7.464269083289787 7.015189642026781 20.429861168606173 2 2 -3
891 3 2 -0.188164 7.5275436930426824 7.958776756414659 21.454564800127258 2 2 -3
905 3 6 0.100836 8.701662878031014 9.331087732706255 20.24255680827686 2 2 -3
892 3 1 0.188236 8.503450276465362 9.112207981305437 21.320000565625968 2 2 -3
1784 87 9 -0.8476 7.677400895690843 9.000128878826452 17.51579992114923 1 0 -3
1786 87 10 0.4238 7.696776521398958 9.54924289062606 18.35132052393817 1 0 -3
1731 69 10 0.4238 8.914290315957103 10.770265858460673 19.221534818388058 1 0 -3
1730 69 9 -0.8476 9.861474700300848 10.77894494034011 18.900970492644625 1 0 -3
852 3 6 0.102614 8.970242588668068 7.244908104710789 17.366068957312557 2 2 -3
834 3 1 0.090236 9.864734538610325 6.654426344266919 17.688126740493665 2 2 -3
1819 98 10 0.4238 10.950745674822361 9.958884981666829 18.017075549189748 1 0 -3
907 3 6 0.102614 10.866488455309037 9.094879547076243 20.07087225358147 2 2 -3
909 3 6 0.102614 11.11330315094078 10.619180781095945 22.907227644429618 2 2 -3
908 3 6 0.102614 10.293956676957524 7.4792405495678205 20.664450903641196 2 2 -3
906 3 6 0.102614 11.751913981386995 8.32208292319587 21.38060428948892 2 2 -3
894 3 1 0.090236 10.78616222458135 8.421152765493769 20.893356092171096 2 2 -3
895 3 1 0.090236 10.275407489225033 10.502536327242623 22.254160069129796 2 2 -3
893 3 3 -0.6068 9.875209395553469 8.971989013012944 21.942256639565706 2 2 -3
910 3 6 0.102614 10.470751037376875 11.171177714313513 21.369144416086556 2 2 -3
913 3 6 0.102614 9.628240367568688 7.048186851059866 22.965581267756946 2 2 -3
896 3 1 0.090236 9.87948719598665 8.072016552302177 23.202946094945325 2 2 -3
904 3 6 0.100836 8.006594689476238 10.057256998770667 21.633110053683623 2 2 -3
911 3 6 0.102614 9.434892103694056 11.028380449581654 22.808989471656133 2 2 -3
1692 56 10 0.4238 7.285014851304907 11.9979717909805 18.08832741954393 1 0 -3
1616 18 8 0.32 6.569962236032169 11.240359011867685 23.308860381684703 2 -1 -3
912 3 6 0.102614 10.833175281899234 8.082307547942012 23.647055568293183 2 2 -3
1904 127 9 -0.8476 15.061646702866058 6.140230165099118 18.891813111511425 2 0 -2
1304 5 5 0.160636 12.739612378914636 6.658822781158866 22.84593119681881 1 1 -3
1287 5 4 0.046836 14.11168581009883 10.165036126938011 21.760342005731964 1 1 -3
1587 5 4 0.045503 15.875434516366845 9.010100417017911 19.92630480613863 1 1 -3
1585 5 4 0.045503 15.353463394256691 10.668328581063745 19.913926258611873 1 1 -3
20 1 6 0.100836 18.931896823111522 6.956952777516114 18.918266805298757 1 0 -3
1286 5 1 -0.09496400000000001 15.876377852766666 9.969546433211892 20.49599603081812 1 1 -3
1586 5 4 0.045503 16.899951273221703 10.299505798640332 20.752871122375993 1 1 -3
1289 5 4 0.069836 14.470524413566276 7.875615462686067 21.51719546996953 1 1 -3
1273 5 1 -0.07226399999999999 15.164614265861637 9.86543023841588 21.85400244101487 1 1 -3
1318 5 4 0.046836 16.679080704535018 7.460446351624676 21.518665556049328 1 1 -3
1288 5 4 0.046836 15.614334432714719 10.471579657908817 22.697691848946633 1 1 -3
1305 5 1 -0.07226399999999999 16.279832713639856 7.589646506921157 22.491986113380968 1 1 -3
1274 5 1 -0.036264 14.996888611801555 8.383287436707349 22.329694149807878 1 1 -3
1319 5 4 0.046836 16.968702084143764 8.147830356096474 23.083157598890722 1 1 -3
1726 67 10 0.4238 22.166874335264055 6.077034353240474 18.627197681631365 1 1 -3
21 1 6 0.100836 20.490248481474502 6.9858479506946365 18.28345248495863 1 0 -3
58 1 6 0.102614 21.279078073290336 9.547157099995452 19.246724862885237 1 0 -3
57 1 6 0.102614 21.90301735954484 7.809016068550415 19.091940556253462 1 0 -3
41 1 1 0.090236 23.782889312948377 9.450503386318616 17.97607696217208 1 0 -3
42 1 1 0.090236 21.985176067433677 8.74578199946629 19.65061968508111 1 0 -3
38 1 2 -0.188164 23.033153969579914 11.55398706758722 19.83970101898693 1 0 -3
43 1 1 0.090236 24.29873933290385 7.9077962509087465 19.847154378074848 1 0 -3
40 1 3 -0.6068 23.468055979736214 9.128392541520139 19.404702674805378 1 0 -3
60 1 6 0.102614 23.852324669492795 7.560751112039669 20.842658538909973 1 0 -3
50 1 5 0.137136 21.259926119426282 11.153731078583133 20.99903225661471 1 0 -3
39 1 1 0.188236 23.811697385539638 10.28999381349502 20.338722564874246 1 0 -3
56 1 6 0.102614 21.75762821303585 8.652520564752866 20.717894553007838 1 0 -3
51 1 6 0.100836 23.42088882880379 10.096932607009375 21.34997487467519 1 0 -3
37 1 2 -0.09836399999999999 21.711065476348836 11.75493153715066 20.265574358250298 1 0 -3
61 1 6 0.102614 24.092019481127878 7.158393208415361 19.121721703633945 1 0 -3
1227 4 6 0.102614 20.232043084686545 12.652109113103693 22.575571345473975 0 1 -3
1131 4 6 0.102614 21.679099084377597 7.269336798019303 22.895161873893386 0 1 -3
1118 4 3 -0.6068 23.762677874320445 6.880067410714459 23.492947481991266 0 1 -3
1133 4 6 0.102614 22.9109076515985 8.488581807457901 22.244753260004174 0 1 -3
1119 4 1 0.090236 22.633303176662558 7.865637290226531 23.061775115227483 0 1 -3
1138 4 6 0.102614 24.601976610822824 6.28045007445019 21.602050534773092 0 1 -3
54 1 6 0.102614 24.801307669103217 9.714821877162438 17.820875470852414 1 0 -3
52 1 6 0.100836 24.890563860804633 10.380102680421745 20.36673688889391 1 0 -3
59 1 6 0.102614 0.22329581170219762 8.14498542400159 19.899466931981173 2 0 -3
1130 4 6 0.100836 0.3017901219252075 8.035970158960367 22.874026992408936 1 1 -3
1128 4 5 0.137136 24.682183962421952 10.21788804184443 23.401558433795692 0 1 -3
130 1 2 -0.09836399999999999 4.7622137326775285 14.838581955474172 18.498526992570753 2 0 -3
143 1 5 0.137136 4.955465776240738 13.737458377405625 18.5275375883814 2 0 -3
131 1 2 -0.188164 5.69475972706082 15.669614497730693 19.16308867415495 2 0 -3
137 1 2 -0.09836399999999999 5.405005684451 16.999681993972864 19.287805378371495 2 0 -3
138 1 2 -0.120364 4.178090735088958 17.503990827412906 18.83576221210597 2 0 -3
129 1 2 -0.120364 3.4836847454235147 15.363844242546278 18.069720687795744 2 0 -3
1077 4 6 0.102614 5.591354227089974 12.180737361062231 20.964245858595824 1 1 -3
155 1 5 0.137136 6.125755878190741 17.688391267015724 19.729268773687977 2 0 -3
128 1 2 -0.011164 3.2232824849514006 16.69182333032122 18.263006799172047 2 0 -3
1074 4 6 0.102614 3.8275719699724227 14.120346633176975 20.75652880288579 1 1 -3
1056 4 3 -0.6068 3.4286007155380225 12.144716677719998 21.36027485457788 1 1 -3
1058 4 1 0.090236 3.2470820368719866 13.640116718645556 21.53623181318619 1 1 -3
127 1 1 -0.036264 1.8748652495059406 17.293495194732017 17.94372049386243 2 0 -3
1073 4 6 0.102614 3.597369326838693 14.000006913977876 22.49166770735203 1 1 -3
1072 4 6 0.102614 2.1406777610190377 13.817700600997084 21.370231812475616 1 1 -3
1613 17 7 -1.32 2.5295271467335017 16.440432155361492 21.287620337737415 1 0 -3
1076 4 6 0.102614 5.213918613184962 12.198487031226357 22.53353319244242 1 1 -3
755 3 6 0.102614 6.484610691047958 15.76636937088251 22.29604301668916 2 1 -3
756 3 6 0.102614 4.87951606036648 15.387612901922363 21.67883040128872 2 1 -3
754 3 6 0.102614 5.295638189930993 16.983210935399143 22.189695178764104 2 1 -3
740 3 1 0.090236 5.4418943953082755 15.961131259341645 22.37717300413034 2 1 -3
1614 17 8 0.32 3.1363119119170695 16.398737074008395 20.501250613859824 1 0 -3
139 1 4 0.046836 0.7486017876805993 15.533158084178824 17.952632335137523 2 0 -3
126 1 1 -0.07226399999999999 0.6970550460062583 16.44673449849384 18.529260162626827 2 0 -3
140 1 4 0.046836 0.918024432933017 16.07618064029915 19.587415789692088 2 0 -3
753 3 6 0.102614 3.005422582991394 15.28106036452134 23.466549500889897 2 1 -3
141 1 4 0.069836 1.7651708174728689 18.265317128734658 18.44427788750577 2 0 -3
125 1 5 0.160636 0.6606818639151751 18.245306892565445 20.744856269480977 2 0 -3
738 3 3 -0.6068 5.082314874835834 15.623396568349383 23.80995898386243 2 1 -3
1054 4 2 -0.188164 2.702136411869028 12.031569728618349 23.751572778580304 1 1 -3
759 3 6 0.102614 4.764892963510225 13.467800608554374 23.60351319810679 2 1 -3
1066 4 5 0.137136 0.8676347806061195 13.009873699063062 23.392761883117785 1 1 -3
1740 72 10 0.4238 11.76305161997958 17.508406077553886 18.25108552260844 1 0 -3
1732 69 10 0.4238 9.97914628868066 11.509819805730123 18.228682832001773 1 0 -3
1719 65 10 0.4238 7.7513530659995995 12.039433702552394 20.712109248195247 1 0 -3
144 1 6 0.100836 6.913276803311949 14.032977117440987 19.52494611960247 2 0 -3
132 1 1 0.188236 6.948980758296975 15.08733397329988 19.726935259436246 2 0 -3
145 1 6 0.100836 7.111615840361596 15.305078720397589 20.815905102691524 2 0 -3
1718 65 9 -0.8476 7.917451117146541 12.629231570775499 21.502390949152037 1 0 -3
1720 65 10 0.4238 7.68516409062187 12.13628577123565 22.34086706397993 1 0 -3
147 1 6 0.102614 8.37485879745308 17.469149259243054 20.169654969992173 2 0 -3
133 1 3 -0.6068 8.315776561318712 15.429530906427237 19.144676316470076 2 0 -3
148 1 6 0.102614 9.19652152691948 15.991465230012038 20.87220669868327 2 0 -3
153 1 6 0.102614 9.424340180488125 14.019280109242928 20.425911775288213 2 0 -3
134 1 1 0.090236 8.952167967583204 16.520695275877706 19.997212998693726 2 0 -3
136 1 1 0.090236 9.211400677405713 14.129525315730023 19.293735148429455 2 0 -3
154 1 6 0.102614 10.075256884059053 14.153892987226579 18.56177739442967 2 0 -3
152 1 6 0.102614 8.675938643368879 13.242006197460347 19.07179687632331 2 0 -3
1741 72 10 0.4238 12.169072362663082 18.678706783638674 19.31511406299645 1 0 -3
146 1 6 0.102614 9.828100462455936 16.92095918649155 19.620310114184463 2 0 -3
1914 130 10 0.4238 9.58636353175999 13.60879835725779 22.084503796437232 2 0 -2
747 3 5 0.160636 9.93513328289827 16.791061539255615 22.574712351124468 2 1 -3
1913 130 9 -0.8476 10.179107686348585 14.077246782889793 22.739641485300197 2 0 -2
744 3 4 0.046836 11.733514016969961 17.66527909821466 22.550535579245654 2 1 -3
1739 72 9 -0.8476 11.418183821868958 18.11976867885808 18.963333511324322 1 0 -3
758 3 6 0.102614 6.385392405517158 13.890129414908534 24.172806407807883 2 1 -3
735 3 2 -0.09836399999999999 8.166547644820623 16.679176049451222 23.660491288380975 2 1 -3
748 3 5 0.137136 8.117899963522166 15.560108022263625 23.412362002034854 2 1 -3
734 3 2 -0.120364 9.16874747621308 17.379372105588907 23.127803217547118 2 1 -3
1915 130 10 0.4238 9.766562010626275 14.037994858994898 23.649729603737214 2 0 -2
1711 62 10 0.4238 17.099354773756005 15.77112918671705 19.920043201775094 1 0 -3
1709 62 9 -0.8476 17.44948981609322 15.634516561193145 20.846724054061603 1 0 -3
1710 62 10 0.4238 18.44922254711448 15.651497469592398 20.831173565647354 1 0 -3
1485 5 6 0.102614 17.2710279794845 18.159819542507265 20.084855760486143 1 0 -3
1483 5 6 0.102614 16.34264967617907 18.025380277394262 21.616886483847722 1 0 -3
949 3 4 0.045503 15.00928270049311 15.511047535517786 22.895665181697247 2 1 -3
951 3 4 0.045503 14.223470138637825 14.054547268609705 22.576677293388116 2 1 -3
1232 4 6 0.102614 17.686852819230147 15.250981385942515 22.977084657054263 0 1 -3
1223 4 6 0.100836 17.607969863252222 12.310111347404597 23.164031791989757 0 1 -3
650 3 1 -0.09496400000000001 14.965021289869222 14.511415381146879 23.175800782837733 2 1 -3
950 3 4 0.045503 15.945602623114778 14.119056144097076 22.97638054676827 2 1 -3
44 1 2 -0.09836399999999999 23.58832912027691 12.256690771099592 18.815226987753775 1 0 -3
47 1 4 0.046836 18.70968000958952 13.392600380278614 17.96937283996354 1 0 -3
1228 4 6 0.102614 18.858291185928124 13.418615762909907 21.73360641282008 0 1 -3
1479 5 6 0.100836 18.648099630827893 17.566972967949013 22.514581857233445 1 0 -3
80 1 5 0.160636 19.71747569272698 17.475472936690345 19.099418044462674 1 0 -3
1619 20 7 -1.32 19.942497781931557 16.000548629532787 20.870985854441493 3 2 -4
1478 5 6 0.100836 19.635879139625615 18.012772969640572 21.16379416148213 1 0 -3
49 1 5 0.160636 19.90007389402038 12.685152924839823 19.644923541608108 1 0 -3
1620 20 8 0.32 20.868685533178876 16.28392714946689 20.695845882598256 3 2 -4
48 1 4 0.069836 20.066648360932362 15.105163660098048 18.650860249357834 1 0 -3
36 1 2 -0.120364 20.959504927594196 12.698420760921971 19.544155909713048 1 0 -3
35 1 2 -0.011164 21.544516101054683 13.567972013739686 18.588718567585296 1 0 -3
79 1 4 0.069836 21.85171381220126 16.595478868403937 18.765665203426025 1 0 -3
45 1 2 -0.120364 22.95485385361515 13.364152003616033 18.313281926008585 1 0 -3
110 1 4 0.069836 23.97487971997699 16.592296685635077 19.3901681774988 1 0 -3
1519 5 6 0.102614 23.607868233038154 13.553182864848353 21.022855424396177 1 0 -3
1515 5 6 0.102614 24.713189639333073 15.636630176841958 20.93639045317225 1 0 -3
1229 4 6 0.102614 20.11372031058106 14.45208515382538 22.3061754332224 0 1 -3
1513 5 6 0.102614 22.211208084007282 16.25253242681967 21.342671241806507 1 0 -3
1500 5 1 0.090236 24.894616134421703 15.546804856067242 22.01236462868551 1 0 -3
67 1 2 -0.120364 19.807499445059165 18.017412120710382 18.14028470296003 1 0 -3
1213 4 1 0.090236 19.59220052457652 13.525396558773856 22.51298420166129 0 1 -3
1517 5 6 0.102614 23.245860422819746 12.785648416689595 22.66719201346895 1 0 -3
1501 5 1 0.090236 23.145024433304542 13.705957837150448 22.03027149730145 1 0 -3
1511 5 6 0.102614 21.44529379180654 15.550147428694354 22.86602190482796 1 0 -3
1518 5 6 0.102614 22.02364118809009 13.697960787921096 21.835904302719214 1 0 -3
1499 5 1 0.090236 22.33551822466172 16.01822692309523 22.45450523449759 1 0 -3
1498 5 3 -0.6068 23.549749160128258 15.03512294015847 22.68663315792412 1 0 -3
1516 5 6 0.102614 0.09457598955449216 16.505440712424722 22.45741120414492 2 0 -3
1214 4 1 0.090236 18.454341298164906 15.182980944163322 23.76135968494036 0 1 -3
1230 4 6 0.102614 19.300513875070415 15.847350359372742 23.533843116876746 0 1 -3
62 1 5 0.137136 24.62169370179607 11.89208620052852 18.631384283930167 1 0 -3
96 1 1 -0.036264 24.399450039003582 17.170024113211618 18.62378532939335 1 0 -3
1514 5 6 0.102614 0.46491008905940856 14.753450353582574 22.14283703466579 2 0 -3
235 1 5 0.160636 4.501940984122612 23.0818470216133 18.67453409741777 2 0 -3
810 3 5 0.137136 5.102327828738728 19.987003183792503 19.894753431082798 2 1 -3
156 1 5 0.160636 3.9648661309326836 18.489273582742086 18.89823520666208 2 0 -3
797 3 2 -0.09836399999999999 5.334081603272629 20.97806015874137 20.306370040662465 2 1 -3
811 3 6 0.100836 2.9430248368856717 19.958025696852545 20.978391987860334 2 1 -3
117 1 6 0.102614 1.3828133452704265 23.534140768706067 22.049925359212132 2 0 -3
799 3 1 0.188236 3.176896770524136 20.743641999246947 21.666298425989922 2 1 -3
798 3 2 -0.188164 4.388656209308517 21.55160119771464 21.231022528569852 2 1 -3
812 3 6 0.100836 2.2976542256399046 21.38561186401919 21.669306465355504 2 1 -3
103 1 1 0.090236 1.300313362733032 23.427540082549157 20.974017345299913 2 0 -3
115 1 6 0.102614 1.6817110807297362 22.446901866648773 20.70532593711325 2 0 -3
822 3 5 0.137136 3.918928320270705 23.388398845468487 22.36591335312061 2 1 -3
820 3 6 0.102614 4.082810666066106 18.301643495306088 22.417183211142174 2 1 -3
804 3 2 -0.09836399999999999 4.5917810014699745 22.886297707493057 21.66451847903862 2 1 -3
819 3 6 0.102614 5.32228840720279 19.669062836646773 22.52499956283969 2 1 -3
813 3 6 0.102614 1.7740866699394398 18.440662779268038 22.484927933314978 2 1 -3
803 3 1 0.090236 4.47744283600452 19.114226754124736 22.949950551928076 2 1 -3
800 3 3 -0.6068 3.294951338822974 20.002501969404094 23.023807826771936 2 1 -3
124 1 5 0.137136 0.4982874572309648 20.58389994172994 21.713482987356173 2 0 -3
116 1 6 0.102614 1.832742210018698 24.238772978061277 20.57283449341036 2 0 -3
821 3 6 0.102614 4.700751926297497 18.873506164471507 23.979132893612416 2 1 -3
801 3 1 0.090236 1.9784015006836064 19.191983746895055 23.249777424741353 2 1 -3
815 3 6 0.102614 1.2009894958554947 19.89654324572878 23.35968474570455 2 1 -3
1606 13 8 0.32 1.0127966849122352 22.087572697954023 24.45548819643416 3 0 -2
1605 13 7 -1.32 0.760019935389056 22.15024845729166 23.47564649943393 3 0 -2
805 3 2 -0.120364 5.779308874005049 23.559681293394462 21.369144759235503 2 1 -3
796 3 2 -0.120364 6.5250835094417745 21.67436403838427 20.02205055594183 2 1 -3
795 3 2 -0.011164 6.802039301674314 22.89330768892969 20.68321653528291 2 1 -3
809 3 5 0.160636 7.302097336894764 21.271150984951618 19.394451620514488 2 1 -3
794 3 1 -0.036264 8.274572684629618 23.461614438475834 20.694983398225865 2 1 -3
807 3 4 0.046836 9.4493101211047 21.838815922356588 19.800366836413907 2 1 -3
806 3 4 0.046836 10.276363528997987 23.06155775367003 20.768894315150895 2 1 -3
793 3 1 -0.07226399999999999 9.334547148594174 22.44311297500966 20.748039161534294 2 1 -3
775 3 4 0.046836 10.05120630855546 19.619140323834046 21.05456881456753 2 1 -3
776 3 4 0.046836 11.298440822687331 20.61868340947626 21.340169706626355 2 1 -3
777 3 4 0.069836 8.483341858376162 21.2489553660291 22.277943414641435 2 1 -3
762 3 1 -0.07226399999999999 10.338703562411427 20.350031233758905 21.817346662234854 2 1 -3
763 3 1 -0.036264 9.487840271338548 21.607162929058504 22.049849411615483 2 1 -3
733 3 2 -0.011164 9.374226440156084 18.701727726034456 23.553345531407444 2 1 -3
764 3 2 -0.011164 9.885312183008532 22.49788526385405 23.17515340397391 2 1 -3
732 3 1 -0.036264 10.581428545082707 19.484792648650114 23.04706248322354 2 1 -3
765 3 2 -0.120364 11.25619627749644 22.774033231169085 23.411231833735478 2 1 -3
731 3 1 -0.07226399999999999 11.84963682688528 18.663074011186424 22.94232750997196 2 1 -3
1469 5 1 0.090236 16.934993564443516 18.740377487790653 20.9762090771435 1 0 -3
1329 5 6 0.102614 12.815580350558257 23.422474837015372 20.18888314213963 1 0 -3
778 3 5 0.160636 12.087026430583004 22.37127016456482 22.883662269119753 2 1 -3
1722 66 10 0.4238 13.346910149590048 19.882533812490955 17.96948500202692 1 0 -3
745 3 4 0.046836 12.48355944705689 19.120893244342348 22.250238700107133 2 1 -3
1721 66 9 -0.8476 13.698544885650245 19.616184810300012 18.86692933170901 1 0 -3
1723 66 10 0.4238 14.154727047121915 18.729107151487888 18.796317431368145 1 0 -3
1792 89 10 0.4238 14.09586369439426 20.633498462664782 20.953321690548968 1 0 -3
1790 89 9 -0.8476 14.119091606502332 21.16329910316903 21.80112278085619 1 0 -3
1702 59 10 0.4238 15.327083373382328 20.849913095764173 18.860274685966793 1 0 -3
1700 59 9 -0.8476 16.015953547245203 21.57117372695552 18.932634414239516 1 0 -3
81 1 5 0.137136 17.936819547001235 18.858812597001013 18.410166737881028 1 0 -3
1701 59 10 0.4238 15.969528596119714 21.986494131296396 19.841121757898968 1 0 -3
1641 31 7 -1.32 16.084620024478113 22.8368997660449 21.163256353522364 2 0 -3
1642 31 8 0.32 16.78400098394622 23.497882085158054 21.030721480432177 2 0 -3
1791 89 10 0.4238 14.755670163260135 21.92773328212543 21.69912642911512 1 0 -3
1484 5 6 0.102614 16.235639543969448 19.503856104840665 20.64196335384966 1 0 -3
1480 5 6 0.102614 17.73459904730153 21.069057282146964 20.212257857678303 1 0 -3
1468 5 1 0.090236 18.57368784463337 20.534465978412676 20.68978140415082 1 0 -3
1467 5 3 -0.6068 18.04223220625081 19.453675685252144 21.63012077912021 1 0 -3
1488 5 6 0.102614 17.044350610971158 21.068894892115885 22.584713481337765 1 0 -3
1470 5 1 0.090236 17.42765969673855 20.155091394787583 22.860374065859126 1 0 -3
1827 101 10 0.4238 16.480076598836156 23.289704192906996 22.891950262772724 1 0 -3
713 3 4 0.046836 14.580546650907294 18.34906159273114 23.64628644378572 2 1 -3
1487 5 6 0.102614 18.155675148922853 20.371777118148046 23.59514869139653 1 0 -3
1481 5 6 0.102614 19.083204733892728 19.93148977688029 19.917732217211288 1 0 -3
1426 5 6 0.102614 18.84991399511302 23.43465577041212 19.068710458358737 1 0 -3
1482 5 6 0.102614 19.23468453219563 21.25072856394752 21.12542335301304 1 0 -3
112 1 5 0.137136 22.927871271459416 21.70258675369884 18.63677346486287 1 0 -3
98 1 2 -0.120364 23.632173154686406 19.632081586921387 18.597408355918432 1 0 -3
99 1 2 -0.09836399999999999 23.527535964802382 20.928867482863687 19.090355618098002 1 0 -3
114 1 6 0.100836 22.977433051739197 22.993643154861118 20.88064722390986 1 0 -3
1489 5 5 0.137136 21.589654530168062 19.107183256871615 21.37014527024065 1 0 -3
1466 5 1 0.188236 19.130833399617522 18.434991826041156 22.066516638917612 1 0 -3
1465 5 2 -0.188164 20.184593622416777 18.987594017604103 22.96335632839886 1 0 -3
1472 5 2 -0.120364 22.39148153089647 19.94525365159877 23.15892202199177 1 0 -3
1490 5 5 0.160636 23.37195030335308 20.30697338475416 22.83471608014871 1 0 -3
1471 5 2 -0.09836399999999999 21.450732470957355 19.31118456285693 22.403951051667136 1 0 -3
120 1 6 0.102614 23.84607449197506 23.805264118058723 18.82964294597167 1 0 -3
1473 5 4 0.046836 23.69263046385811 22.70236558633794 23.897817186893796 1 0 -3
1444 5 4 0.069836 21.347484374125806 22.91031614768456 23.56353856901707 1 0 -3
97 1 2 -0.011164 24.374137019477175 18.64176817994756 19.172150077899026 1 0 -3
100 1 2 -0.188164 24.231016116032535 21.303785311723857 20.27785562467605 1 0 -3
101 1 1 0.188236 24.011762556319084 22.62998090076232 21.05579254268796 1 0 -3
113 1 6 0.100836 24.101523195623898 22.57391033665842 22.12746901734979 1 0 -3
119 1 6 0.102614 0.15223047021734715 22.866934751703077 18.71416872879074 2 0 -3
107 1 2 -0.120364 25.15672855267058 19.044091710753214 20.301042061516306 1 0 -3
106 1 2 -0.09836399999999999 25.046418991208043 20.32154810406206 20.827402296525236 1 0 -3
102 1 3 -0.6068 24.968693398467593 23.662829563834293 20.561307057581395 1 0 -3
104 1 1 0.090236 24.86508961861709 23.732578313444527 19.100465012853142 1 0 -3
236 1 5 0.137136 3.941250395594011 25.209395475511272 19.389902947497113 2 0 -3
223 1 2 -0.09836399999999999 4.483259751393863 25.150239507415826 18.482159021073365 2 0 -3
1543 5 6 0.102614 3.54109629519685 23.71209955988641 24.24558491276656 2 0 -3
1544 5 6 0.102614 2.1707696542361026 24.291204393741587 23.392382218201817 2 0 -3
1530 5 1 0.090236 2.5524497907786454 24.24302783719341 24.358189285556115 2 0 -3
808 3 4 0.069836 8.251304806564677 23.778518155341565 21.726614790117395 2 1 -3
838 3 4 0.046836 8.337614024306763 24.37094210952143 18.682760632050872 2 1 -3
823 3 5 0.160636 5.971666259528141 24.5761633817852 21.69906706177091 2 1 -3
824 3 1 -0.07226399999999999 8.641024160845202 24.652255020087168 19.740458101950836 2 1 -3
837 3 4 0.046836 9.767965643831024 24.665091702891687 19.532917302121625 2 1 -3
1331 5 6 0.102614 11.524843787183523 24.943051759779934 21.985860803118193 1 0 -3
1330 5 6 0.102614 14.418215631268419 23.88128899932945 20.04905968216562 1 0 -3
1314 5 1 0.090236 13.407729345841352 24.2987560847171 19.96565166844477 1 0 -3
1421 5 6 0.102614 16.038758605287683 24.525098475632603 18.46343842498643 1 0 -3
1326 5 6 0.102614 14.000678662317421 23.970477699959368 22.242902891744492 1 0 -3
1328 5 6 0.102614 13.299280544362713 24.623321713774878 18.90414265259031 1 0 -3
1427 5 5 0.137136 18.204169968611794 24.284462492307725 20.651859537105047 1 0 -3
1325 5 6 0.102614 15.149870904200869 25.211424421020375 21.731643441837257 1 0 -3
1408 5 1 0.090236 18.641809983665503 23.71195136185485 18.115974826918965 1 0 -3
1428 5 5 0.160636 18.90391122123357 24.131937643275023 23.030730152711527 1 0 -3
1812 96 10 0.4238 21.505711485981188 23.925496207164663 18.045458070262278 1 0 -3
1811 96 9 -0.8476 21.641192582565417 23.791458968559702 19.027127036060264 1 0 -3
121 1 6 0.102614 23.532724471134372 0.15581279084259242 20.839410779199156 1 1 -3
1813 96 10 0.4238 21.3238462199867 24.601013852687792 19.520996647940244 1 0 -3
1442 5 4 0.046836 22.7037949901082 25.010176378436412 23.528334170971114 1 0 -3
105 1 1 0.090236 24.587869609393152 25.085404199475377 21.151412334377973 1 0 -3
123 1 6 0.102614 24.511522818444305 25.0034584997639 22.291750384857437 1 0 -3
118 1 6 0.102614 0.33598767062881946 24.589273957343593 18.73298551705367 2 0 -3
1549 5 6 0.102614 3.577939707669978 2.3895304831666353 24.83510460103158 2 1 -3
921 3 2 -0.09836399999999999 2.448621387367295 5.781108079906274 0.16198036714263697 2 2 -2
1529 5 3 -0.6068 2.5402930804405193 0.5116580031384987 24.95864664921593 2 1 -3
1531 5 1 0.090236 1.1895476867517676 1.184538566308632 24.63542030975774 2 1 -3
1545 5 6 0.102614 1.3095759751012126 2.1904120720847535 24.713491661737798 2 1 -3
920 3 2 -0.120364 2.480482281354886 5.205681923275622 24.02899934135276 2 2 -3
934 3 5 0.160636 2.1572189546016944 4.214372575091806 23.82540643866551 2 2 -3
1547 5 6 0.102614 0.44351853874696695 0.744100978328797 0.11425201987643874 2 1 -2
885 3 5 0.160636 6.64267794319342 1.0666180684049937 24.24186233000887 2 2 -3
867 3 2 -0.120364 7.080981449550896 1.9919433403967544 24.49837200896544 2 2 -3
771 3 1 0.090236 10.547407806856306 2.405250478348079 24.794109184029466 2 2 -3
858 3 2 -0.120364 8.20461701636437 4.1276434820749115 24.062083844596188 2 2 -3
787 3 6 0.102614 11.067000163657815 3.2929018183606966 24.4696148999801 2 2 -3
785 3 6 0.102614 10.149056312753824 1.8910304704083727 23.946490357517597 2 2 -3
1337 5 1 -0.036264 17.566908213391997 4.378620570535742 24.495722164050946 1 1 -3
772 3 1 0.090236 12.859952203166875 1.353661410608383 25.11798953890014 2 2 -3
790 3 6 0.102614 13.516176126599742 2.2769618887771954 25.04736760488933 2 2 -3
788 3 6 0.102614 12.62106343439473 1.0922526959191763 24.064030997777763 2 2 -3
1351 5 4 0.069836 17.212345918189655 3.60612940810185 23.759137786598288 1 1 -3
1336 5 1 -0.07226399999999999 17.58834255268016 5.8200963583835055 23.727841260055392 1 1 -3
1135 4 6 0.102614 22.442445666843398 5.5766247520640375 24.348400592697168 0 1 -3
1382 5 4 0.069836 18.63861110741467 1.9989581741679998 24.14330896551307 1 1 -3
1399 5 1 -0.036264 20.7298843119478 0.5449733626930419 24.18397483981191 1 1 -3
1661 41 7 -1.32 24.320341109130595 3.2675239539246004 24.217799201176277 0 -1 -4
1381 5 4 0.046836 19.722079620713743 4.264572510765718 23.988318702186824 1 1 -3
1662 41 8 0.32 24.8165284533382 3.420337193387131 23.323353459297024 0 -1 -4
922 3 2 -0.188164 2.791185940580713 7.137237402182296 0.2910176615437633 2 2 -2
938 3 6 0.102614 5.540555268533183 8.587570510688497 0.20850332549664827 2 2 -2
1078 4 5 0.137136 4.444014008165331 10.911369493147056 24.426231512736294 1 1 -3
1060 4 2 -0.09836399999999999 3.645221363981976 11.598107109579855 24.68952720524252 1 1 -3
1129 4 6 0.100836 0.5235836648907797 6.684496398821947 24.087372796775142 1 1 -3
1770 82 10 0.4238 8.12592933751612 10.842122274581175 24.852183981816488 1 0 -4
1769 82 9 -0.8476 8.787448969080224 10.260270858312877 0.18634619740886288 1 0 -3
915 3 5 0.137136 6.892236181977868 8.376305035658211 23.497440127823538 2 2 -3
1615 18 7 -1.32 7.0968904289173835 11.795594003381737 23.894140943231847 2 -1 -3
914 3 6 0.102614 9.07885456715585 8.422369130201636 23.845260903456342 2 2 -3
1276 5 2 -0.120364 14.520732828639911 8.972208204213702 24.80019851258143 1 1 -3
1320 5 4 0.069836 15.673086557415974 6.337011404510654 24.12417479893533 1 1 -3
1285 5 2 -0.120364 13.067703136859684 7.319334129370708 23.720861233013146 1 1 -3
1290 5 5 0.160636 15.354322161097377 9.641172796677717 24.767924789220494 1 1 -3
1275 5 2 -0.011164 14.143622907222493 8.29809714472235 23.608331020651242 1 1 -3
1120 4 1 0.090236 23.291016529242093 6.12441272432656 24.764671386577177 0 1 -3
1132 4 6 0.102614 22.47926555802112 8.576295301010733 23.948135098678122 0 1 -3
1350 5 4 0.046836 18.074485895740338 6.610628111741318 24.332579969870892 1 1 -3
1221 4 5 0.137136 19.45216759219891 10.583412833995814 24.00713490611355 0 1 -3
1600 10 8 0.32 22.270826787183495 10.439755849140377 23.88501710632049 1 -1 -4
1115 4 2 -0.09836399999999999 24.586029922746235 9.907585967646778 24.438142257261198 0 1 -3
1117 4 1 0.188236 25.078359716685497 7.5241083833776505 23.78970537122533 0 1 -3
757 3 6 0.102614 4.996713410564689 14.047188829746064 0.09304522124157849 2 1 -2
737 3 1 0.188236 5.900995022811644 16.500782674908933 24.854150132637663 2 1 -3
749 3 6 0.100836 5.203638517392877 17.112446201498173 0.19157199939688496 2 1 -2
1508 5 5 0.137136 0.696830937079853 16.284155179536768 24.45875463585044 2 0 -3
741 3 1 0.090236 5.327825809363389 14.179420030883481 24.195530268255197 2 1 -3
739 3 1 0.090236 3.610049016885749 16.03580336840826 23.993479023227593 2 1 -3
752 3 6 0.102614 3.376503510556975 17.037950575396273 23.54814129585224 2 1 -3
1053 4 2 -0.09836399999999999 1.6225346824250213 12.851804623064043 24.18759076155093 1 1 -3
736 3 2 -0.188164 7.13901524267961 17.29808109497187 24.361450640850833 2 1 -3
1749 75 10 0.4238 11.19361395477641 12.819509111469195 24.49934375095659 1 0 -3
1742 73 9 -0.8476 8.590505425199277 13.663646239293586 24.845702027985226 1 0 -3
730 3 5 0.160636 11.42358411858875 16.027051165521044 24.723333912360253 2 1 -3
1743 73 10 0.4238 7.883133958476199 13.025161340207516 24.542456358036738 1 0 -3
652 3 4 0.046836 13.477957069805091 14.532617590380317 24.745736383450208 2 1 -3
637 3 1 -0.07226399999999999 14.526119763599477 14.259488534981404 24.63851512000037 2 1 -3
683 3 4 0.046836 16.284324849914377 16.705429564725044 24.468140677179463 2 1 -3
1222 4 6 0.100836 17.044673153625695 13.313883631623858 24.350808229240968 0 1 -3
700 3 1 -0.07226399999999999 13.925318657596014 17.757526527213862 24.31967341382773 2 1 -3
714 3 4 0.046836 13.62094450652161 16.82593723506465 23.79966161186855 2 1 -3
1210 4 1 0.188236 17.876301847357396 12.720049682847813 24.095397770974294 0 1 -3
1231 4 6 0.102614 18.137446505757126 15.578053374723664 24.672310242281462 0 1 -3
1226 4 6 0.102614 20.695605648679994 14.395612518832083 24.800823042727522 0 1 -3
1509 5 6 0.100836 22.75294962454042 14.18936801955196 24.59409265651653 1 0 -3
1512 5 6 0.102614 22.566127242037382 16.891072990119866 23.097843796183483 1 0 -3
1599 10 7 -1.32 21.7830968084437 11.263069014406591 23.45179040066099 1 -1 -4
1497 5 1 0.188236 23.570216823519452 14.76046425694043 24.26103007641003 1 0 -3
1211 4 3 -0.6068 18.961606563005454 13.720712371774871 23.852959944212614 0 1 -3
1495 5 2 -0.09836399999999999 25.015737286817192 16.720963258646563 25.04646862544567 1 0 -3
1510 5 6 0.100836 24.36451098901032 13.973871667377841 24.485608427419365 1 0 -3
817 3 6 0.102614 3.5118350692420215 20.480215978740034 25.083284072206702 2 1 -3
1603 12 7 -1.32 5.828943355623933 23.88894199907854 24.59088953337735 3 0 -4
1542 5 6 0.102614 1.8685910197502436 23.70072689232572 25.07286329788409 2 0 -3
814 3 6 0.102614 2.210389724633249 18.74285791414833 24.205141157970175 2 1 -3
816 3 6 0.102614 4.537238211445109 21.532632068775023 24.017309639479684 2 1 -3
802 3 1 0.090236 3.5668407161752147 21.017917627391377 24.085113195133736 2 1 -3
818 3 6 0.102614 2.7513484224221876 21.74914962458555 24.0768896944929 2 1 -3
1604 12 8 0.32 6.697988870338121 23.883223922257592 25.015384419012697 3 0 -4
743 3 2 -0.120364 8.46322227837855 19.339214865762884 24.407909908544468 2 1 -3
792 3 5 0.160636 7.84664004281251 22.810610029472066 23.784245328862795 2 1 -3
774 3 2 -0.120364 8.906036030349346 23.062118107112596 23.955526917991442 2 1 -3
746 3 4 0.069836 10.782129215376411 20.222624239263382 23.82016916530756 2 1 -3
766 3 2 -0.09836399999999999 11.59134888492586 23.677761199195935 24.456870946139652 2 1 -3
701 3 1 -0.036264 12.522221916846467 18.551097294753873 24.324566991126538 2 1 -3
715 3 4 0.069836 12.865715033713014 19.63471020318559 24.522940377743666 2 1 -3
779 3 5 0.137136 12.579847323118374 23.889226242344677 24.766743289147335 2 1 -3
1828 101 10 0.4238 16.118421938540408 24.040340367054014 24.296359250308235 1 0 -3
1486 5 6 0.102614 16.593952246039763 19.585793705133227 23.161355517090932 1 0 -3
1826 101 9 -0.8476 16.67422187598426 23.325334741015503 23.87227329337962 1 0 -3
1477 5 5 0.137136 19.09681013650539 18.758162435115786 24.839273064162946 1 0 -3
1463 5 2 -0.120364 20.990792981340903 19.766287984094475 25.117072842152346 1 0 -3
1460 5 1 -0.07226399999999999 23.120302887283252 22.61389178975594 24.780644001825507 1 0 -3
1461 5 1 -0.036264 23.199108980186452 21.116444642104938 0.1636148328375171 1 0 -2
1459 5 5 0.160636 19.30082704173681 22.289118268772455 24.187342279524117 1 0 -3
1430 5 1 -0.036264 21.794359703559998 23.383088458641254 24.482377620150352 1 0 -3
1462 5 2 -0.011164 22.2165893236984 20.20711701991111 24.563048119771757 1 0 -3
1464 5 2 -0.09836399999999999 20.016756173078278 19.12594720307895 24.357420828120155 1 0 -3
1475 5 4 0.069836 24.19963289961607 20.7971438595851 24.970109397686137 1 0 -3
1413 5 4 0.069836 19.977399373162115 25.07874647492001 24.695385331953396 1 0 -3
1429 5 1 -0.07226399999999999 22.00421229746201 24.839376249446623 24.332746344382137 1 0 -3

Velocities

1639 0.00823586390000081 0.0022614042268549323 0.004232286469732109
1528 -0.0028130238926638157 0.006506855348203581 0.0003622976548046562
1640 0.008977443386511163 0.004994865889886349 -0.007366713880115958
873 0.003953061313659088 -0.001471350058092843 0.0032310077845674485
1541 -0.010418272082203446 -0.01671155739306108 0.005409776595953536
1581 -0.012446607882759428 -0.004428826736242848 0.01571111001585864
935 -0.015871702720920464 -0.009396676216180193 -0.032230535082368617
433 -0.005618292783744452 -0.012872143224761294 -0.0351401836404737
423 -0.001287254209134588 0.004063857071051655 -0.008149775085658267
440 -0.002194928272470711 -0.0016947838885242302 -0.023170090480776645
1540 -0.0015706823770529673 -0.009601035041328802 0.008273122693730981
421 -0.0020776958036618676 0.0030627195183212637 0.007000874837485389
1583 0.018172915341215175 -0.002828638951236899 -0.027422206222291665
1572 0.009361364953505175 -0.03322269606444566 0.013171169582760555
439 0.00010542731946303062 -0.008453020054676314 0.0024304307710333087
1578 -0.021398603711315224 0.011943760551422862 -0.007354081562542419
1582 0.04354951513177519 0.00314537120269751 0.007555720426616486
1580 0.007263802658699185 -0.011605529647860803 -0.00697845921447249
1563 0.012026862252791884 0.009587632172532036 0.0004449127996151659
435 -0.022447866238228132 -0.0038030674676996757 0.012588112386002282
420 0.003388524210873867 -0.009307431477142204 -0.006490872811438848
436 -0.012402273599691857 -0.03443794869566234 -0.00022678765667758925
1564 -0.008385018294886873 -0.002211587473410857 0.0037794502211924708
1539 -0.0006510469852611818 0.013566802805877742 0.033725902564759803
1559 -0.005305265957533206 0.0048869387027021625 -0.0013834738313355042
1558 -0.01241549965801807 0.007764923819681208 -0.0016669049423301556
422 -0.004244490578690843 -0.00023844050214492612 -0.005253269405494732
438 0.010568912664832376 -0.00048654499369933706 -0.007916413951875931
884 -0.0038382654940338707 -0.023110079545650315 -0.01030632866417785
866 0.0028806170430704494 -0.0041439340992050445 0.0004618929513364335
874 -0.00319597468367197 0.020757844830319717 0.0016107482912828366
860 0.004729922491387156 0.0003300397852014947 0.004349641401253798
861 -0.0011605859043857495 0.0031745037855316154 0.0011329218738715342
883 0.018957261437373474 0.013052942581248977 0.015706341981545163
859 0.004851552127806273 -0.00025953374379839895 -0.004553164662737016
872 -0.0009146023359259692 0.012269491810483282 -0.01372967940470363
786 0.01594518077367011 0.005159733995553883 0.027493616697723225
769 -0.00873002593477829 -0.005681295876821608 0.0036477362066499393
770 0.003910428718095207 0.005606989441217205 -0.003868158624135025
881 -0.010022272129325023 -0.02017462129114072 0.00877993877766527
783 0.02062986629818511 0.005302289253165695 -0.04019836170819368
863 0.005959324667040144 0.001893050002653141 -0.007490929179942803
876 0.012029760598338537 0.018155828229517796 0.009089155450496485
865 -0.008894471791683654 0.005786957303753346 -0.007115120758100805
862 0.0060532957016618235 -0.005419382348474552 0.003238428409079695
877 -0.012296641274262563 -0.03215143374729306 -0.009097525224759023
882 0.003060230060555474 0.025794796182979654 -0.003123310396352138
875 -0.020681766129491463 -0.02208872711271034 0.0003982291166988134
1595 0.0004095393120779555 0.0005443048994461762 -0.0006730783578268783
768 -0.0030026131012937988 0.002391374607888542 0.0013131626654344021
864 -0.005838513099742436 -0.0012060674559065995 -0.003493116353001483
878 0.026475510390655165 0.008739662839700301 -0.016565495431006695
879 0.013743167580097089 -0.018245798251626522 -0.0038105703977093534
1673 0.0026006553331669622 -0.0064454771638832505 0.0031994215794488644
1674 -0.016051634786280956 -0.0196040400770055 0.016727533748896864
782 -0.003109423140203759 0.006724265445034043 0.00023653489585490466
784 -0.016288558947092198 0.021815427588332627 0.01088432502614835
1355 0.013613733614050444 -0.03640474826175154 -0.009815060104909451
789 0.002002979077130611 -0.014537388423627243 0.0029903227525849754
1353 0.009905306256206415 0.01799879376249099 -0.02276283713457744
1352 -0.010002794756557347 0.006391969470946353 0.01608927162924717
1339 0.004774714718168672 9.802691626694123e-05 -0.00027429817195716473
1338 -0.003647369959848216 0.0009408450264669687 0.00283288014443563
1348 -0.0005399043489158861 -0.005542683444311459 0.003985834223250932
1379 -0.0031840390311754074 0.0019726637054194103 -0.005728452899301987
1340 -0.005265198343027778 0.003163135023456269 0.0026784686651773375
1347 -0.0015788580146376976 0.0048982608831353285 -0.005399593671899031
1341 -0.0006777511214810541 -0.0049772765493662835 -0.0033714535809255017
1372 0.0043704581564807015 0.0009249479932461941 -0.0015719931045243523
1371 -0.0012084896596474195 0.0015365225644765656 -0.0001908288326418789
1354 -0.0259194869848816 -0.016082850773283898 -0.011737337853264617
1342 -0.0013825190167757622 -0.0072260282575582705 -0.0016296306602320942
1360 0.004522070441459771 0.016866291858417645 -0.012302029890898307
1362 0.01185252004038981 0.00363808826539123 -0.005377480768552032
1384 -0.00405443037246102 -0.02669260143886007 -0.012061272054008152
1365 0.009699506921835315 -0.01247955999925043 -0.010430443787748035
1359 -0.006672585638434251 -0.02218553020828407 0.02064054787410544
1343 0.007824420798369138 0.0004461163869828784 -0.011521963018377704
1345 -0.0031149533779529447 0.0033435785418498825 -0.002453381837506523
1346 0.002904165124178623 -0.0033867618643208764 -0.005885528482426047
1386 0.005187733305629876 -0.00752059719987812 0.006426218453803993
1364 -0.016528823798175045 0.024657187051878575 -0.019697511822974096
1367 0.0008193245501387102 0.006237077185209015 -0.005545611792404144
1369 0.000835453922832121 0.0030100805205980435 0.009346608883459737
1370 0.0022989698207497087 -0.0021991905886248205 0.0035779744814080964
1368 0.008763915372218817 -0.001361125741337978 -0.0011932157690134144
1383 0.026445019491311124 -0.015771447600576163 0.01615501727318757
1380 0.004837582508830459 0.010962807065482697 -0.002656647111490629
1398 -0.007092422835206933 -0.010895745287561489 0.007414341613091308
1411 -0.004702978068649031 0.009952073460944693 -0.02354647986066224
1134 0.006357757798791639 0.017100187300260753 0.01745397553653783
1575 0.010944676045565295 0.00499874844217599 -0.00024252712875910467
1579 -0.02911669017136755 0.0007627739919695267 -0.009734048810352898
1561 -0.007182917501623107 0.007356650849419449 -0.009056098931193015
1574 0.0004918237891920322 0.009998137585043844 0.014911490401202791
1272 0.007997009826762066 0.0035273182394816175 -0.006554799434062029
1576 -0.007550500924601849 0.005953069234928225 0.002784178261358554
1250 -0.006538314935719497 0.00879474559151676 0.002258104750671401
1270 -0.0018830908362345927 -0.00017556317392975818 0.006011725921727684
1271 0.014864239511878725 -0.017212898172538738 0.0029406728315098146
1571 0.0012639641853391592 0.00386846297667887 -0.006322957113933433
1636 -0.004868930322363726 -0.01802785363627888 -0.014923250671121054
1412 0.02626097598440281 0.0015511478327787842 0.014575482176477335
1577 0.024829718855027532 0.017577875382708923 0.009158927680014004
1557 0.004390779392714419 0.0107714592135324 0.0005851961747627339
1562 -0.0007300549664911379 -0.005170392667397842 0.003316330583106453
1560 0.004672719481741392 -0.0014262914332482577 -0.0029034545914205187
1573 0.0041301194426544945 -0.03184703008582312 -0.022075838857457356
497 0.004355385691938664 -0.017167096875153002 -0.005386426368478304
441 -0.012356994376846734 0.017780000627254443 0.00015135739690617304
434 0.018644525266591536 0.018478054848364577 -0.007200947600655757
925 0.0026353995625066195 -0.005944272916235392 0.00018931328385845845
940 0.003818392381061587 -0.005466618798454438 0.0008849822035642875
946 -0.00957686165503002 -0.010105015509465213 0.0010087591613015306
924 -0.005903517667759197 -0.003253210727820137 -0.0022198015042553597
927 0.0067335239191017825 -0.0010175058065693414 -0.0046588126716656094
923 0.0020757319216027793 0.00018058060037044252 0.0035846423331592834
944 0.0029472735691764653 -0.00694569813781943 -0.019622011200450692
926 0.009990157352681023 -0.005918853873307361 0.0013466293784859479
941 0.0004493985124735021 0.0035233195229682703 -0.014214887784515257
937 -0.013583376143031659 0.027588600149990927 0.00031135529097254107
936 0.025049993681079474 0.007516251035973617 0.0009881186085525524
943 -0.023612081743577065 -0.0027895687198785514 0.02550559909183612
942 -0.010260091106571417 0.023916292531334617 -0.029304924700518438
1110 0.0019239181501935652 -0.02210917798114477 -0.020320103929319353
1095 0.003452212909680782 0.007417999182048381 -0.008282524094453984
1092 0.0005435174343057453 0.0035428239912216383 0.002548946369379189
1611 0.008908987312062475 0.0003711796790115342 -0.005875737053948813
1082 -0.001005464502811973 0.005244671345110145 0.0013011634162442467
431 -0.0017619595892858213 -0.01796938131417389 0.0043280782390335846
1612 -0.013555024950291102 -0.005370909461980802 0.0035420015001000017
419 -0.009287943453808564 -0.002908179225049895 0.0022542368320266223
939 0.017623498685296952 -0.027287199810621447 0.005715466666664708
945 -0.002815687074597351 -0.025468603872690915 -0.011723745001668673
1824 0.0020702553778945746 0.023998352467541256 -0.0042919928804270625
1041 0.0034605229171951165 0.012290756338986233 -0.0013649032445447141
1042 0.010731097576516479 -0.004127274719290031 0.0030234000089592217
1663 -0.0013459109071930955 -0.007085295457811711 0.005439752575338467
1771 0.013022812828530371 -0.0023266837595254533 -0.016742409305819834
1301 -0.018595800931105605 0.013742788891428692 0.0034768014856042086
1303 0.017696084562087933 -0.021884093036974205 0.013579146869477405
1296 -0.005316680070121031 -0.012615609779584357 -0.03010661341593963
1283 -0.0009586810242212083 0.005606584978468285 7.498578829439115e-05
1302 0.0021467216466344546 0.028779217797169084 -0.015880202460635325
1300 0.004738925566015756 0.00809793050490471 0.004730530743564019
1293 0.017240124666777802 0.005051146900988277 -0.0018594497589110013
1281 0.0017065639359834473 -0.005915253081589504 -0.005844948491834617
1279 0.002775692313370381 -0.006800343828336808 0.0002704968763145818
1280 0.002237390354172645 0.004243818371692559 -0.0036484477836605913
1295 -0.004453220656361873 -0.0036933225360145233 -0.0007992514932339351
1027 0.00016094576845832989 0.009243632060176884 0.0022569656133777723
1043 0.003725178918161282 0.03142222291149162 0.008158548403981888
1282 0.003637455477962471 -0.0006550834316790032 0.002048657864123113
1664 0.007013120105226936 0.0038844121771092407 0.010267194281857702
1298 -0.0038643591446395702 -0.016377902900045094 -0.011763170921747836
1299 -0.0031379218844153956 -0.02321237179282349 -0.021751863784622103
1297 0.02388500328191426 -0.009130339717690955 -0.016110216656622982
1823 -5.0079515891772714e-05 0.0034593803622920676 -0.004148389942601895
1825 0.00012369119818295252 -0.005229465478431081 0.0004349701328976026
1802 0.0005469414142624324 0.0025458894762546533 0.00010022173267607496
1284 -0.0034773848855737277 -0.0030946267582485395 -0.0024049437639036405
1294 -0.011478029660440585 0.01492479432118614 0.0033707078418823613
1278 0.0026188437633131337 0.004624254322853105 -0.0030407166214162303
1292 -0.015196095957368615 -0.001552051694923219 -0.012781374457642389
1277 0.003730469426955925 0.003648930426039223 -0.000573378623301272
1291 0.005308505479402444 0.025146270955846713 0.007899676248266386
1209 -0.006535517111794647 -0.002004460773170244 0.006617825261915083
1366 -0.02781756272103773 0.023581999394516745 -0.029188533664028505
1233 -0.010669399137092663 0.008526791309261908 0.0006249657226463826
1215 -0.0027194335859023824 0.00022544575750170557 0.0033857444598652145
1216 -0.0004086784265564257 -0.009182312600749502 0.006187039896854816
1234 0.023679932220676842 -0.04160179773159435 0.020769487360925664
1219 -0.0018802499097627164 -0.004322833634954677 -0.0071243463242908036
1217 -0.006979532969557356 0.010931867870392934 -0.01485615544085273
1873 -0.006060855030690363 -0.01015858252200093 -0.03218334950745495
1871 -0.0004139129702854175 0.0005657022911917858 0.006706901983961911
1908 -0.00877504377199499 0.007912760561206095 0.00738660896329748
1907 -0.0014843206904147947 -0.005183872084298278 0.00483306474661427
1909 0.013416974923784738 -0.0035696966052977774 0.008204633717836493
1872 -0.01501017473210664 -0.028453441679108932 0.019802610935022075
1206 0.008033748233594347 -0.001461767103486734 -0.004340735578419524
1205 0.0009600641842199533 -0.0025185016504068345 0.0036987097068254923
1188 -0.019698164911503512 -0.016373536915689768 0.011726985449279399
1204 0.002738930613777698 -0.0025968715846782296 -0.0010677965664887318
1208 0.00359093658890309 -0.0019908391223853244 -0.007968620893434974
1207 0.009769662338556515 0.0004827987284521963 0.0019460500157625791
1220 -0.002105635204293848 -0.005944261745088083 0.003722027063829016
1248 -0.007672022881807165 -0.00723008283768973 0.008008787704612455
1235 -0.000824585306510331 -0.0018531757514185872 0.00556706585036694
1136 -0.0030493949408006427 0.004635472613198414 -0.005350120227302493
1156 0.022101693938383758 0.0036923180606672915 -0.046820671094140266
1113 0.000251110405762609 -0.002512852459156524 0.00034824335173279917
1142 0.0059922257921814276 -0.0019874623025477904 -0.0020597166322809195
1249 0.0019615039436315864 -0.006672136350991982 -0.0010872789064957362
1112 -0.0029520735866222494 0.001615853055424901 0.007780716585522609
1186 0.009168240285598471 -0.009751192206944287 -0.014571814993377723
1126 0.003861131168326638 0.009065852054263636 0.023486740910630712
1141 -0.025642448696645802 0.0021443706715182764 -0.0015740699238995443
1236 0.0015171712531798903 -0.004860261648269323 -0.0053205281873685605
1173 0.0014113766891339524 -0.0021058797024761304 0.0067875454669471934
1252 0.03013966259117433 0.014675578120348002 -0.009808092315851
1251 -0.009302592509368525 0.019815258257527738 -0.02340311785876337
1174 0.003092368756774394 -0.0043156325417682976 0.007763041898052766
1238 -0.0015915760139345381 -0.0048116559210137156 0.003590858339809967
1218 0.007869905712145594 0.0018630056859134576 0.0010399935958100126
1237 0.0036254351269438528 -0.007852363035809884 0.0023745920242531707
1187 0.002582951979971967 -0.00044714384979437283 0.02856705831561611
1127 0.0034628974834973077 0.01165405347440752 -0.00898969887784086
1114 0.008330916877171003 0.0010275244790047752 0.006044535867383007
1123 -0.004264035695196292 0.014832739491564625 0.002411284813519361
1116 -0.001048424492369992 0.0026486688006180847 -0.00016836438078214586
1122 -0.002993031196391359 0.009293232376308247 -0.012284122682898791
1140 0.009539307651447095 -0.011550259088436763 -0.005046089825310886
1079 -0.020800727405367456 0.004920529478038915 0.013958151073907415
750 0.012126676262042198 -0.011011542436333045 -0.009903689808162435
1061 -0.0035692473811770025 -0.0024692856977967634 0.008478800653544956
1062 0.005386846469951976 -0.01559363131337656 0.028788765262573388
1032 -0.017492461356507012 -0.006527904881380102 -0.01523646287832423
1049 0.007727132177120099 -0.0029232070667026154 -0.000921577252472485
751 -0.027201200602414526 -0.006299932422583849 -0.0021895424199336595
1051 -0.002074197314910446 0.0018103897504647768 0.0026120186223846623
1063 0.002332586516939677 0.01765555806835649 0.013990613612034726
1050 -0.0007259924506169754 -0.01091652131328524 0.00110288825174077
1018 0.0027008603202197503 -0.0032322625062640126 -0.007367715962040197
1031 0.02134634799018816 0.007454550722965137 0.007210969726932132
1064 0.0100249795346306 0.01422223444029379 0.006376979186187378
1019 -0.0056189485215160685 -0.002473475795848289 -0.008740784249324937
1052 0.002500625672681228 -0.007561071391291806 -0.0025919142040120163
1033 0.016403751308266205 0.009670345804355777 -0.007867895522329355
1094 -0.01242372029568679 0.009983234858049611 0.017059893641904387
1065 0.003344707658274047 -0.016808930940829966 0.024307265740967365
1080 0.002764431252613157 -0.002436329920154472 0.0019805536475274244
1020 0.004222924670451416 0.003529578824342568 0.0009212046726531146
1093 0.0021794524394478645 0.0047787398698206675 0.03841152317607772
1081 0.002778236059701394 -0.0040982583404492665 0.005058835351860057
1494 0.005909796701862092 -0.0019785064388914285 0.0007420983271059031
1021 0.0012435673641007553 -0.0029316392917894665 -0.005796347731638644
1598 -0.024503766342138085 0.002121203902739683 0.011416363840897293
1048 -0.00717314434491095 -0.008113163833757575 0.01842288357677421
1030 -0.0003390757526858188 -0.0009635482144666693 -0.0026394514503534777
1002 -0.0060220604957172226 0.011073398930072887 0.001720221318800318
1029 0.013463254367198583 0.0051226895286 -0.0011147496990024269
1047 0.013150640228778798 0.005927096156839802 0.006379718546136533
1748 -0.006185197015065357 -0.002154502101464742 0.002653761861555208
1750 -0.0026707117724287274 0.005658310022781091 0.007899476851789457
1744 0.023820908777369268 6.142043370763817e-05 -0.020975079996310913
1597 0.0034929164819216675 0.0034661689793430606 -0.00072327932164866
712 0.00487073774604517 -0.0005530869868468568 -0.011343928033804839
729 0.01041437266997039 0.011576274806112053 -0.015379215221356341
711 0.00044560670692626707 -0.002545417482135808 0.00028518588296449696
705 8.294295510145042e-05 -0.002945060859010432 -0.002816719223698432
725 0.01866105082015435 -0.01735145932129863 0.008406525491290093
719 -0.03216068836374314 -0.0020154060396509856 -0.018047578212554878
706 -4.894358754344733e-05 -0.002884139092264789 -3.846623679533436e-05
724 -0.0051891786836957355 -0.012265995580662067 -0.003336974304547539
709 0.004612797148111951 0.0015773589120054146 0.0021974147404510785
718 0.006960483420778136 -0.0174705475079321 0.00854805983489225
707 -0.0038948972811261168 -0.003241471433589551 -0.008163438820220182
723 -0.016928264894533942 0.026122687740898737 0.0052893416898991364
710 -0.002975770592109824 0.005244654275917317 -0.0027713101259511383
702 -0.0030945036040173333 0.0012286206361389797 -0.0013848327673279858
1023 -0.002693468064082202 -0.004793050771126203 -0.004751361221135981
721 0.005067537860039221 0.0032097691872382834 -0.00038002878399000093
708 0.004682340171494801 -0.014655582360586493 0.000629854344443153
727 0.009806992738460182 -0.0037737788633380735 -0.008940640704239316
728 0.020871590841353097 0.0046164076578538 0.03607675651199968
668 0.03890545463874284 0.009136448172893752 -0.028695399043634866
667 -0.020910834428235024 -0.025385194349517876 0.0031698758636734287
684 0.03008392833258291 -0.0036732287399522676 0.00128880568393783
670 -0.0025144361052811676 0.00018828825617094196 -0.0039058631470483738
649 0.004354303041303517 -0.0006723719828202013 -0.0024776722263977987
651 -0.005978553481903806 -0.006832680143926873 0.0012204842107857053
638 0.008350319655198776 -0.007766304901277561 -0.0017228528383534914
669 0.0028965728521853067 0.0029366792334383435 -0.0021122544648774157
653 0.007947337408417932 0.019147865831707123 -0.0055126774883237
682 0.010902613025697006 -0.02177981421026858 0.007008585536827971
639 0.0019371025165566865 0.004339765288395964 0.00042713089692937464
640 0.001965395987063079 0.00177494548031513 0.00696510037487604
654 -0.006193937305459433 0.011398594811693767 -0.017233353294941828
648 0.00027687821256694407 -0.00328946118808935 0.0036495353619234727
641 -0.0004989654198077086 -0.0073806746891042765 0.0022925750534842667
642 -0.006942213712879282 -0.005078328188337166 0.0012018002833780773
655 0.018654064437320227 0.024888589066442614 0.0063010301035753445
685 0.014431381937205848 -0.004067067542749236 -0.021310812853013596
1143 -0.011666907208614217 0.0007467200125109167 0.010079167551252082
1157 0.011761076823802544 -0.01738300853617865 -0.00042851855753659525
1225 -0.005587924135158661 0.012945898812572132 -0.00086466769650646
1629 0.0025982773385750104 -0.0028152577535030705 0.0033121908308802405
1212 0.0047975081701327315 0.005886179694653478 -0.001393777129314386
1630 -0.011809595878660444 0.016259035471540315 0.012306523700993895
1224 0.010097114918556516 -0.01857747161694485 0.004537705041419301
1158 -0.0036947017609763053 -0.0065158629124761865 0.014612113609766235
1520 0.00216624634464763 0.014753354453658014 0.001843452585298208
1496 0.0018586640956997072 0.0006278939797219359 -0.0018413334445504246
1502 0.0014552994410333348 -0.004803640012292063 -0.0018475237905942223
1155 7.643913830035915e-05 -0.01803852249207634 0.0022862401322442465
1145 0.007138071043627332 0.002171268191153469 -0.004424190167945046
1159 -0.028224552636455794 0.003551864591102253 -0.011479186127411601
1503 0.0007056543504571581 -0.0024009862163671936 0.00148972834885002
1124 0.00923083199443851 -0.026888113147321337 0.00427172630181495
1146 -0.004877169290815511 0.0007840909846214148 -0.0020513760700770433
1144 -0.004906275055003498 -0.00542384501099467 -0.00332777194576947
1189 -0.006115206649010374 -0.009521979756597194 0.004603097693372604
1147 0.000862302228518064 -0.009371328728024344 -0.0034051698247883435
1154 0.0003322718704322257 0.004625427288332634 -0.005045080608621078
1161 -0.006737805585390905 -0.011881787978657217 0.012936501143894516
1153 0.008759898509968082 0.003663548484716276 -0.004501663664098686
1172 0.0018668610769727759 0.007219308553496109 -0.023110740239834664
1148 -0.00620753913483761 -0.0018879231171746128 -0.005847818768057077
1160 -0.03058188346686627 0.012644300706625037 -0.004390885753579983
1125 0.002303871873769966 -0.005389072828888332 -0.014091874546169345
1111 0.00044381194216760783 0.010553904357387756 -0.004250627869056428
1096 0.012878925805033872 0.006084085321388671 0.01558184417460516
988 0.00713679824148345 0.0015947774192525035 -0.00039501276734005795
1626 0.015011568864175803 -0.003537298126462634 0.03142116096870054
1551 -0.0036767922325342574 -0.002973455695155759 0.0026455826408838586
1625 -0.0008354342738796503 -0.006003815291217781 -0.009520840222856422
1533 0.00912501333099895 -0.002113004307712044 0.003920091913571424
1552 -0.01244086192173678 0.013200977132890333 0.02485308990558142
1534 0.0008513884213925168 0.0013239411090450442 -0.011359733401225385
1000 0.0018719345472279283 -0.01849551891214104 0.00624478280682856
987 -0.0023168639729731024 -0.0011935605975923053 -0.004656753712408921
969 -0.01830875487663942 -0.006551556692435088 -0.0029343794687935075
1507 0.008717330428955174 -0.048583070014573064 -0.009705772022598378
1524 0.0038353363463188564 0.005207909288593633 -0.005687967846900858
1537 -0.014906686082052237 -0.011047947731853044 -0.0328222519916354
1017 6.245764378642994e-05 -0.021364181751159523 -0.001168369842949327
955 0.0034154556194260837 -0.0008449369478922858 0.0019688998707187958
970 -0.018683644975084308 -0.004335234622772493 0.010651582395454294
1525 0.006460930756080724 -0.00543494021941694 -0.006898032124034596
1506 -0.009781525099633011 -0.01976282980022378 0.0061234810585365
1523 -0.003050238788734861 -0.0031138129805693914 -0.00744861786356193
1553 -0.004583673070827737 0.0024162051853546815 -0.004864770656238601
989 0.005188174079134426 0.0031743980215065215 0.0015145471698878796
971 -0.01035746229468304 0.0064273651347907775 0.012167517979515258
999 0.0019072117618424609 0.007816027930217349 -0.007711277173004919
1589 -0.011031837367158273 -0.019416470802294264 0.01023526294966765
760 -0.003478867696479421 -0.002878797963829252 0.012036684519073096
1268 -0.03233198713851153 0.013622217508833771 -0.009910444286167986
1269 0.023596547065067804 -0.0007828148145413532 0.0212311091964061
1001 0.011612683302437468 0.00250520421530586 0.028630563285811268
968 0.0016160640927786768 -0.0007504915330158657 0.004882098530123739
742 0.0011667738353658412 0.002925845761773692 0.0025109661752848863
1267 -0.011067000969195367 0.0020042934263160314 -0.014387669240636895
761 0.02786814343808507 0.007415954214894435 0.018381143751091004
703 0.002287138482354277 0.00015275995252406947 0.0006494988995293552
716 0.00563434794745532 -0.005906126562579024 0.022316014226583185
704 0.005721013681507165 -0.0037537662247197263 5.6764302873943374e-05
717 0.022547629833423767 0.017912298920214186 0.005538341238646207
986 -0.00268606537060938 0.001713570512168113 -0.0265962604738398
956 0.0030806908322731272 -0.001850497746903039 -0.003795037110069812
967 0.002717804661928263 -0.00019435331917549062 0.005208467776684255
985 0.027552021924746577 -0.013686913134403296 0.0019023976385985
691 -0.007926065632905875 -0.013013736130671813 -0.013229722532743385
773 0.00750184560270298 -0.003560664593228796 -0.007693342370299328
957 -0.0017195369361066343 0.0023804735010986094 -0.007894920520501218
679 0.005132196374969905 -0.008005535876435472 -0.004579737310356648
695 0.03432166651241174 -0.00858776373821318 -0.014354454691811373
690 0.014780044427865688 -0.006738538953876399 0.007819963919026196
677 0.00021722990093417906 -0.00020809505766598773 0.0017680430989484603
689 -0.002509084566914113 -0.009886081881825154 0.03784761416603278
672 -0.007294063659897644 -0.0013637063910921876 0.0004884724105011804
681 -0.0046711933468301095 -0.004673004729995777 -0.0024776971197250884
671 0.002691629288015545 0.001039582481797448 0.0016274626408452771
680 -9.9572348627356e-06 0.00045746437687879074 0.004820610565187534
699 0.0141155837692846 0.012539969008624042 -0.017228981412373046
698 -0.012411175587684651 -0.014630575111997952 -0.007563285945561659
1458 0.010694496252548976 0.012512783623667794 -0.03038692387346822
1457 -0.008541470965655851 0.0011033770409615133 0.005346914928088566
674 -0.0010879273930703495 0.005800353930250322 -0.0021559933302399124
1447 -0.009666999702964741 0.02579225024807009 -0.017091067447217376
673 -0.00011076148445750859 0.0025759885476320907 -0.00019657281389764313
687 -0.023008351074372865 0.0020373923973936708 0.007609444833344025
675 -0.0018498346194700096 0.003415280711048959 -0.0008327816126400722
686 -0.008806450248923948 0.038233347562870085 -0.008313145717244116
1450 -0.014399672062921077 0.00908384500689202 -0.013130549534395144
1437 5.711131998133418e-05 -0.005734134284598193 0.004967986009964069
688 -0.03168563413069842 -0.04912854953925746 -0.025876195068399593
676 -0.0023814862562838482 -0.003046735971344982 -0.0024794788682573434
1396 -0.0027731272792357923 -0.008714782128238443 -0.001713238542253922
1385 0.008098885411303044 -0.012853888616511523 0.01489612464915189
1451 -0.008137790276628275 -0.005649454870532679 -0.02294515551196616
1455 0.011957187074486387 0.011176878782550474 -0.005702572052745215
1439 0.0025020928320018242 0.005745740740811261 0.0030913939474640777
1435 0.0004839651536607606 0.005194410923297557 0.003947976800223902
1448 0.006447310781074871 0.00387380331050154 -0.013148415212159686
1440 0.0033131109408651082 -0.002910983360058641 -0.005650431335192062
1436 -0.00024218592525919583 0.0010208307387983304 -0.006217975494651837
1456 0.025316031774115497 -0.012000764330961628 -0.0004662203463904331
1434 0.0035624447853856087 0.004378509768724373 -0.006846733230113651
1441 -0.0027881510089806504 0.005866797406901897 0.002357630999324953
1433 0.00616019173666249 0.0004921544789328014 0.0026459477489396395
1431 -0.00783327171493489 -0.004621875268079062 -0.0055250328069306204
1476 0.029774026553634928 -0.02743444545379399 -0.0006326525532439488
1432 -0.0025744409981447564 -0.0021427479988160264 0.007142588753901263
1474 0.01105298363276392 -0.009054473576718753 0.018939172738630532
1491 -0.0014557839350256905 -0.005748326089408354 -0.002207757744615618
1504 0.003425936744008555 0.01800349856788572 0.006123446685118726
1445 0.0010141827771690708 -0.010407571922040405 -0.0163097086509215
1505 0.007000105560717437 -0.02217059059636361 -0.014821146742244645
1521 0.008669060869289686 0.01780393827047461 -0.006268836633381685
1446 0.009882848452599244 0.0009380200076029669 -0.0007838025885894206
1452 0.02573633032124861 -0.023036941526051482 -0.04199342480561002
1536 -0.0019565538646467533 0.0029988645802096485 -0.04678122944181651
1438 -0.00376642348092264 0.005131584891764224 0.0018544731435532263
1453 0.013437986714852966 0.0025543105652596873 0.015606079694645966
1454 -0.00779541876019347 0.00817692721063215 -0.00866733760461712
1389 -0.001264542731420166 -0.009583562847316072 -0.0006090846526169063
1449 -0.012757055094735506 0.0033399411124278608 -0.0004957022608363225
1602 0.020879099587008204 0.009858000371429315 0.009708626031536884
1493 0.002434458139618648 -0.00014505771654390142 4.46489188491016e-05
1492 -0.0013787870265164635 -0.0018106504429739741 -0.0015314264617661778
1566 0.005333636363631613 0.023097185942229894 0.02321849427313975
1538 -0.0036329324231348338 -0.007249483743432667 -0.0015001653294782437
1522 -0.001080079990468764 0.003024546219391441 -0.0002666946880422306
1535 0.02260361121212541 -0.019431664598402572 0.005887788527231698
1567 0.01854471395499249 -0.010335348538925829 0.004822610405763162
1527 -0.00951683221891762 0.006019769008595069 0.0028145715279142064
1526 -0.004722623125939216 6.977732917457069e-05 -0.0008731103392758112
1584 0.014218597922650532 0.0004107011570138069 -0.011060890389527966
1565 0.00542690487273862 -0.002828310073590743 -0.0018811544233072446
1555 -0.000501122391987802 -0.005760329006242179 -0.0002769373702614053
781 0.021557376327738444 0.04445505434907984 -0.00856942720660336
1596 -0.013191396614748097 0.008164662488266914 0.010344267920965333
780 0.0024718908774334926 -0.027512861982252616 0.004398986333914502
791 0.010139282171355327 -0.02742425865639046 -0.0026207262767586337
767 -0.00047571553928332566 -0.005625911394353125 -0.0032385013230234105
1658 -0.030223384390915924 0.006476625718919994 -0.003090695922944135
694 -0.003793312022557295 -0.0245533274750294 -0.003262008317097745
692 -0.007253790674162232 -0.011627579996658593 0.0006306464244831358
693 0.02991711901883937 -0.0007824281459335463 0.01145464960225622
678 0.00299469120254708 0.0021644147883594883 -0.007824627958844182
1397 -0.009374545145403828 0.01682819264065382 0.018197384620222915
1378 -0.00027474590209302665 -0.0007523843293329052 -0.003448815338065216
1373 -0.003985592854692115 0.0001821401990261831 -0.004831599129125683
697 -0.02020178861153639 0.025508343270100802 0.031981026451161784
1657 0.00026152054459624115 0.004242544623245708 -0.005934457549402569
1443 0.01900881345425962 -0.0011390711874313894 0.00615843841765209
1387 -5.573256848578649e-05 -0.002634928518504327 -0.00704836329453862
1375 -0.003744788132902129 0.007203257991871094 -0.0006548717560136476
1556 0.006721725689602891 -0.0013814734372033914 0.0016969151347768273
1627 -0.002810804364763816 0.006051432862760994 -0.004484694178567998
1628 -0.017652365050698456 0.03742194534100016 -0.03092217425699276
437 0.02600129830077981 0.0020193365772266025 0.015924704971108327
505 -0.0025549732950999257 0.006952980964758296 0.01281896494064654
487 -0.003349193173233612 -0.0015924404875154738 0.003633386159645364
553 -0.0037664918520914858 0.01874424700625924 0.012037741992766691
504 0.004119200556632008 0.01697945301374027 0.006066081386513692
486 -0.0007082872210776127 0.001768105249590755 -0.0026706142699324687
459 -0.013102102909405909 -0.004534304057488793 0.010056685235691571
490 -0.020262650315718184 -0.014179772796203935 0.02157039715124576
477 0.00668941652220462 -0.004083181657168021 -0.0011245434306061835
479 -0.001918265470830099 0.0024767269471337896 0.0030342933300263647
480 0.00759101388723574 -0.0008385674511060374 0.002304295135198723
445 0.0047772836725808645 -0.001981490576793308 0.004032891401929637
492 -0.04367670121215876 -0.004305398679415442 -0.02650635816735597
475 0.0023834505085021124 0.00027774950526321884 -0.005728325310854276
476 0.007653221059616467 0.003393321043418144 0.0006015249047316214
478 0.0041980853508349295 -3.7583895613475536e-05 -0.008785599397341907
554 -0.0010222020768443092 0.017073549406344583 -0.0057077418132989695
496 0.002306801315305267 0.019525596130987498 0.002259726675410284
444 -0.00444769074841112 -0.003622569767215811 0.00845474299479679
457 0.002262911267149593 -0.012100410566269813 0.0009360532947512766
491 0.00963919575525763 0.02245985948033217 -0.01003066138272766
521 -0.004490843229382525 0.0017621894544050496 0.018914326537382502
488 -0.003995370955367343 0.0021123612390853857 0.02586258596411801
592 0.012348120191510407 0.011745227972195875 -0.019341474719371497
474 0.011384313210631578 0.02614796788178388 -0.018821072865476084
446 -0.003600572082580223 -0.008004091034458732 0.0021692362914966365
593 0.003633964432954518 -0.005947163412850183 -0.022797191706594975
577 0.001145497359150304 -0.0023010286073548384 -0.0024159080559233966
591 0.015938031309736422 0.01857175206240542 0.022515353491617943
456 0.002601312510605018 -0.004174058172463835 -0.009077662675003161
880 0.009461125229734907 -0.018387390441394775 -0.019693763080918254
455 0.002045307749890934 0.0013758115949015217 0.004972995851091732
575 0.0005510723627103517 0.0033538516350953484 0.00590710417623148
473 0.0031206944493041987 -0.00016865914278502218 -0.021897109227671727
589 0.019724882342301093 0.014495211074538076 -0.016461359495205732
576 -0.0010897668579976127 -0.005217915597856625 0.0036884091250931153
588 -0.006076399607316367 0.023582591106221715 -0.013375407158399502
590 0.00945152214933081 0.010981677338604681 -0.02970589990264514
462 0.04294928573357313 -0.008042989298793575 0.022096289796609363
450 -0.0028516740992639705 0.004094692241717108 -0.0018827792711622034
449 0.003500199245608044 0.001144121762481985 0.008499573338194306
578 0.004980664122983987 0.000822871461017185 -0.006405100556506475
594 0.0083808856160025 -0.007007102828379028 -0.017705061211497803
595 0.008036398650157296 -0.029487103006121725 -0.01733551433460547
596 -0.014780509064967376 0.02298533969642806 -0.01405622474414268
447 -0.0011843300044180947 -0.00540832077216605 -0.008387117530912385
448 0.0019189716921921246 -0.0021852343809094796 -0.00044484727928501846
1800 -0.010735921045620435 0.008189436637928206 -0.006900993203606342
461 -0.025106713539211647 0.024735749864012526 0.009166363185240813
489 -0.0016958217333281084 -0.006283858348167027 -0.01334137516286896
460 -0.014776069130730565 -0.017535195563188024 -0.035313859694794184
1799 -0.0040461301026358375 0.0008365765123706125 -0.003798047093867284
1680 0.016560578837146137 0.003641108632169508 0.001104389759415262
463 0.007120658951644613 0.0052065752119928276 0.02150675621025575
1357 0.011462156853316453 -0.016535122732484094 -0.0072175863958753176
1734 -0.01504662688502915 0.0026287367658181797 -0.006557045256410253
1679 0.0046415762402755014 0.004457379321388107 0.005375613975111752
1344 -0.0009655020530851944 0.0017059838096217474 0.0078090039703548495
1358 -0.017029372752312796 0.004972550721074025 0.033007814637366496
1356 0.0008000014525601451 -0.002747555723464486 0.020311681122567517
1713 -0.0030307463449559652 -0.009401561116206346 -0.011605927864835457
1714 0.008366163793123906 0.00526832361609711 -0.014116032433859517
1361 0.0020059946638715563 0.003269008914360143 -0.013287230607234888
1363 -0.0009513337897710455 0.03751034768821155 0.017277020678260452
1712 0.0011589324314526463 -0.00093020352192327 -0.0035195970977414557
1765 0.01133093395165508 -0.0073183958714727205 -0.004352065793829296
1763 -0.0012139371168076838 -0.005050472409815083 -0.0012820243661764573
1392 -0.006888150261209748 0.01800123876849855 -0.011711008906863012
1885 0.0036634300038829817 0.006770219707075256 -0.013783273165526575
1883 -0.0037752116676423426 0.0031041128258098784 -0.005547113938534673
1884 -0.005025787057303109 -0.004948134051643833 0.016165973285671032
1764 -0.0028217712795129747 0.0014842300675834037 0.004690752467890626
306 0.0010560867889395503 0.017392596586600605 -0.00015535306985712315
309 -0.023628425450735464 -0.02836501910533739 0.015275430186291936
1846 0.0026481511349543863 0.0002689321195853301 0.011949383486303762
1733 -0.007759320172718435 -0.0013371668821695257 -0.0011363986282585043
305 -0.02247035708171878 -0.03799607190403693 0.005514376141434358
290 -0.004651114574245141 -0.006716674261668009 -0.006520400193382269
1391 -0.016713946273885723 -0.00736265085628456 0.01986076345933765
1727 0.0031255952274499314 0.0024375258780922108 -0.005321392039676557
1376 0.003803502808832339 0.0034385603237454387 -0.004850023867201858
1729 -0.0053699624912880465 0.0005626116034775408 -0.005668281856476684
1697 0.005964122674730632 -0.003119646118745054 0.006155853538212003
1728 0.0008061597187805331 -0.003845698358534087 0.0002782710551642574
1390 0.016368373518026707 -0.03091313094206823 -0.01471690053215788
1694 -0.0036125674216447735 -0.003165865461695954 0.004364264066816406
1635 -0.0035969894875636905 0.00013657288336745357 -0.0009686772283752946
1696 0.011454124373257463 -0.0009655292292834378 0.00679939229617607
1776 -0.0015844161083646499 -0.002812213383545913 0.003077064034847163
503 -0.018020320309327806 0.021859726522873414 -0.039054757256972876
502 -0.00030968020790019153 -0.010552211651302788 -0.017224872347157194
501 0.0013391740297366156 0.023218015832802388 -0.007475858346522063
485 -0.0034028468694118274 0.0013152407758272222 0.005158077808874356
1775 0.0008642817105283475 0.002922803228412952 0.008816013391474753
1777 -0.0056810494410116175 0.004810420716419651 0.007123229065300771
1695 -0.01402436880311849 -0.006736336776667866 0.011196184962648285
1761 0.0022212631284219556 -0.0034471968300871197 0.01735752046655751
1685 0.004431654721637614 -0.004351560714250939 -0.0033694076853021584
498 0.015175029838953556 0.007743354268988699 -0.020278386626327728
484 0.009674626328167625 0.004267027778735108 -0.003192599405330662
1699 0.006302527299788158 -0.008030064158713808 0.0058365367710310175
1708 -0.0010827251998293823 -0.006179130278635105 0.029137671951356907
1686 -0.01989360723067985 0.009132732307585724 0.0008965564187904634
1706 -0.005817507487749213 -0.009219480525564882 -0.0008102075937052967
1760 -0.0006398058479174138 0.0038721257774219113 0.004851737574453445
1707 -0.017621565427128002 -0.014893702711086133 -0.0021142982929089416
1809 0.013214693768877454 -0.006757159974286136 -0.0030678045191523708
1698 0.012539663972174186 -0.006792883986485063 0.005010762876066434
1762 0.020558023253364827 0.015485377770778137 0.0070315251107837045
1810 -0.00023108450816856555 0.004357080270967992 -0.020946493602383764
1808 0.003519947034774834 -0.002632385794038268 -0.0017049952286525465
482 0.0008347219877189546 -0.011467935435723053 0.009557703694932557
493 -0.003852732943369607 0.00549607978061295 -0.010017830537010823
494 -0.026728833488611957 0.0002024159053882748 -0.012449070734794333
481 0.0069509141361519255 0.002971613968286183 0.014372311599534969
483 -0.0003822316751270603 -0.0012068592658249508 -0.01003764174575018
1038 -0.015190543818024952 0.010020764333540462 0.022251179470520598
1040 -0.002134214394886585 3.381756722910417e-05 0.0023494478615908184
1026 0.002540184250975202 -0.0042769978469917565 0.00017053844890098152
442 -0.00831627393474331 0.012089771442583813 -0.012288503649366197
1039 0.03074822024312177 0.022549595968784794 0.014153941931420552
424 0.008219002638690055 -0.006119097770143075 0.005956074781778048
418 0.004904191834342235 0.0015727728195167883 0.007642942207738828
425 0.00043624387800742534 0.002553126590599362 -0.00047570175781520987
417 -0.0012473764476630608 -0.005282239770557003 -0.014890157522615396
1102 0.006852570383464835 -0.012685536586618223 -0.018267090411245388
1101 -0.024471418910940002 0.006452672605333347 0.0013018481297775034
1088 -0.0033793020162823702 0.01350628358322095 -0.001899739833966877
1087 0.0034349743626935535 -0.0017409753618194642 -0.005441372748491501
432 0.0015961826244195849 -0.005094318412256644 0.0038882952927670766
430 0.01530826666403271 0.022705118825172385 0.005032494259363517
415 0.002097704287107393 0.006622767645857546 0.0011974108475106345
416 0.0031904732656994565 -0.00682094384181354 -0.0020613853923494483
1109 -0.015565561815701517 -0.021996005998108827 0.026483198373201806
1098 -0.004371260382628673 -0.012620046006452657 -0.0005983227667633129
429 0.021319380277286474 -0.006658328600289326 -0.0022829158981325765
1085 0.0037152973529747686 -0.009154209826543799 0.0037488016780446824
1091 0.005374521282519387 -0.0038242041645792707 -0.006497198210204344
1086 -0.00017544952003548307 -0.008852805253682103 0.005225021878189904
1688 0.010975746530841853 0.008501242327948131 0.009102165918983334
1104 -0.0042749258479740405 -0.00535398401328088 0.014743090264981057
1089 -0.004727690182496171 0.006980637117569327 -0.0006160250659013179
1100 0.02089996766315674 -0.011908426029158911 -0.010901995549364274
1103 0.0030901191130463614 -0.005870791068230754 -0.008714310071076209
414 -0.0016964082365237547 -0.004077374362759504 0.0002032036310175694
426 -0.017775991229842004 0.008569205520434442 0.007742034101863935
1105 0.016204506584343695 0.008029686907815534 0.013553115621189887
1099 0.012833448107090374 -0.005430362073252171 0.0032623281630563415
1687 -0.002326129411818654 -0.0011439381428308088 0.004004717914291113
1084 -0.0026656209722033413 0.0013734641414303366 -0.0016953221635318864
1840 -0.02210873339006413 -0.013900240534655344 0.001365499807428501
1649 0.0026373570035047914 -0.0014573360529639208 -0.006246196230617584
1650 -0.018334540856796193 -0.011555986726673451 -0.013810309401386285
1025 0.0003041613157066094 0.005714087360527889 0.0031554280270678046
443 0.0022695459745125926 0.018592442113936312 -0.013037615979989665
1028 -0.0005894150124363762 0.003600367371129218 0.0020637745961505655
1044 -0.009405838267353616 0.003060699834965348 0.029907405102396274
1046 0.0046229033897946204 0.018646287733033087 0.0029956382671951186
1045 0.022989681217381732 -0.024785072107500833 -0.0039814317234071524
1804 -0.00552428168864955 0.00011845614459045612 0.012132608739320002
1803 0.0014345093139769055 0.01569661697450818 -0.010802772837598661
466 -0.02115736266692834 0.017923826724992938 0.025997072548264704
465 -0.006733434594204217 0.01610604525383365 -0.020372912441354238
464 -0.023897403041489008 -0.009573476644376399 0.0048003148046872526
452 -0.003510054393840362 0.005633603921397737 -0.00018595082803424677
1816 0.0077179607827514585 0.0021258596892062935 -0.0026842421759072014
451 -0.004555550814534917 0.007713827086631185 0.002296768500720327
1814 -0.0008544933995097544 -0.004043534577941199 -0.003532007447775206
472 0.02867418063967166 -0.009188745400578036 -0.019619720182112745
454 0.0022531573578559523 0.00013070658586148256 0.00015324021105899872
470 -0.028021998189162317 -0.014567325304449335 -0.014177415524721885
428 0.003674511670818757 0.0038413497600153436 0.009822697455132031
471 0.008461429181407321 -0.0011038202348864817 -0.004583559818629343
1037 -0.0027118617385908156 0.010227152112955183 -0.003049883870883684
402 0.016249131726573447 -0.003648614642492572 0.019179923305546576
1815 -0.01238965344265395 -0.015249585485752077 -0.0061890312540853094
1655 -0.0002593256000775567 -0.0012080070431820318 -0.005408226396864864
467 -0.011861771660554772 -0.0341513063301959 -0.0009217300960434737
453 0.0012787731077912052 -0.00038098485527914515 0.004626665736411532
468 -0.005778769095774414 0.0005918558247336802 -0.022798207454445447
469 0.027694501237354854 0.03615613784874496 0.009147152597173273
1656 0.002878970323877144 0.001986146308867596 0.00960348995562779
657 0.01857631310135843 -0.00559532461494691 0.02903508839846092
663 0.007698644010177249 0.00014038658817807476 -0.010602226934173191
403 0.021115669078867378 0.02185902288059653 -0.0035363385415632083
1844 0.002544256493472926 0.0036468567395194842 -0.006498833641294669
1845 -0.004155348381275613 0.012854980316754248 -0.0015991878435612774
408 -0.016427017184000182 0.0033976676271644875 -0.009071977587383451
390 0.0036097448204902927 -0.004914005019044706 0.004708129367746609
404 0.015438208332337194 0.015382880687957769 -0.01592389024041995
410 0.0014188774288723988 0.02035657964558348 0.0019964018160069687
499 0.014877810650483578 0.004488782497893461 0.0229745495977628
1202 0.010854633212976878 0.003863886398785794 -0.0014442975860603094
1185 -0.003030846368530327 -0.006048158736211677 -0.012252164010359713
1203 0.019817027063560616 -0.029657570362001024 0.007043117068305316
1184 0.00100862828261143 -0.005440968615435993 0.0009231516955125555
1175 -0.0006201246685256606 -0.00539094035781143 -0.004572937211569485
1266 -0.01244391523516529 -0.00973463238293945 -0.012338710146170126
1247 0.005409300941650444 0.0025137014351614443 -0.005726111198314944
1246 0.004168197346208645 -0.003329785861622933 0.0037476264155447622
1264 -0.003797725534886938 -0.019255523788178512 0.015396679888265749
1253 -0.008963909586239285 0.0002797541556008013 -0.010730114889483628
1239 1.5448091394162836e-05 0.0054870420165603504 0.013542807720479581
1240 -0.0030031855046703418 -0.001176126628243987 -0.0022581465426177293
1245 -0.00024917457014350024 0.0017417362165100228 -0.007464719409442345
1262 -0.020066040150308162 0.0007759283681655747 0.012482899753637531
1241 -0.0005872618695210782 -0.003098614024098378 0.0011223799464999016
1265 0.008256462751073456 -0.009847366296845824 0.0006994916037927525
1256 0.011644453049507748 0.01318873508566296 -0.001423937763405045
1242 0.0024660869387355413 0.0015543950104536111 -0.004625017094000977
1255 0.006027074884221072 -0.00812611815451721 -0.025771954324433195
1260 -0.0032238048642286386 -0.028145933508173845 -0.007684592646191344
1257 0.019387124222507508 0.0049291893338725586 0.0023269437341454143
1243 -0.0034823089585768667 0.0013224279967702318 -0.005038861447072906
1258 0.006624079500173904 0.0026715700697867175 -0.010192920425356534
1244 0.0013116535352369753 -0.002507039596663544 0.005679828852181791
1261 -0.005106131220047528 0.011601490645625339 0.023627380230568377
500 -0.005359426377499897 -0.004304248912298563 0.037695854705142084
1254 0.014358658187899272 0.0038380127641501334 -0.012802223875603428
1259 -0.008443959176463931 -0.018363938246980367 -0.0026132884100305187
495 -0.008469886021742814 -0.016787493979956644 -0.0065006993536001634
1022 0.0015129913678631915 0.007161333111698329 0.005273055584869234
1003 0.022293476441055483 0.002950332163568389 0.014780702846553334
990 -0.0021695138097601024 -0.0008895882177072074 -0.01091965809574166
1034 0.00937504112910436 -0.025526253667386492 -0.0005234462412992249
1035 0.011288452510939006 0.02190770414071018 -0.01703890271224571
991 -0.0033240110126961722 0.0013418247295931408 0.0016441151117939576
1004 -0.037887181809843316 0.0291747305235064 -0.03253430595103439
1009 0.013135445806724343 0.01856884783567493 -0.005075605741926462
992 0.0008261587338978014 -0.002678463187759355 0.005232643595325397
1634 0.011632710836374675 0.03266523304494529 -0.003491084175824953
1108 -0.030165029695514902 0.014739437102442592 0.004908354767546914
995 -0.012713536426119198 -0.002275062013035898 0.006802682216319305
1633 -0.004111495149399021 0.0006118542908150804 0.006473256712609484
1090 -0.0025926677763756676 -0.0005109877869785035 0.005611354498111503
616 -0.0080916920865919 0.02531500451549861 -0.026463771587724786
1106 0.020125789854593047 0.0019116953776256301 0.013038078651142789
1107 0.01102140642760817 -0.015283029114265295 0.015837706086923548
1007 0.002308759449866884 -0.0015422677258389735 0.006505228438193563
993 -0.004838109526001092 -0.006122957891653798 -0.007298809235737943
994 0.008042899896958059 -0.006330268803485057 0.0014115956984094553
1839 0.008959532471733662 0.011467203676872796 -0.002173133280637945
1013 -0.0074536900245871455 -0.004742576373856509 -0.006681649599281329
997 0.01257767707575844 0.0025442890422006 0.0020636903178130024
1015 -0.0037266289689697504 0.01620158190758825 0.019183274408993763
1008 0.0020856997728021893 0.021652395337951387 -0.00859736517372162
1838 -0.004247329478808186 0.0011285775458894887 -0.00048533825986827656
1010 0.010660858171299976 -0.014426797784224288 -0.006977212116171359
996 0.003584204147777699 -0.0035742381249776163 -0.004665833357354055
1014 -0.018211001790332772 0.0021154795202744606 0.023996145443242054
602 -0.001500525616584101 -0.008611992657946054 -0.0006765837783862368
1652 -0.007845108905360335 -0.0032132904243799836 -0.022059774729666456
617 -0.005440674271090587 0.03127128265373549 0.012473801894622922
603 -0.0024884555221163364 -0.005002993937133306 -0.005985289463965525
1024 -0.0025757152063015662 -0.0067063679850374435 0.004306659641753626
1036 0.008381266125819417 0.03540432588588519 0.01811771892294028
722 -0.00633278810341597 -0.016022991445368034 -0.004067509601610398
720 0.006977374254823282 0.024821198378678026 0.019491067488666775
1651 0.005824101850743934 0.003751658402421692 0.004426277957280118
1829 -0.005361212137571329 0.0007715227538208588 -0.0007893800326531549
619 0.013914625046576274 -0.012284588658622314 0.0036386181329998964
626 -0.01571083507148473 0.015100356627056331 -0.0052381773364487665
604 0.00796069799799231 -0.0005870149888008231 0.007108658135574222
610 -0.00396433616722082 0.0025345934958180744 0.0013328205237024984
605 -0.0030385274373689606 0.0010328626912401184 -0.002958777436263257
618 -0.013327486145483803 -0.013661487973710112 0.0002265177463118215
621 0.003860425581658253 0.00402830364525504 0.008681538891908312
622 -0.008422989101113687 -0.022221938057216305 0.02104385556975213
628 -0.037987774600821506 -0.008719715557632398 0.011539261089857467
627 0.005151649443867466 -0.014090095627236811 -0.009815568468091843
609 0.003295780891605434 0.0026339214021502393 -0.0029780538240466556
606 0.005440256028052017 0.00037169236992740063 0.004154811908647401
607 -0.0013765125736189827 -0.0010949133836246744 -0.003055885429894979
629 0.01629742234236795 0.00048379640339772987 0.01041615269018708
277 -0.02289070925899463 0.007388311120405667 0.002879862371793579
620 -0.006527771819878471 -0.01366651046313343 -0.004433098036806211
1788 0.017113837747217586 0.005117856395485472 0.004574033153747149
1831 -0.0037510911776766588 -0.0037617154109920122 -0.0016376394195207874
726 0.022822287363371798 -0.009329776156076571 -0.0020168375453325756
664 -0.01816515636848137 0.025853851948261224 0.0008947250976668037
666 0.02286511383042303 -0.023729910665564836 0.004617343461053583
1830 -0.01048877793539563 0.021114128788900604 0.0016405813820616227
1632 0.0007300204716075442 -0.0001920340036351667 -0.012583881453882399
661 0.012795792951384038 0.007007706468243492 0.010249100700404636
647 -0.0021196181702505365 0.0011023803129431742 -0.0030079629029338218
665 0.01073690310267674 0.030099386936563104 0.020700326739066778
1617 0.0006688491052212147 -0.0027016086125631823 -0.0038299240081389446
644 0.0002268538636091631 0.009646591233724473 -0.006055802503229793
658 0.004776691441245154 -0.00010438187711279017 -0.024521746125794858
1704 -0.005392692777792456 -0.013766870134240512 0.002637371144065121
645 0.00416266696342189 -0.002445433631452043 0.0013909451335216466
643 -0.008257773834801285 0.0027785945590763457 -0.0057091830334772345
1717 -0.0007003068374087734 -0.010636340335180138 0.011186648975806148
656 0.00013890029494661765 -0.026171831886850194 -0.02125568386260273
1715 -0.0029520829003881373 -0.005437879890596928 -0.001280653165748579
659 -0.004649883183425164 -0.004260010695097089 -0.010709200253639587
646 -0.005179911613066654 -0.010397673307246622 -0.008640310156628634
660 -0.0016158278727919737 -0.027811365300410278 -0.007830376937151903
1192 -0.008430253271020328 0.003731243650851866 0.0029155136935996467
1878 -0.009462949960876106 0.013759239000984842 -0.022005256604399812
662 0.0013658936186857307 -0.0044127504938858576 -0.0018099163675871941
1705 0.006757139881004169 0.007857118614949504 0.009411984877907214
1191 -0.008963683579133741 -0.014223025098355655 0.006961413218673277
1618 -0.003018742729407633 0.01687959031942244 -0.0129853580358253
1703 0.002482139573849088 -0.000535635264671583 0.0023632049825196254
1631 0.0028425589135729293 0.0002109682484084787 0.0004071514823890367
1752 0.005161239675302352 0.0020480719914068145 0.004887031591143722
1898 0.0006243716771293255 0.0033574636503787884 0.0006161983721794999
1751 0.0013774852420096314 0.0018367466097350983 0.0033902763216511474
1899 -0.0012099359366092809 -0.0010654446596993392 -0.01146562331083591
1753 -0.003971437208754171 0.0009702223888897769 -0.002600824171586704
1861 0.00804454638501858 -0.0020625628740618285 -0.009017221714253768
1196 -0.011549952726905068 0.009506364868514566 0.012739904043490673
1167 -0.007461982053975697 0.01151284990971557 0.005494840459468016
1263 0.007159123117728176 0.01625335115049363 -0.0068954733889504
1200 -0.024659612314544666 0.004571546567909536 -0.013265215093905783
1179 0.00347561919313832 0.0027879681394684577 -0.003801458585962124
1190 0.015000437781505404 -0.005068479404552641 -0.017134985612175357
1177 0.0013390755567034623 0.0019506395057128213 -0.0030083266152396266
1178 0.002824624157970066 0.00852495243179502 0.0004208312076950102
1877 -0.0038342874969051447 0.004512326186761585 0.0018191870792117633
1176 0.002728721069542654 -0.0006858415767360903 -0.0005449080700591057
1151 -0.0022648278502563584 -0.0030355607307666083 -0.005210294794661608
1165 -0.0066391785728666195 0.009481262425048383 0.013942513124197961
1149 -0.008052397009239747 0.003974426391741351 -0.0024336070790227813
1171 -0.004311277732087886 -0.009549539262891257 -0.018832262616749414
1170 -0.004241943692390733 0.01057774744086638 -0.0013644350513051645
1152 -0.001572123532654695 0.0019869218666599933 -0.0030427646257868
1168 -0.03003450012634847 0.014321149014484459 0.012534063000972921
1195 -0.010524778922179939 -0.01604734033523798 0.025400880664071115
1169 -0.0003160770329391757 0.01753341181036395 0.015476750887794375
1610 0.00889629039411441 -0.014694036608636631 0.0030933333433830683
1609 -0.0023974372508434308 -0.012187303286326922 0.0037977698897155264
1193 0.013890749147930231 -1.5759943062625725e-05 -0.007263868932037975
1181 -0.00231901272340297 0.0025471762323955737 0.00017904405503566613
1180 0.0038719387057117834 -0.0018455065360512971 0.0008686498789618071
1194 -0.016926964894720217 -0.007893800246055077 0.0012789375964406202
182 -0.0018520159369377165 -0.00823676481956782 0.012425514317991443
1166 0.005687992559005432 0.022345547054446673 -0.012672319579344315
1183 -0.005403052692342818 -0.0032533582981964636 0.0026540246925642755
180 -0.00828567197943172 -0.029064019662394084 -0.0005699157411849816
166 -0.005222873868670395 0.005894219191525537 -0.01327731042858151
1199 -0.002244196247685865 -0.018272724477378544 0.00449535528573861
1201 -0.016715960291112344 0.003643801425635465 0.019540856784656287
1182 -0.002928431342825468 -0.0024347540134891346 -0.0007224697746222786
1198 0.0005988508651162131 -0.0053113979479676235 -0.016389083640504083
343 -0.017745517749683262 -0.007812615810627907 0.003945440762088278
1012 -0.0026001423974955007 0.017852593955840424 -0.001458837254941768
1083 0.0007089499230826176 -0.00024828196386576535 -0.008475006646278803
1097 -0.003360926640401563 -0.012656123142922257 -0.007749663443470763
1011 -0.0021258406257341246 0.010311861444290811 -0.017261905144857384
347 -0.01921855692409046 -0.009513353334406593 0.005237235057711485
1005 -0.00018418236110518505 0.018455433253721936 0.02637353335932864
634 0.01533342601837096 -0.019311383794723705 -0.04177460009060346
598 0.0035660597039612624 -0.009273246929097713 -0.01197864271867107
580 0.0011774644954377275 0.005116274186352019 -0.0004225699451623956
614 -0.0007949838454390696 0.0004502192367015737 -0.008175946391011824
1590 -0.018700493617395005 0.003960967871442436 -0.019944359118295903
1568 0.002359439759387085 -0.006282976296530608 0.003216247419870883
1588 -0.026253875771469416 -0.005874302225884383 -0.013102766845853707
998 -0.0022992863019421664 0.002101707121324031 -0.004732375436488315
600 0.004613674133975466 0.0010524620727230638 0.004268708924996025
615 -0.004633258338358772 -0.008356688042038532 -0.00323065495663456
583 -0.021632125880783195 -0.00639923171162015 0.018589827671397618
569 -0.0038876114330453826 0.0013430251354964147 0.0019197233068368933
1006 0.022791545422155536 0.018579503954837946 -0.0035152891285150072
1016 -0.0048067382358741965 -0.007356714449422656 0.007262012731390604
599 -0.003151531628805661 0.004443374421411229 0.0024952141167116555
539 -0.0028042783378802493 -0.011876346887840374 -0.002568751433234752
549 -0.0002597920486260347 0.005598546455224058 -2.7701652234765493e-05
567 0.013895514160237325 0.01102612528965949 -0.001127408225811959
1554 0.00591641138600747 -0.0034047759953222474 0.0006926299386096655
1569 0.006831639429313802 -0.0101767703464854 0.014503156123394707
548 0.004626454934247293 -0.0022457039884833407 0.004976438145554617
613 -0.002545691471997363 -0.006502744075989319 0.025354606223780937
568 -0.0012686071413360743 -0.0023782189280114195 -0.0024241739895704967
973 0.01249127834023202 0.0036865056990653088 0.02428056648363663
636 0.0007828165113223311 0.020379219843122322 -0.020870203226013653
570 -0.0018156730673882918 0.0019123514207953012 -0.000565439555781354
635 0.016884729667086578 0.004260476835605326 -0.0030868840783042236
601 -0.006012365171688705 -0.00046792790795859403 -0.005300518361160025
972 0.012020301488927325 -0.014046701210001868 0.004311720554331447
958 -0.0011796598340117793 -0.00338418881594855 -0.005558907967301978
966 0.0007866803595415496 -0.0006391409932540085 -0.005015993833538727
959 0.003572478788226505 0.003672109362065631 0.005334174163354102
960 -0.0017445625663436149 0.005821451149328168 -0.0021435353473265367
961 -0.0027072884617443532 -0.0083833399766387 0.007910768312368381
977 -0.029378808584073678 0.013772950363251504 0.020169366093351425
976 0.006948123069227613 -0.004595884230629697 -0.000492402006821196
963 -0.0029654173382229676 -0.0027952983864824804 -0.0012667309499696854
572 -0.0014467276547738288 -0.008146293451690727 0.001714665387443275
630 0.0008035205787749275 0.00020909821086523907 -0.025117678988945343
611 0.0019290500897648213 -0.006920524220107242 0.00555466618726817
978 0.016375774319664266 -0.02589183541271622 0.0023790653073793326
571 -0.0047305507225916706 -0.007315658479200364 0.0025972524595654555
612 -0.011036166263366889 -0.016696521597969912 0.006568768810746514
584 0.013119693795244216 -0.02978749419652901 0.009387480316936527
962 0.0006645797728553923 0.0006341879903325438 -0.0002456915491128379
982 -0.003231173163062153 0.018215354742214494 0.03562900988016569
1886 -0.0039105315216618 -0.004155601581389428 -0.00043360692556169094
696 0.014337906363413625 0.021412228914241632 -0.0041855265210202506
1716 0.0010073135910000875 -0.01142186506645111 0.005551594751871126
975 0.0014949374181917178 0.00573155240636573 0.0041017859721224105
974 -0.014650120700056907 -0.022995789272725095 -0.02092914794491287
980 0.012511494868615625 -0.015072105838707588 -0.0001207494903874577
964 0.010144262943606102 -0.005073996558398593 0.006542404476604498
965 0.009581516722427377 0.000838389623719506 0.01133185203797952
983 -0.004504599003109531 0.007472971078621711 -0.017462508317258242
981 0.009218820598162774 0.006954324211907913 0.03931311652517929
984 -0.004879671480742905 0.009740131277523127 0.015326595159911315
979 0.012325499200271112 0.00819913990644894 -0.002408017689348908
1768 -0.0062934976077139 0.012563677878279462 0.01751838281722564
1766 0.004294003509077376 0.0065696473902296815 -0.005045267596928038
1767 0.0031212923485630204 0.0034303530205358063 -0.004108926714314319
1395 0.026809431422184386 -0.005254558481197057 0.0014520964610081877
1683 0.0026940265816686646 -0.0031135073427177263 -0.007708815633366972
1394 -0.002061628208886511 0.015301336459904983 0.002175161578181297
1377 -0.0010643626741438914 0.0011653062735653174 0.002654889950687719
1684 0.004661262551860412 0.02081346482999369 0.022642577066422608
1848 -0.018327857691854743 -0.005708412344332501 -0.01314313306855511
1847 -0.0017049338904616775 -0.006122742127686769 -0.0007582369010292315
301 0.026997444119754646 -0.015546014876162553 0.0009224520968009847
1863 -0.0017381025820784018 -0.014971903700488143 0.03332360734937004
1864 -0.0024098754753335873 -0.01312347495195308 -0.005507236825041453
1862 -0.00808449147478998 -0.0013579825267461987 0.0006793089156479269
1879 0.021500054645107035 0.003358494818835754 0.0021978645570120583
1393 0.005495713895700172 0.03302906218914833 -0.01780688787315124
1849 0.00742573202299174 0.0012235189996239613 -0.020392190481615044
1773 -0.01677305592231792 0.01585850859529031 0.0005010064543270464
1774 -0.015278616241782242 0.009808701835163382 -0.005625443077465708
1772 -0.0004842651753989271 0.002798309308567407 -0.0028502665915508306
558 0.004799187704988064 -0.008854946864106887 -0.0037846875545870066
1601 0.0006754739447006362 0.00010627748639405318 0.008954534662838074
1162 -0.03183039397915314 0.026119415482535602 0.017018552430453474
557 0.003018231358076306 0.026062136851505074 -0.00479889672752034
1163 0.012963539473841526 0.04041364345886841 0.023348340564326282
1150 0.00021929080452989048 0.0033300919802265096 -0.0016767773427206164
1164 -0.0028417104446966848 -0.01760043105419361 0.027014188642635058
561 -0.0031763751610180352 0.012458043645915318 -0.013562241747935896
545 0.004386347814162113 0.010584648199674696 -0.003249267036962563
546 0.0047234814247019054 0.010948267309775979 0.0030341325112008986
560 0.006992217362150834 0.024908409569477506 -0.0111916838431627
544 0.002406903740385989 -0.002503766845893726 0.004680938410521675
562 0.002049973958895907 -0.0001815518206229867 -0.027325525484235808
183 -0.026078575753588875 0.01594778797410403 -0.008247025404534248
185 -0.023022132231350977 -0.00929386259986913 0.026809846213729338
167 0.004468777941494377 -0.0012633486768603107 0.006150757657450696
175 -0.008387861727560814 -0.007486450793426607 0.008626690387061403
184 0.008575007755169438 0.002599694600827734 -0.00559726387200724
564 0.008674335805057734 -0.021770448425236493 0.008930156507854317
563 0.002571182420563714 -0.008608379231479417 0.018615564561712924
547 0.007046667022353041 0.004422125790966866 0.0011867114661386023
1832 0.0018324691045798521 0.000626758623127187 0.002120805507131068
164 -0.0026855112169223588 0.0014249923661287453 -0.0009911097426587006
1647 -0.005115048018904255 -0.0017173125979881242 -0.0009755716379272535
542 0.0015872289467430498 -0.005413600722320786 3.6740233006786504e-05
566 0.020077838839835306 0.006366459358966128 -0.02109036213665228
1648 0.022436300423602614 -0.0010803705520191053 -0.004256439404428639
538 -0.006189077448768829 -0.001991445226961825 0.00919680703773247
540 -0.0020690481856082297 0.012150221763750376 0.006037544102680626
552 0.0016432720471490653 -0.00796125338954511 -0.032436022859626414
541 0.0019711876047532307 0.007962237061346251 0.004032910022214176
585 -0.02130427519717626 0.014890015102287527 0.0076936652835563205
597 -0.012263259041330946 0.029486445234044492 0.014574899627695443
579 0.00048767706232869174 0.0036249617939714575 -0.0037239777414575523
574 -0.005577022820204233 0.0017724105053246557 -0.005628885733535351
573 0.001816338206759068 0.002014202257946083 -0.006931877029678685
586 0.009417727227017928 -0.001072054199595536 0.012921912928482583
587 -0.01476124959041983 -0.02062604511545861 0.003442609533700886
307 -0.017896530689389945 -0.004979471627710796 -0.00288820791456971
300 0.011005904734408543 0.02084544928043857 -0.005061536266698047
287 0.005255360737925221 0.0008287997981323321 0.0024825004242773883
1624 -0.008741178990802305 0.01816722960319189 0.008611337336919905
1735 -0.0060229419989237375 0.007828707843290239 -0.002734895432206569
1623 0.003185485684439224 0.0035357811649634817 0.005762101478635276
565 0.010284308161888158 -0.00415489698157387 0.006212256319418198
1374 -0.002363732246402888 0.003274121974760583 0.0003147433894292755
1388 0.0020555089089636666 -0.0041729546694137505 -0.015880005394941936
1570 0.009456779459043333 -0.011120395350519225 -0.004110842623119849
555 -0.011693271990544861 0.023014483144722497 -0.0017678910846564398
543 0.004073951059417507 0.0016993188224724417 0.0005737023460480122
559 -0.0022281969604452685 -0.010667558699400555 0.022208642797710097
556 0.009409845470254223 -0.00734241981618673 0.003673737972335341
1834 -0.00773013863551723 -0.0005945954236978088 -0.013052917314524728
212 0.016642655484779244 0.022591445462722202 -0.004255828843573676
506 0.005154481460844801 -0.005886340986359311 -0.00029028527078543286
519 0.0055620929792080205 -0.03745876098621307 0.005712292416472943
520 -0.013074464864919056 -0.01570644419924381 0.026456505459493896
507 0.0013115167840745442 -0.0007913548537453143 0.00026688224878586585
245 0.015371482682648102 -0.0033030605974185504 -0.02156512607374183
518 -0.006714775793717523 0.0008856919230382903 -0.0051930665461666385
246 0.014666878560254502 -0.026372684763675727 0.011303344596268396
368 0.009981378210430932 -0.01997030145578303 0.02181867406650138
508 -0.003528770889922262 0.0009489545494528539 0.003692898610946515
248 0.005091417860295444 -0.02043409232339813 0.012034961985433057
229 -0.004547771005153631 -0.006022498757371121 -0.008387736952450786
247 -0.033371457150381416 0.01691257515191898 -0.006300516987759392
509 0.00808033456445075 -0.0029929793113482447 -0.0012415426665104607
230 0.006536965396560265 -0.00841368275101236 -0.004580901424205694
517 0.002655879182209574 -0.0009953054783314581 -0.004218961685920455
510 -0.004434499289859927 -0.0014917046281513076 -0.0008366957927287143
522 0.0022006318316882168 -0.00038550477997581034 0.021590492346308037
511 -0.008381337615964447 -0.0040933039133763845 -0.00817817990339479
228 -0.007025830357799247 0.005271009856540936 0.0005959847383261788
226 0.00597455555083181 0.00580544504600734 -0.0008093738068243741
535 0.0004641598499109247 0.00774667343034269 -0.0019535154928438806
239 -0.003156380200946779 0.0077470567677810605 -0.003974673016006002
512 -0.002830519058707658 -0.0024419865543632313 -0.004445348405979869
224 -0.004653670876856716 -0.0002545388536879838 -8.141221162340246e-05
225 0.00213689837179949 0.007340538696216594 -0.013483445245009017
227 -0.00529975665800364 -0.002290668078348673 -0.00572324028636705
240 -0.009480880453339627 0.038269429936982506 0.00207654165885052
525 0.01676286884413308 -0.010265021730481749 -0.005531523521312816
458 0.007017408493233263 -0.01592269412265397 -0.01997256516717464
244 -0.002150143895010663 -0.011059711128354187 -0.018837875068167923
242 -0.02383933073160683 0.017532253732922245 -0.004000364049089674
1682 0.019227130053212867 -0.0020821173188604655 0.012085563936214454
1681 -0.002486684766961391 -0.0029722620319777805 0.0009381792787952318
1912 -0.00472811108005027 0.004657544235221455 -0.011977127055030975
1910 -0.005205969209065926 0.0010639397863989796 0.0013973902029748933
1911 0.004331005319468167 -0.007099915099292537 0.009574908857892776
1801 -0.0018495530122549864 0.00286828991594379 -0.005719477492915011
849 0.02183966238308199 -0.00893863746590317 -0.0002060055677198247
847 0.01616129668810651 0.000941190340399079 -0.011263007189350367
843 0.003677754366512945 -0.009849327496045054 0.021976356908386036
841 -0.011207411501671446 -0.01203346614045991 0.02942697138530801
833 -0.008422707741215722 0.0048772628544015385 0.0004962584342107498
830 -0.002671296265977963 0.01008118578108637 -0.00708519368552241
1782 -0.005041564847579632 0.005649456885456838 0.0159347241302383
840 -0.005837061075600688 -0.013590251214355219 0.002347485077055087
828 -9.59812296101127e-05 -0.001322324691957302 -0.001707396257282569
311 -0.00863156045914107 0.013645254076175716 -0.03026783345808828
1781 -0.0019411531464421314 0.001210891421075516 0.0004205822960596703
1865 0.005083977854374812 0.0072950814248918736 -0.004727461160124408
1875 -0.00529238168203094 -0.00997343408513402 -0.006698587167674816
1874 0.007204833929613672 -0.0008295964639747569 -0.004857078956397987
308 0.014708671203250619 0.01374811648360069 5.576682575392001e-05
1876 0.015162744434750209 -0.0061895367333312966 -0.013233860033954986
1867 0.01158029839149451 0.00540455320081469 -0.007115979354581869
1659 0.0030175440232724526 0.005782095895514316 0.00039208668631554084
291 -0.005516497655764623 0.011381451539544923 -0.0016965751462613282
310 0.000533787680986045 0.014710390264145843 0.0036839673298394663
1660 -0.004725087491968176 -0.010942534218105369 -0.00441269612685909
1737 -0.005175544648448883 0.0013965194145404297 -0.002719344788097149
1759 0.0040509483072329825 0.006868305819137574 -0.00725987746370502
1757 -0.007058958211419457 0.003710733324761797 -0.0069593865202971965
1758 0.006761003460839695 0.013377447142195933 0.010394664343897584
1866 -0.004190382243961564 0.00893151338254012 0.008414298372884318
1882 0.02026761324744222 0.00374787478836922 -0.006384096325262607
1795 0.03314699172857346 -0.00044412482011598587 -0.0038185506463519992
1637 -0.003390413245186942 -0.008593314922259666 -0.004057290044170917
1418 -0.005545929579247792 -0.032089030639903315 0.0024561001479853884
1783 0.0011292653265957246 0.026702958025852368 0.021709120412471007
1881 0.023896614369740693 0.00017048509703934905 -0.014100870847149135
1880 -0.0015722251867945395 0.0041057109590034654 -0.004595063406660402
1638 0.0318003427731825 0.007242619090114241 -0.0006905975897037427
26 -0.017015070987847766 8.553175593700778e-05 0.0036332858002493173
10 0.001411084894172171 0.0013451031698816186 -0.001413934702945752
1406 -0.00034106613988692155 -0.0030373421847752088 0.004026359545429261
1420 0.014310312867715454 -0.013344259598981867 -0.029109033901071866
842 -0.002690959856585209 -0.019179381548862676 -0.006057959826789628
30 0.02444464974913993 0.013657595640945742 -0.02691755708717787
29 0.003434458016279863 -0.012361088738370957 0.03371693571732739
11 0.0050356582613216875 -0.0014861922796164347 -0.001217587446271081
8 0.001593279719305168 0.0020257752201569717 0.005323693980579929
1690 -0.020225685878770373 0.0018994489262597633 0.031514080486074944
1738 -0.002639175030113469 4.683237011069333e-05 0.002247847080619225
1736 -0.005774989048678255 0.0006404298953223395 0.0007885300476461613
24 -0.008535428836111974 0.009487390454167327 -0.020710115397285084
1689 0.006414361330670363 0.004196643003554557 0.0008849741786507422
213 0.007272010886290703 0.011463818966195012 0.008432821658763833
376 0.011315279024539621 -0.04149382136251586 0.003310423148788262
208 -0.02373419248227389 -0.028917085946043457 0.0049046978293487715
196 -0.0015798608353982415 -0.002840804731336734 -0.002515117804802862
198 -0.002573624623808281 0.0015819629539709518 -0.004576791003567713
210 0.004544429074152014 -0.00024129012899054816 -0.014481475395427212
9 -0.0022847268357923767 -0.001184547371860433 -0.006860958052614761
1779 -0.001554557790372169 -0.0031842513458361643 0.015886687906698033
532 0.0035263832117007564 -0.01705002098912305 0.004081716286619855
534 0.020182279216721607 0.0379283295016873 -0.009821670026260646
1797 0.008337340332925786 0.004202543123023993 0.0010957240488775927
214 -0.04932068626471521 0.017966318704599724 -0.012184677382432799
1778 0.0025041458309280886 -0.006710179881559927 0.00852083863765543
516 0.0016430464585096226 -0.000424285788538478 -0.003495151994964231
1419 -0.013641299619404544 -0.01625091859838924 0.0041465973555557785
1780 0.004491663501434058 -0.006501487405391224 -0.0008767973269498843
533 -0.015156152766712503 -0.01889876490647839 0.0036381395022000687
528 -0.012814809612793793 -0.020938106246369725 -0.012882649678097347
209 -0.014064810533475382 0.015878378486679723 0.0004246658024331406
197 0.0031606309873190657 -0.00027274600872487557 0.00416830439238675
372 -0.009609835199199114 -0.017722246695717536 0.00039852752160556937
369 -0.027944888252035678 0.023750594141112743 -0.006739198555112246
523 0.011556737261633383 -0.023334915633464993 0.005623830142592244
413 0.0016221690572240492 0.0037223992195923395 -0.004034210373231492
427 -0.021315841028809037 0.022192552926822574 0.01714488032196404
395 0.006656169235636846 -0.02408761029194472 0.0019003185037556078
382 0.0011800780454362678 -0.005698730474148686 0.0006977380436781297
353 0.006436747441617966 0.0037305388956072245 -0.003073135600738855
354 0.00374156497060935 -0.0004591083963453501 0.004204000728067219
363 0.007420364268930353 -0.0012221868118150623 0.0019862909265474216
381 -0.015724031667466564 0.002548043241044047 0.019807409547635428
367 -0.010980500619483967 0.015536542386210047 0.04183066617758439
352 -0.0006477955069709353 -0.0033792247099444627 0.006304374192466612
355 0.005615950414823506 0.0029662653841495035 0.0022462338362826237
366 -0.01007713095050809 -0.026124723049920397 -0.004427254336189831
364 0.0005962917392306879 0.014972219416815487 -0.02104571916885593
351 0.00016027989954968112 -0.004235141104065733 -0.008481945443765822
362 -0.0046961334694366344 0.00210961524811247 -0.0009524608082607534
380 -0.015447739944111565 0.009956027985167083 -0.0013078885334470722
356 0.005981696028794428 -0.0027487867917818896 -0.007820788312198798
365 0.00028881024304465116 0.008303332639008044 0.005873224223239086
334 0.02796227284001749 0.014665507115001948 -0.007964952264161315
321 0.002846645881395911 -0.0004435942927177875 0.005741284965388259
331 -0.00926020810811828 0.001146160387883762 0.004933181248145562
350 -0.022557837771573726 -0.012482656197715072 -0.026643795357831207
322 0.006326752894005551 0.004817572240750607 0.0032500405754668713
320 -0.002496416917243195 0.003366390870151949 -0.0028434037828006776
831 -0.0050989586808949505 0.004061456340420668 0.0019530161610086705
383 0.001351150756585609 0.0029825852549968646 0.003993719516949446
397 -0.020552503544264487 -0.003190505933935852 0.021454478839704808
396 0.008758819478512998 0.01926956743782118 0.007392912137532406
412 0.013428995551540122 0.006208464743141744 0.011128566021137043
384 0.0011383997222442217 0.0024911118802302293 -0.011236652871904552
398 0.004111026644542252 0.01825464814735006 -0.013832592317731396
385 -0.005667303310314534 0.01190108130834949 0.00220633525363734
394 -0.0020055119504017566 0.0006301907448411148 0.006189116687549082
393 -0.0006817902021431934 0.0005850272334939655 0.0019226470485888116
386 -0.010224582779385281 0.007098278371623818 0.004349425560080645
387 0.004668144156830256 0.0012445235433844672 -0.0013599837779911066
411 0.026560027337635548 0.019102065044860665 0.004584634408783451
399 -0.0164819990110188 0.00426561834959766 0.02525850432681064
848 -0.005829095868360795 0.007704006554033012 0.0035148141954595177
844 0.013165864772571437 0.017453431114489912 -0.0021148870586280453
1670 0.02216827194944703 -0.02713426822471101 -0.0010920863470240253
832 0.002326565046041112 -0.00735543672368201 -0.007161594861314891
1669 -0.005167426664160197 -0.00034313744266976806 -0.00011802879221809744
1818 0.011408065703338697 -0.008796111019293737 0.005841178660589063
1817 -0.0002909749416082063 0.0011538813632213998 -0.0022358133296094943
1785 -0.006549046575988714 0.009064878127059773 -0.0009995858532330757
1843 0.0005765768021993605 0.014574189680667718 -2.6009117593700204e-05
845 -0.033324749370361575 -0.015494651212485023 -0.0053866391731742245
388 -0.0028399734497063962 -0.005119704854489786 0.001658452376460012
400 -0.01913960406647842 0.0006740449858643536 -0.011442751867321197
401 0.008289539380635617 0.006034848706846548 0.031219517332894794
846 -0.004251126024162288 -0.012061405401183145 0.006120023204034128
1842 0.00023776369885187583 0.0055504205076850315 0.006051759818268468
1841 0.00023179670172004426 0.0027048451653378116 0.007781799799472931
27 -0.00544511258776138 -0.0024017911983321687 -0.016305148577148803
389 -0.0001339965344318564 0.002142999599054259 0.004165012922078018
392 -0.001927042545221309 0.004506210281741547 -0.0025592902042788366
409 0.006934152734382316 0.006340462416728044 -0.0033768895345189665
405 -0.008618407697762035 -0.020030351181196237 -0.014345062005462685
391 -0.008242755235335256 -0.0025821301370588024 0.004485589395118787
406 0.017331817264773508 -0.013562700417352969 -0.0311274314956781
407 0.0071997656490792586 -0.007316164382975809 0.015162906957158363
1837 -0.04015393021316717 0.0045782616715304295 0.0008591943371757642
1835 -0.005867164110833521 0.0009018578699290274 0.0003746693429410557
1836 -0.014221373550429451 0.008002694105692801 9.12401486778702e-05
25 0.008671871117511573 -0.007026277194476001 0.012420243498085213
5 -0.0009054310497515558 0.001932350083213492 0.005041612300040138
18 -0.02852998658788043 0.0028161409391822974 0.010286566823873603
19 -0.01779700352521829 -0.007052328680574833 -0.017296114182818623
360 -0.0034142735734629943 0.002905629807804851 0.00544025972741204
374 0.018619750239326827 -0.01921890637856801 -0.018073854063266396
22 0.008491306155441521 0.00018316382925448877 -0.0297513741918271
23 0.0031496907656209 -0.004583838218015331 0.027158567504780563
1796 -0.0032601345109887574 -0.002902772237880368 0.0019063304120644424
1798 -0.0182982271350712 0.004264103472217924 0.01626799267737236
1850 0.003768642804747724 -0.002288695364702236 -0.0037234032273183704
1852 -0.004369542096193877 -0.018954735446581317 -0.004406376102754263
1851 0.004580434866020058 0.005475877064964886 0.021869674308353126
1593 -0.003382664383706605 -0.004468306973271195 0.006932087050807502
1594 -0.008957288059396416 0.013395577903392932 -0.00035256964910187555
379 -0.009701922878961409 0.0036606425366630152 0.01784133936010373
361 -0.0015200800866175819 0.002898554387636311 0.003540458959482185
358 -0.005356261302587904 -0.002039993606368266 -0.0009872908309368493
377 -0.03943971684374112 0.0004022101668616445 -0.0005471886014843616
375 0.008358499014511491 -0.00848286050349278 0.012190897875561258
339 0.005780214852353819 -0.01988283564113004 -0.008258156963052586
359 0.007691600848399356 0.0028800676718816155 -0.002366989873067289
32 -0.01612055285940676 -0.024522530030962466 -0.03165421700108011
373 -0.00749839806064155 0.00669737815779238 -0.0029367518325177124
13 0.009168762519043363 -0.004061453802540795 0.00558541633980997
31 -0.014125071905539193 0.00345119929057608 -0.018790403102412142
3 0.0005018298179881869 -0.00047087183083359326 0.0009070041201989096
12 0.006475217130487683 -0.009893907508846547 0.0036878005849330193
4 0.006753072888596243 -0.0028524048149497208 -0.003517792335370199
6 -0.010372553648719474 0.0018390996140889054 0.003399954195035199
7 3.891891723371145e-05 -0.0011645187753856234 -0.010035864975555968
1724 -0.002729241592624628 0.008539894346654345 -0.0032295727524198634
1725 -0.0038318635868282392 -0.014540883353971341 -0.02143191275656251
55 -0.005296277724636076 -0.006684857009986552 -0.04115255749459845
53 -0.021664461470136245 0.0045081490476595815 -0.0011476437585285588
378 0.0006567854508235218 0.012683386288743218 -0.009985872357296165
371 -0.0032471025723653994 -0.0012119552172987328 -0.0111646402122759
349 0.0011181007953987169 0.024352866870689147 0.009122095778454848
370 -0.024431757789428344 0.0015396972504475906 -0.004090008685815801
357 -0.012177496772297684 -0.004333343578718432 0.0027066989289787646
330 -0.003944638834720157 -0.003409620692166092 8.879861440827975e-05
324 0.006444068227450992 -0.00039363256874816 0.002138743793455349
1677 0.005504717515897443 0.001243080518460507 0.0010419364483793755
348 0.02069409846765121 -0.012008543835161159 -0.029391417376942394
274 0.012947970413182604 0.023351306954213075 0.007104525142378386
259 -0.0006556617466924963 -0.005020409073992371 -0.007612981084860387
268 -0.015297283356141021 -0.004228864248932678 0.02247779218602209
273 0.0006737355415676831 0.010123222470757457 0.03150317276643738
257 -0.0003789475059215035 -0.0013972341313403696 -0.0015425643831819805
256 -0.012265264125414928 -0.0028852230639969927 -0.011587289181765513
255 -0.002454964008313584 0.00735278840059977 -0.00800724642322909
275 0.013567702322939672 0.015507416652657065 0.006381538901234592
269 0.011084487931839141 0.015256911945018662 0.004933184130778915
272 1.4883420861437708e-05 -0.005792012878390476 0.014000302636186535
258 -0.010667284626585226 0.0016155871736535843 -0.00016190923282961565
270 0.002496514448674187 -0.0075405773462506 0.0016720646755230065
1591 0.0024965010756090016 0.007052057102837639 0.006054220273100671
261 -0.008837751492548488 0.0037046931944121684 -0.002414197726822494
1592 0.008842295202993756 -0.010559622045591644 0.013909260074232302
336 -0.022672055915508357 -0.0031421514129194405 0.001222951116325888
170 8.377018693504655e-05 0.015040736679715594 -0.022980387060697764
171 0.013160873843245772 0.0033105517099007893 0.012573755456034529
279 0.016702922409666206 0.0121760709400338 -0.011030127133935346
157 -0.0005767308191610827 -0.0026252775767633303 -0.008348306961780853
337 0.0017460479163179808 -0.017936398206822867 0.018774932224205832
323 0.0055022037928907095 0.008949103382483772 0.005526916542074088
346 0.025220845601298995 0.009309552144053976 -0.008861243854256627
329 -0.007956241624400789 0.002848247342194692 0.0015913930161006115
173 0.02065373451677209 0.018073707727829333 -0.0004081860600193413
142 0.015470807382958885 -0.017267287036451643 0.022697670233484367
260 0.010134370217764595 -0.0037906817463625397 0.004158596661184678
267 -0.03120859860521884 0.011827539130578697 -0.011481921715781754
278 0.01776519180638203 -0.012118209015210015 -0.0014862831781335124
276 -0.028612915717624428 0.018070874927392757 0.025629710259321672
271 -0.008404705075500096 -0.005559923731709592 0.017572042882467293
625 0.004917674787523019 -0.03300772251463187 0.00824220677337627
608 0.002152820468959912 -0.009761160706864185 -0.0010947722907527556
623 0.015183789730051673 -0.01972947213708506 -0.013034861223844606
624 -0.014496622636677042 -0.008904549615909158 -0.02236847115866427
1868 -0.0008284795366383002 -0.005056249219784846 0.005915261458443838
1869 0.005121491471893791 -0.0072925874732539114 0.0085144842607564
1896 -0.007895028904931864 0.010063747975515807 -0.010025335013584533
1870 -0.025288675583855835 -0.005682530877413487 0.010300134060921605
1895 0.005062958806610105 0.003686007423173056 -0.008006210186221973
1897 0.012370352592015408 0.009184142213327641 -0.015593698707721182
1822 0.011744649746083687 -0.0004288345404544223 0.004021277673359153
1693 0.003622388942805889 -0.007014609509209784 -0.025906026625611943
150 -0.03679685135982662 0.008715382985470553 0.01692748375646489
149 -0.0005293818783479033 0.026876504309213112 0.0035674439704055927
254 0.00263629084768656 -0.0027155729612263545 -0.006044109956212807
1820 -0.009188733776215464 -0.004250746113980022 0.001886499874448851
1821 -0.022567763351963685 0.01584422797822143 0.005335363572824593
1691 0.007390552928066336 -9.131479261169706e-05 -0.0055198151012679384
151 0.032387566838633745 0.0005905372013891999 -0.004562511927129187
135 0.004501751701497083 0.001402637211703366 -0.003508348219832829
313 0.009003646378403405 -0.017033305574643474 -0.015843216059688123
14 0.0005095072186425574 -0.003047890995702983 0.0005617016758918262
1855 -0.005208308637111706 0.010866277694998707 0.00810856023678903
1853 -0.002394572471833446 0.0044691939873362846 -0.0014246867236563962
1892 -0.004005796568136794 -0.006219560943531279 -0.0015014529970049711
1894 0.012077666981624536 -0.009207035904129371 0.022047800823992766
1893 -0.0006192005456610052 -0.025166473701901497 -0.005423448277287232
1854 0.016193911306784558 -0.007023575474641517 -0.006463870069237869
1746 0.013554219600715484 0.008175705863343301 0.018649329663248775
1900 0.0018029787020712904 0.008701146408847747 0.0018870393484331624
315 -0.008358186200390652 -0.007837595094308567 -0.0013409219617563214
1856 0.003708974609486878 -0.003341725998244671 0.0008054039854463381
1857 0.005188714817680424 -0.01902301568485896 0.01695895739151895
1858 0.0035678619995955273 -0.018468628749009605 0.0016915389334689935
314 0.006585720864722239 -0.02018969808373905 0.0023325939752586932
1889 0.0020326184321525186 -0.00028016320689460675 0.007060107162538097
1890 0.023545058610721297 -0.007415531716061872 0.016891662427325396
1891 0.0003002725537481984 -0.006787566107948687 0.012482169395371539
1608 0.015231817961636628 -0.01076512865205628 0.008609869137715125
1607 0.004733833054656174 0.00033453326858606867 -0.001853551036844551
1902 0.002033804275777611 0.009638337332163875 -0.02947170359552767
1903 0.008142397909029013 0.00027132360873857015 0.002790251542800198
1901 -0.0012636371115305127 -0.0016963754470113606 -0.0046880599223932526
16 -0.01207035944870079 -0.025046738197968172 -0.006178834781632931
1197 -0.00068772292472444 0.03802986398792329 -0.03333491265812954
1805 0.0030347398590495015 -0.0029711765797277873 0.005739848839751839
1806 0.002198474409020832 0.005051606839551695 0.00038023193145879505
46 0.014709269721471598 0.0023923760197788356 -0.027306376589349743
15 0.00039783260795898137 0.0015389756958742358 0.0019903369119218064
1 0.004642378058792075 -0.002007040647402181 0.002970382200970448
1807 0.003211814753016988 -0.011239354805620778 0.012815224214449685
1671 -0.000269573227937161 -0.0022934058879482003 -0.00440730488224337
1672 -0.005189216668977433 0.0073543695003281005 0.011691639931529907
344 -0.0042730747681687135 0.026898201181474103 -0.008167776618334528
345 -0.011710479062804329 -0.0039684911466648385 0.006599151206340062
328 0.0024950237061266835 0.0004708289212478803 -0.008655513984525236
181 -0.011631084830885013 -0.007427227774969362 0.00973942356684397
342 0.013405712101529648 -0.009963620067616112 -0.017941923275952155
325 0.002832364297149723 0.0016181176584449976 0.004434312566961793
338 -0.0007418078814604687 -0.005289792220516321 0.0022061714738069193
17 0.000611938107099672 0.0104023023725317 0.021564930606596377
2 0.0033484344222769447 -0.007277384992574796 0.004802840410859836
78 0.001615425614481117 0.007076370983184641 -0.005996782753162735
77 0.009836188261245075 0.030443371192180622 0.008391704255390035
64 0.00864740010293319 0.003535256343227716 0.0033162480023760485
109 0.010318548835802388 -0.0073646825017238925 0.015151872407389973
108 -0.003431198430574013 0.015478100050245948 0.016324440678124715
33 -0.00014585720717655157 0.001983254760675296 0.0034744387166129316
179 0.004558258326505325 0.022043023324208297 0.019842751112157195
34 0.01126785917443263 0.0017585986266796022 2.689662368113824e-05
65 0.00883153960045226 0.0031415489781321027 0.004517255745768007
95 0.004027814369623048 -0.0012642486933157888 0.0016309243570246073
63 0.007744019577578153 -0.014780806351388662 0.012507982507571591
66 -0.0030373944656034144 0.000198312719712211 -0.0073723266190046715
326 -0.005983966634556695 0.0026865787556247956 0.0023502529596725616
327 -0.0032592677212388618 0.003655997025206944 -0.0014339667011460551
340 0.017868837365458985 -0.017442070163476837 0.007970297749967695
341 0.00780922456746436 -0.0006043267434459564 0.013679882887385112
582 0.022028431036531612 -0.002314628889041114 -0.003460749093630896
581 0.008180074522198287 -0.007520575928138453 -0.012653704859678736
232 -0.03138384572261599 0.02645916078557611 0.025993656693121026
233 0.0008482588106680407 0.0009367922505780422 0.004992784335932663
219 0.006843625236380628 0.0073599492524556295 -0.009939790130692386
202 -0.005307825295259682 0.026614764421889606 0.0018006488164657292
218 -0.01886589040152084 -0.02931317161599949 0.0028037693354215697
190 0.00029102228388212976 -0.002838750863938128 -0.016787594909511865
188 0.002867220948873505 0.0027346688962719182 -0.0036836142754490217
200 0.006448498851979581 0.0003058595307307244 -0.0033571236657831726
220 0.005817119043648721 0.006476500734492368 0.0025645709042539325
189 0.004489383472510554 0.0037064230293214384 0.001161806204045248
201 0.02409244810962715 -0.021076894858190965 -0.004432516855219054
191 -0.0034703746510728797 -0.001328587392468602 0.00906887315302836
158 0.0006465052083714749 0.005198243534187335 -0.0006006040345113821
221 -0.0012328445553340158 0.005821637256675976 -0.0007437327447003088
203 0.005275820016068861 -0.015569315069385458 0.006456942031891602
160 -0.0050258284002154645 0.000667783126701286 0.0038352746617462234
234 0.0033155030710534357 -0.013564455061803073 -0.01855075880388971
204 -0.005697757960447759 0.011309698609178477 0.02121726730671119
172 0.027568545702965814 0.006311025425348996 0.006632623230308874
199 0.007201356511596542 -0.00045757195168104846 -0.002426551595003359
159 -0.0005778929695925104 0.0027974664188484956 0.001387853662278223
192 0.009162287282285573 -0.012379778176475604 -0.0018513871528801544
222 -0.0048304418895568565 0.0020793691323967097 0.00033521381702097995
1789 -0.01860588373462659 -0.011694110927893566 0.014654363011807538
1787 0.0021759067080265367 0.006112605101072647 -0.0024731201346929444
262 0.0020743979969439323 -0.0026950120296269555 0.004884504246042989
280 0.004930196472321539 -0.017787474114831035 -0.00301559420441245
264 0.0026388847609123025 -0.00916629805246459 -0.003981488447455152
250 0.0004945920636203357 0.007570665144743195 0.00683925060253575
253 -0.003466798274285947 0.002270381495954969 -0.006377200706681771
252 0.00560719219748906 0.0008800690144073719 -0.0038611962790107
266 -0.008351512460178375 -0.01025925807303704 0.000688926486394754
1887 0.009844614923282998 0.0024592873383142717 0.007158290864259896
1888 -0.006313989788400137 0.005826583976160817 -0.01540151365405759
295 -0.00967765845960306 -0.011382349003825676 -0.0010692284978396256
283 0.006382363046081677 -0.006768063472195377 -0.00433676992018268
281 -0.0014670695458781605 -0.0012384923250158574 0.0026988282532121044
294 0.006564427840324248 0.0056173637139846355 0.022596762663818687
282 0.0083963934938097 0.002884497714274914 0.0010072025363313615
293 0.00236113392006402 0.004511058077458987 0.009378693932628052
263 0.012535171208542835 -0.00394327591126625 0.013957735260582664
251 0.0003919968494173168 0.0018076308832737469 -0.0025920168221140855
297 0.0009226948966932204 -0.0022059825681916257 -0.015562705511251074
265 0.008601535241091848 0.0137645452748307 0.006005637557025823
296 0.005116666486950431 0.0017580179220262379 -0.0032240379348623728
317 0.011205692844290151 0.022198247449620314 -0.009321265341050404
316 0.014295039334840715 -0.009241195758285614 0.02045239636717243
1747 -0.022598611461025344 -0.019919302091978137 -0.01956288742455333
1859 -0.0013038141224483533 0.0022228891408621007 -0.002450616853840703
284 0.0018170923596485815 0.0024730074998511333 0.006214648489221716
298 -0.003307532931851525 0.008374730977516934 0.007826523068754258
318 -0.01600974705112128 0.01671347903961549 -0.034176684112564915
1745 -0.0018312955330723588 -0.005115501767448571 -0.0037236427937906063
286 -3.1653683205900514e-05 -0.003846908587835639 -0.005445778229005884
285 -0.002371992117830491 -0.0037278784905890624 -0.001776435897334605
299 -0.013098761927418328 0.003965743653961798 0.02182352975107391
1860 -0.005310079058983418 0.006265288822187221 0.002718982010451888
87 -0.01406988938231025 0.011954993840300602 -0.020584373853706785
89 -0.0029331955348311403 0.03667288036267338 0.022052339450750677
84 0.01372499012835605 0.004520651178734289 -0.022815349354432378
73 -0.003571143992344551 0.0014226663580505592 0.00404086946490654
304 0.019796057297318665 0.010596872335319786 0.013516576595344443
92 -0.0036912157830557156 -0.022608016371913103 -0.013261304438644372
71 -0.0006679256475915118 -0.004968101789719445 -0.0040605584818994515
72 0.0029632296542941687 -0.00505740242661557 0.002140337628534822
74 0.0009033782460279739 -0.0035184894164205782 -0.008040410066171812
91 0.02530394173465712 0.019604127390658557 -0.01616956747254716
85 -0.024278005741733798 0.00537148683135364 0.0018290707430484259
302 -0.014554260147595725 -0.008195790249326965 0.00854976635622595
86 0.01534835481762584 -0.016613705299850894 0.0176523376817405
90 0.02443047621460384 -0.03562996785216115 0.004083519549585872
88 0.014068199979090907 -0.008160807623756886 0.011809943884100406
70 0.001076141461566791 0.002637677381204677 -0.003120155134509654
83 0.019698299858924136 0.00481019377042633 -0.007926824402748495
1833 0.0008101842564880959 0.017411354695228243 0.00836796543377547
178 -0.007427674899436129 -0.01165266419227296 0.008456537257905749
165 -0.0006156340054059833 0.006607249467869398 0.00023842921026655023
1755 -0.011903597880648455 0.001832968787413502 -0.00949906997436295
1622 -0.009346337680369894 -0.01871473167764609 -0.01763815711828253
1621 -0.006080095437144066 0.0004532932980193051 -0.009525824057810954
177 -0.013478064304177721 0.020811905424508764 -0.013199125022048367
176 0.021136779691282054 -0.026717172421265745 0.007340799510698233
163 -0.00563739717960577 -0.0006477913839123078 0.006606102794050061
206 -0.019387830827630313 0.01604117572922399 -0.005214705590756291
162 0.003329532803142889 -0.006192368588393687 -0.00376107986446312
186 0.02569894070845941 0.01075971727824877 -0.01277821313642184
168 0.0036975836073224154 -0.0008677030510730719 2.2886893853393755e-05
93 -0.024566061306114585 -0.00010711552129706799 -0.005075655777352244
1754 -0.0005078732644219084 0.009496279595696051 -0.004981249297419249
207 -0.012319530376763782 -0.013388527058986611 0.0076893054011631665
94 -0.024929390371663914 0.02408571852371925 -0.013280666818855374
75 0.006387633258325907 0.008500527922151698 0.0049961702016408744
76 0.00368321333019158 0.001949340744918702 0.0005951123993080312
69 0.0012691527224970342 0.005383537274347334 -0.0012201224935494014
194 0.0007439529320606371 0.005263959776159596 0.004292282598022131
1676 0.015451881819745708 0.012688276492343345 0.0017763628978568582
82 -0.00520221090032556 -0.01257445444868325 0.022526890717214493
1425 -0.0031792514382021683 -0.01616338684337854 0.014130716650713568
68 0.0001873357503757924 -0.0040861946847378094 0.0018200615857032808
111 0.016734031717205024 0.00891083900336836 0.01155553816463954
187 0.0073904293845595045 -0.025510245696443376 0.02043013220989977
169 -0.002532760181335775 -0.0011463257871356975 -0.0038508646899431845
174 0.019426336278164195 0.02236998630207979 -0.0071269873516792035
217 0.019202107452761866 -0.02918145563399568 0.0020349632338407773
161 0.004866709649328547 0.0029959872140318004 -0.00016355493036425005
193 -0.0012514456624984542 0.003487245014228607 0.0031860070629892287
536 0.012004085454062128 0.029533990617783067 -0.021688604955493816
551 -0.014717910995745473 -0.030254891616510664 -0.000754227743114452
550 -0.006472041468957383 -0.018769276404361164 -0.01703203895609484
537 -0.007894283854470453 4.021408436709191e-05 -0.004579321135854189
231 0.007140607814505724 0.0015976542708945713 0.0006434447266959707
292 0.009352362240985618 -0.0033488543840023916 -0.00635632730609356
249 -0.009132320441638449 -0.002466284914981496 0.024809944544666333
312 0.001084958893476031 -0.01563013165398217 -0.0056481017844800105
289 0.004262765758567927 0.004471084283499644 0.0005981793630766139
288 -0.00336129379248245 -0.001620300211130827 -0.006790849798343721
303 0.0024962620710267504 0.003868351914979423 0.0021193039317692346
1794 -0.00616598093999759 0.025386257955144684 0.013828305328728812
1793 0.0012346798882854665 0.0036372113361286046 0.0008227446483039325
215 0.010049382104827587 -0.0002204173310240543 -0.004591810478172353
1756 0.011144766290988548 -0.006189574953447624 -0.003961670454896665
195 0.003398155250656525 0.0012477947904833925 -0.0033308119889556664
216 -0.008113504900365442 0.0342875352746372 0.0021421854171972555
1675 0.002437740751150774 -0.0014345348650311805 -0.003715189550406484
1424 0.011045413446552124 -0.009438694553864917 0.019330507666087005
211 0.019954630666798583 0.01960586958129817 -0.01969457585108454
205 0.006830658269912637 0.03874799104897961 0.012101799134848561
1548 -0.025417070698558353 0.0020048306927796145 -0.005057839356140996
237 0.013437581230036117 -0.024042221381976106 -0.03731225453120199
241 0.020226645630355745 0.009514699972475716 -0.0011880861425282664
238 -0.045643298017835066 -0.005140073480279091 0.006096566730819196
900 -0.01349758286921293 0.026498614481592193 0.006505191567682149
930 0.0023171456254778102 0.01603505050097898 -0.01522749275142594
1667 0.0036396514179813906 -0.0007055692130167825 0.003243587632925648
888 0.005500158841331133 0.0059022220563436385 0.014042143256788105
886 0.005301244054348728 0.0008391603553332383 0.0016876377701208701
931 -0.003481688257724449 0.008952017897557323 -0.011511643690436463
917 -0.005492211675536592 -0.011479061685876925 -0.0061350939459109775
918 0.0038947438074897647 0.009506375162409675 -0.0054913535619743785
953 -0.017900867615192387 0.013063665133553625 0.008386889202175863
954 -0.006162789590776299 0.0011650205424510482 -0.0048987832643158265
932 -0.0015857184505050856 0.001330373118771675 0.003718594707219852
899 0.01912607590377211 0.00793787256768305 -0.006807088213020465
887 -0.006031002714819248 0.003915891540778387 -0.0030238386111506007
1668 0.01784865556641451 -0.017971707967826666 -0.008498092195446926
524 -0.0056091130199091375 0.010358551914425779 0.0073396999630678875
952 0.00730758115637561 -0.011156840639360342 -0.014343155505549366
1550 -0.03521443411657512 -0.006873798828025217 0.004866456796006399
901 0.037317299701120216 -0.00025602282704981693 -0.0071692264357641295
1546 -0.003036578895414522 -0.0013027390980701508 0.0046315817364080076
122 0.027942684234995498 -0.015319939542627151 0.011098638276169928
933 0.013744335922484547 0.0017033186206877118 -0.022377342509621482
919 0.008018248935906185 0.0031569341690724194 -0.0018897474786979194
1532 0.0032576555252824884 0.002301696980515295 -0.005046898297891633
916 0.0021326264924202494 0.02587525566193714 0.021558181809506378
243 -0.027502801624238033 -0.020232095525757932 -0.01765364745996299
902 0.0023282584449895284 -0.00213922244914811 -0.0005288626667884537
889 6.273136959325175e-05 0.0038011801550521308 0.0028575969371024725
839 0.012149006261150612 0.028691266830231807 0.011779961598937683
825 -0.004263190032689273 -0.00592810008082914 -0.0027689464324384843
827 0.004775690734247403 0.001975982734795206 0.00014747621087516334
826 0.0018127306887413402 -1.9291888234904684e-05 -0.0017885254518540757
829 0.0049818206636641224 -0.0006770690347854158 0.0014038765541089515
835 -0.0014028240353412197 -0.004536088968849498 -0.0006632847900808129
836 0.001199344576536843 -0.0022039870755341424 0.0020988123076309067
853 0.01914496533903881 -0.023124137318509975 -0.0009828524978077594
1333 -0.0195821596056818 0.012202127235552194 0.02314420918720598
1315 0.0013775756538728038 0.009640169676958675 -0.008176008198608285
854 0.009631011601383006 -0.008465698899822459 0.003932033286034446
855 -0.0008414310929281054 0.0018802386688770184 0.006417730965607261
870 -0.0067749979555332815 0.022207428939794754 -0.0042023220106630595
856 0.0021341558686324967 0.004940950566376548 -0.0030021301889454795
868 0.0006160230195517937 0.009750589711276295 -0.0021876450437960273
869 0.0015875970059583495 -0.010595269089332166 0.014374389179098486
1643 -0.0026021282275855554 -0.0018102176113358173 0.004061373334734358
1644 -0.004941544602492114 0.013795539631573291 0.008718620465519447
871 0.0017642333007623608 0.004065032253322355 -0.008573874594300248
850 0.012231263051569801 0.017283535332758174 -0.024353464150684227
857 -0.0002635238370807983 0.007950604184364742 0.00213956685648465
1332 0.007394677903225567 0.01321179186413727 -0.0206397284497049
1322 0.007519530193047249 0.00561185245329968 -0.01410779738418753
1324 0.01851959341093853 0.00652423541510012 -0.030186826844212027
1906 -0.00437024730426361 0.0026623516000968952 -0.0011576544267023175
1311 0.0030157555701806893 -0.0013615324305721118 -0.0013960263827951058
1310 0.0006025398143470564 0.0019627539169283365 -0.0014338788747805327
1323 -0.019781577391574746 -0.012078623475486782 0.010721380573307293
1417 0.008867888761546878 -0.02886879276944554 0.02716245176753538
1334 0.015892325805585344 0.001959655312796848 -0.01415964792882716
1316 0.0013793157801805975 -0.0008432071398611795 0.0035122674604030797
1317 0.0012259378003078064 0.0016481605672431275 -0.007568628564854583
1335 0.007272717371809209 0.006173594067920632 0.013375951689533474
1309 -0.001897013501869874 -0.003664463455897581 -0.000587606841868354
1307 0.0018186396255789675 0.004640346791694073 -0.012976293909288407
1308 -0.0020206685701924555 0.00022090722192670401 -0.006841598555550483
1905 -0.01189055996041382 0.008935282443323828 -0.004995410029340341
1321 0.0028537858513641716 0.007388984526774087 -0.009786460349620218
1327 -0.019613856280134744 0.002470518770050385 0.007943800217605032
1306 0.004599522352547772 0.008269206996750808 0.0005971096485701508
1312 0.0035132597044739127 -0.006504636169082561 0.0032684133489993346
1423 0.0036031750971088866 0.015124521300221506 -0.003965526716366243
1422 -0.024570476565051423 -0.0031054891659778425 -0.013366315517871505
1407 -6.77394034663037e-05 0.0016621007993610321 -0.005196864396172911
1405 -0.0025586290685919574 0.002942674000534506 -0.0002644791288467738
1313 0.004362888079167143 -0.0016843016476470022 -0.0015197646479813295
1404 -0.001887243807658453 0.0029961050642566926 -0.0019165261688381993
28 0.015029009408163709 -0.0026202941716509977 -0.013038681911690908
1349 -0.0003763031297962291 -0.008253804185188346 -0.018712255982880486
1416 -0.007999194936611597 0.0122946424161839 0.01365330098294754
1403 -0.004568459493023134 -0.007401730798065281 -0.001527568113583757
1402 0.004072352808501381 -0.00465232546358695 0.004963067282660213
1415 -0.007324586593994656 -0.0039914403869594495 -0.026154124330015936
1646 0.04451276615308705 0.009520302452758549 0.004927111113390503
526 -0.011164739208429917 0.02232780661766414 -0.007137701770824528
514 0.003084256033822655 -0.0018638074354651577 0.0003457808003705711
513 -0.005023842693975668 0.006089743405250985 -0.004620407665870971
515 0.004209196865757546 -0.003210676357945271 -0.002000360962282999
529 0.006639645451807493 -0.013628020683168648 0.009783714077519445
530 0.02460875090323742 -0.019111975216593715 0.013140380104900764
1139 0.013290790564075014 0.00788453094764457 -0.0029631973437420672
1401 0.0004944331090380592 -3.989068159755079e-05 -0.0013151515530871207
1414 -0.006368380846526679 -0.007877217379313213 0.006132873936551832
1645 0.0011782932121433322 -0.0021658046630655473 -0.013539035272105619
1121 -0.002756690165830101 0.0007698546451430344 -0.0048451241764284544
1137 0.015419885121953466 0.012543602884321037 0.004155546041212235
1400 0.009671806471752436 0.0021580851233754567 0.0009691493359489746
1409 -0.0018959647498851553 -0.008084172005244453 -0.0033504403875343554
1410 0.00542089701838931 0.0019177601904053277 -0.0014566759782027837
527 0.0009301483996253631 -0.0005711112450822641 0.031638847643493395
531 -0.00202477215540525 -0.015096611469723008 0.00561702952081256
632 -0.0050098955896789475 -0.005711209829983245 0.024604922530269937
332 0.00103641626432436 -0.0026537409027110694 0.001106475839277719
631 0.030780000019301423 0.01702175654964677 -0.014231871184358999
633 0.013232523614564787 0.013366529174709041 -0.01977685812984812
335 -0.013577182920570252 0.014828790399530367 -0.007395326911018491
319 0.004447555880146212 0.004928929852513728 0.0006813648239919265
1071 -0.021839502699364896 0.011930048542436589 -0.0034289876650187307
333 -0.014466867166202492 -0.017401697878407497 -0.007438045192519455
1075 -0.004446174371685162 -0.0026441521394365186 0.017180290457539903
948 0.004360758115304866 0.0011555636589285802 0.023680986649743052
1068 -0.005286627576022733 -0.026861051980681998 -0.024203395797627234
1055 0.004883511971803561 -0.008014877657987148 0.0019717358199299617
1067 0.014995534188587224 0.01885665144597492 0.0358796393816399
1057 0.000352223955324736 -0.00219488664664993 -0.004446071999032752
1059 0.007401487725733873 -0.0032508164425429243 -0.0030796634084483574
929 0.0016236633971967289 -0.006140250299263932 0.008067797277673889
1665 5.416451899718303e-05 0.006568745057491819 -0.005516431773568476
1666 0.00741816158325777 0.008499488286694766 -0.01867739164706332
898 0.00649826492633594 -0.005686792261653805 0.0011200400249593643
1678 -0.01699604560725912 0.005260613396724939 0.01323566739414796
1070 -0.0016368588666804595 0.01225859740141298 0.014138784284591165
1069 -0.0014894637499346078 0.0074628559306276305 0.02700642442398415
947 -0.024223737001582854 0.028374643766423308 -0.016606797414106256
928 -0.005026444191642743 0.0002877097689280662 -0.003994150289006836
851 0.004912212291411639 -0.0010984758096021269 0.008184686646633388
1654 -0.016690030238953744 0.01359689790042415 -0.011380581249114756
897 -0.001417380968413678 0.0036387075611495224 -0.009410314224605806
1653 -0.0007254861277918468 0.007734720424094299 0.004322356129769015
903 0.0011355834406425545 0.029236619694081513 0.02379932470414736
890 0.0031872781588627233 -0.008288624272155518 0.002455647625008515
891 5.328053405290314e-05 0.011595741292560304 -0.011202842614600047
905 -0.0007342912878599267 -0.005310636530503358 0.02436252748868728
892 -0.0018238823089967188 0.006953933860227641 -0.005793566994014631
1784 -5.9223639441632855e-05 -0.0019193304875153928 -0.005371413337201097
1786 0.009577244904140622 -0.015016736372805872 0.00305032279433988
1731 -0.008805668932756281 -0.011706851604922706 -0.007403595759052443
1730 -0.00943397644656706 -0.004322941186276951 -0.009103394528888599
852 -0.009701265312612499 -0.017810485165016546 -0.008766001264708943
834 0.002309216096634556 -0.010346238557111155 0.005522538305264986
1819 0.015466933145126753 0.01110672359238316 0.004158918027018409
907 -0.006522868557329453 0.017817488421119042 -0.0206230378495163
909 0.0183080885780643 0.02064427100418949 0.0007995911115051322
908 0.010511135807333793 -0.0008601121362234936 0.013335792065930068
906 0.0024446198560119144 0.02066765288939995 -0.00783272776035452
894 -0.004837472631739701 -0.0022241233965394395 0.0010691475282423332
895 -0.0021511907308994797 0.0036439526428062034 -0.0033641439901045556
893 0.0028323337881607544 0.006915594223215592 -0.006253091848986183
910 0.02396451211620335 -0.005406076525998262 -0.008509278697590146
913 -0.011275814447984903 -0.02994537355377753 -0.0019336567470657046
896 0.0016483246290273494 0.0017842156870233738 0.0025461976010916314
904 -0.015781076238196103 -0.00541668471616026 0.004780702912258801
911 0.0007645675537319265 -0.017939001681474033 -0.019782008890324138
1692 0.021786787778667348 -0.0023725329687191493 -0.002871277701624364
1616 -0.005320109843292862 -0.013085211755895084 -0.029705544586803967
912 -0.009984287723687152 -0.007513918402205496 0.014576498292462478
1904 -0.004188574955100759 0.0034546677420144952 -0.0024435223101022937
1304 0.006299654715987999 0.011207781584394979 -0.007107436746434445
1287 0.004502455207670776 0.013498678380196123 0.004047801717962476
1587 -0.016564995723804495 -0.013297107589387618 0.03596902524030195
1585 0.01912904826718909 -2.8834907047382704e-05 -0.0020641102148560974
20 -0.01185208197947143 0.013899992759772904 0.019621181323418002
1286 0.0084355521805903 -0.00021724322872124525 -0.004936871123577419
1586 -0.016697337402219427 -0.011356273079772492 -0.009039309730526163
1289 -0.00446830738866102 0.012131524676479209 -0.03123094716504808
1273 -0.002788192993731745 -0.0003999970471974644 -0.0022548135746017534
1318 0.010120629220898188 -0.0162135579967713 0.012393995990834324
1288 -0.009539341850047027 -0.007091837189340113 -0.015625042793545117
1305 -0.0049582151605514786 -0.0015876316488107663 0.005153747834394206
1274 0.0033146179605255573 -9.10926248910648e-06 0.0030059914461443966
1319 0.008210676833103845 0.005421070884942296 -0.02495347205414733
1726 0.008704055892375717 0.005852309027404342 -0.000594796988311144
21 0.021290458875090644 -0.0015305497188765292 0.006396729858792362
58 -0.0035456104768577337 -0.029646713421267984 0.016088351530698562
57 -0.005172116511237679 -0.02559993528810871 -0.0034520000992053703
41 -0.0001004448348323673 -0.005123836129919144 -0.002954223213309664
42 0.0007407551875488716 -0.0037997524201910343 0.0026059580632817724
38 0.004510487701845385 0.012794641858591712 0.007211918482457566
43 -0.0022185043541530424 0.0010321603970775252 0.006330104862292988
40 -0.0007481499683740231 0.001783245450284628 0.0025594558751221926
60 0.00456918758282452 -0.006530457980975557 0.0016077393413666827
50 0.015734706863243984 -0.022829418026012044 -0.005881321199372252
39 -0.002100405618851846 0.005542839742183197 0.0011393562171248342
56 0.0064278970235457636 0.012789009279910123 0.020009225516073526
51 0.01826569579634468 0.035387641198515306 0.017782452930118132
37 -0.0023038056153452265 0.0012826398963961209 0.00022436518441576513
61 -0.013736435157431694 0.006476171341367376 -0.002064591578700475
1227 -0.0051941158066226975 0.004882207624719582 0.00503112143640643
1131 0.01809600378624232 0.020487209903879502 0.010184540092438108
1118 0.000791324142393022 0.0008249418962484646 -0.0037840091608417324
1133 0.004769154311207707 0.016011820931292664 -0.00046586213171578476
1119 0.000734384990174084 -0.001494349296929486 -0.002477165374041008
1138 0.028828533236773635 -0.002675128032188067 -0.001318643349599459
54 0.0052886128845473284 0.011599506140543166 0.0013569003009805754
52 -0.013158323366267278 -0.0048006483732475165 0.0006489317764735688
59 -0.0028022347447462658 -0.015078486174813709 -0.011654405498003527
1130 -0.005310601985279609 0.003889309417875716 -0.014504809528993004
1128 0.013158471740983451 0.014605905015209773 -0.007220272255383387
130 -0.0017645769521614306 -0.0067956658232606396 0.0011606848825846785
143 -0.0027960326623777177 -0.0016159647023124737 -0.03043289731298328
131 -0.003203710563549862 0.00795970291407796 0.001242215896797243
137 0.006112405264127424 -0.005993446029436511 0.001123999816497161
138 0.004815743035380742 0.001734940109968399 -0.00042312261604197167
129 -0.002751965184479122 0.0016697321024264568 0.003817159054001061
1077 0.007953689756392776 -0.03459886243896306 0.020436736484162003
155 0.006507840267660742 0.03340359467684719 0.018590592256200144
128 -0.0044638180663654535 -0.001558698209121693 0.0016841613328023627
1074 0.006482451820099135 -0.02682619029936838 -0.006664998620679162
1056 0.0032218793668020874 0.0027916777636836773 0.0043080422496176345
1058 0.005839114327156856 0.007335515916341039 0.0016267412798295663
127 6.487408127871976e-05 0.004597059176601896 -0.0014952231249273633
1073 0.007088320260284754 -0.020540740556005313 0.005786755882322163
1072 -0.010299863476266937 0.032903198960514066 -0.005362828355338862
1613 -0.0020502809440166845 -0.0023006551433002093 0.003437365992017644
1076 -0.007971464443001343 0.02320349319993525 0.01409491163589273
755 0.011913194319616875 -7.702040732421291e-05 -0.0037579727796936365
756 0.0036692477275802856 -0.005634327572417106 -0.011148515905685937
754 -0.009455818135371188 -0.004249416443975436 0.02834532205265126
740 -0.002081844103576348 0.00471570843228727 0.0009507598276935038
1614 0.012568973067170973 0.035172596323580094 -0.015086837911205889
139 0.01697036191756555 0.01767374396992884 0.0018257874898744107
126 -0.001433615029517836 0.006167458233811549 0.0059690470100636755
140 0.010059994913215442 0.005460763011252656 -0.0023839347405703363
753 -0.011153791967393877 -0.0024202174918870603 0.010764963690299483
141 -0.00854177620198502 -0.006796601437329293 -0.01362664240159082
125 -0.010899063262827323 0.01234480895508242 -0.018274128309210665
738 -0.00014689577943382352 -0.005407604851388539 0.0020255953827611767
1054 0.009635847272954239 0.009621733484659493 0.0030228795391169516
759 0.011452100879308426 -0.004755791434270238 -0.0029257632006397995
1066 -0.007391859860608174 0.016602622918038386 -0.013865596466342327
1740 0.015210538203064826 -0.013821358943976328 0.020438946324283957
1732 -0.005924853374017673 0.023825883252219526 0.021985415003506426
1719 0.00014084500550138514 -0.007552729681880703 -0.0030551222004559305
144 0.004645537480272499 0.030314213493056283 0.03247459157640616
132 0.006072586098857822 -0.0017400082433572293 -0.005771346055803793
145 -0.02526419479894782 -0.01005209317622827 0.0015528341492726764
1718 0.002873650846550024 -0.004112407040033501 -0.0062086544491806485
1720 -0.014178939701051765 0.0069012258884159 -0.004502950738122962
147 0.015205825348355443 0.0348542032904547 0.016791096558161734
133 0.0034285462348043103 0.0032819042212721937 -2.6994379912194127e-05
148 -0.021850335500101337 0.0007752587550256657 0.007637755888424535
153 0.012438661823121708 -0.011652565214941403 -0.013928412322738181
134 -0.006087631720183555 -0.0009046325151647663 -0.0035778940184671426
136 -0.00402947120201874 0.003211157557731617 0.00021415867985141889
154 0.01721376720346925 -0.01494729530772652 -0.00719517838976274
152 0.008062844603662783 -0.01765717660452154 -0.017528775654113305
1741 -0.011505545145103836 0.018581859184404793 -0.004965422334431568
146 0.04079455735022555 0.012781418265217387 0.006199862477342431
1914 -0.002623579198362697 -0.005633073638690774 -0.0007905011298853063
747 0.020149976892489443 0.008662694412134781 0.004552953550840599
1913 0.0011868835473421641 0.0008786880818774448 -0.008893292395196636
744 0.00544627361008023 0.0025534107984210392 0.0062819443021436515
1739 -0.001453525549927848 0.0034801872673137233 -0.0024165584856525348
758 0.0019162579590676447 -0.012300142725724533 0.014164136296502873
735 0.0009499992171945558 0.0059268397036791485 -0.008904859664848686
748 -0.0018307306889721333 0.024433690208082115 -0.016286896981443415
734 0.00517110705695221 0.004610990151617194 -0.0028525428135234665
1915 0.01672604846792185 -0.008456199669545384 -0.0022363589876600895
1711 0.0006391013472040492 -0.001149384298704501 -0.009689397772167815
1709 0.0030401938632812534 -0.0021975676806845414 -0.010746486795156608
1710 0.00316846058026272 -0.011731954249189257 -0.01477836935640886
1485 0.006484993955643007 0.023051093562008497 0.0002217841557887102
1483 -0.008829105647470338 -0.01431107450077787 -0.008119309462551688
949 -0.03763852168452896 0.009536126939812884 -0.002154744534265687
951 -0.007155098169444764 0.0014186925734392506 -0.020505104554564658
1232 0.00801010712401183 0.008401342661516983 0.008260582425461498
1223 -0.01362401601673925 0.00960305704912675 -0.014297504793497725
650 -0.005838272096595899 0.0010461717822914942 0.004600724799196957
950 0.013726585783460934 0.0062751775043368326 0.004985785158071616
44 -0.003322681353896525 -0.0005781727532843117 0.0004041094776689672
47 0.013470238320970386 0.001419246064490811 -0.01805726579774017
1228 -0.00829292553763825 -0.0036951756727687597 -0.00526630835992622
1479 -0.010681953092201121 0.015373353374686623 -0.0022116710718250504
80 -0.019790685613269864 0.0028359963534141074 -0.014150446852332917
1619 0.0033125620222755974 -0.0033776549139024918 -0.0045029809046010704
1478 -0.012171166035893575 0.003079412286170345 -0.025381486255025277
49 -0.0011978235789152402 -0.0179957084755234 -0.023764746837328023
1620 -0.014953255502683498 -0.00107691076518399 0.004970125751177234
48 0.014730797160587573 0.01946214080002915 0.012598185715727206
36 -0.001323234554890703 -0.00020303663960166926 -0.009158592990319014
35 0.005922801123243235 0.004697807887835897 -0.0012585699267284867
79 0.007013540818302293 -0.0001852346552326432 -0.002628621858161778
45 0.006999464729694737 0.0019170534021740453 0.003172741907206688
110 -0.002550084042251045 -0.030312893268870923 -0.004796096954408693
1519 0.039477117240112256 0.0004759456039981239 0.008504727728755133
1515 -0.02812323428793188 -0.0103514503833574 -0.006753267486180532
1229 0.0017331442391038527 -0.026416535459086826 -0.015357759291362273
1513 0.02958640912338056 -0.01710183105446146 -0.03213889314294996
1500 -0.0034860890319950953 0.0030526720365844596 0.005619050438275735
67 0.0022746517596405704 0.0059779987660682835 -0.0039233316427006075
1213 0.0018669291160064525 0.0015600580866326535 -0.006616671112527219
1517 -0.007272726286015949 0.006848943759886532 0.0019011337909696018
1501 0.005705587209862483 -0.013027753246126778 -0.001641115516961381
1511 0.0023924296982428947 0.006469686837114263 0.012773542641988253
1518 0.004743844408074464 0.011696264409559745 -0.023793320423506913
1499 -0.0047025231115332446 -0.002076565515656239 -0.003123810014773739
1498 0.00021710957070531937 0.004787052746371076 -0.003165170586781693
1516 -0.014347907760860548 0.0024130872324687495 0.007037452553816877
1214 0.002150440457499126 -8.873701886529446e-05 -0.0014066938796818416
1230 0.0028652113034200863 0.018351452225504813 -0.0125423702001645
62 -0.03019796780195747 0.006804956414621024 0.011553840972193809
96 0.0006500925775166753 -0.002284311326030926 -0.00364255047108256
1514 0.019717771206264025 0.014976770844622348 0.030725047991148936
235 0.010999495516678766 0.01788931578607297 -0.0005070002753355525
810 -0.012475251995840132 0.01910326100371645 0.018407882542502772
156 0.00016999949021739461 -0.000797630288961603 -0.010719581397015544
797 -0.002703215333417375 -0.008768421577462805 -0.0040191074619774685
811 -0.0063306727677175535 -0.015275906326703708 0.028895183330643486
117 0.013194505639656455 -0.038715893104766405 -0.004564680932086354
799 0.0036701358490683544 0.00041639966199558267 0.0017426332154036064
798 0.00397607753126451 -0.0030858995462758674 -0.0022474361861555383
812 0.011678371468337037 0.016126569412604 0.02216598772613073
103 -0.004750902027401818 -0.0005557576680815851 -0.0006402368368274457
115 0.02837395918114676 -0.003352068102846429 -0.010286850919686792
822 0.00844482655727522 0.004194951960206346 -0.01635077976830084
820 -0.0005266038552619543 -0.025446206155456 0.005793370469106659
804 0.0020850718323173817 0.0077201788782898005 0.003869454220464788
819 -0.024765574019487462 -0.025263972091083133 -0.001074776339993735
813 -0.01726107338412739 0.004448349946755909 -0.002887100814951484
803 -0.00944592524425375 -0.008503769873431512 -0.0030314701162687378
800 0.0019824388812604227 0.001246688283890865 0.006101482311649956
124 -0.045905670162464725 0.00675817303527445 -0.0026832081425771253
116 0.008155141271981045 0.016270978139812396 -0.007047641903359524
821 0.015421135390207862 -0.0027932642700132897 -0.0019632868765163338
801 0.004629151235467742 -0.003976545873179459 0.005269355178126889
815 0.01047941145387469 0.023962879185995035 -0.014401205669936246
1606 0.04644743366536865 0.005037332089746896 0.002511179114168873
1605 0.010859465213021169 -0.006187958649931838 -0.002114103950292659
805 0.0009253243131867978 0.0003220014150312488 0.0070394406530920155
796 0.0012008293670129047 0.0030980929077721194 0.008818536612423353
795 -0.004171527143017982 -0.003002809188514164 -0.0004654472676875774
809 0.0038378481396471225 -0.016984202323521335 0.011713614487999053
794 0.0077626327948343374 0.002469431400167397 -0.0028992867399526786
807 -0.004845698739519578 -0.0012674332900502927 -0.009437023750498078
806 -0.013890501223513062 -0.034103344122605676 -0.0073857633029526274
793 -0.001318414726952721 -0.0008451615910162037 0.0027288875329669004
775 -0.008665024609110065 0.0054469128902590504 0.029827240901732728
776 -0.024600153786551247 0.026052626066729867 0.010485151428963765
777 -0.0051534050170565044 0.01568223001404269 0.012687223480150875
762 0.0024220061698088094 0.002027727105780608 0.011432496395765832
763 -0.005302442559068995 -0.0007809297885822859 0.000678431634554773
733 -0.003210538347038519 0.0019996215775295472 -0.0031039141506795
764 0.0049203244944715195 0.0013108557093851844 -0.011510925559877538
732 -0.00981899635179972 -0.00836070169284503 0.0009836880092250046
765 -0.0021763949265276167 -0.003002348565525327 0.0015610996048556274
731 -0.0005835149593361945 -0.0038250265495899287 0.000948026209368087
1469 0.0012940476687038774 -0.002122260771426053 -0.0036441866074360283
1329 -0.0013796104339160768 -0.039325631621861146 0.0010245647592807845
778 0.03598609520855645 -0.002206109546835049 0.0004581065613258088
1722 0.030952121454233306 0.005776926716483486 -0.008512243786368869
745 -0.014188235180894411 0.019716465128754773 0.037566697381955796
1721 -0.0006047285689182492 0.0022279851344875284 0.002838670051806454
1723 0.009034987159122536 0.006312638281107638 0.013711856064272804
1792 -0.004440135136527803 0.007167620901133025 -0.009559043811548863
1790 0.0027680278671435845 -0.0001356396499334934 -0.005195182136820638
1702 0.0014335108568828568 0.0023947753991163186 -0.009940812165705503
1700 0.00594337210601735 -0.002845129772664961 -0.0006150283838676732
81 -0.014791909039038664 -0.0015494626712391096 0.010008944950162087
1701 -0.02206220079208713 0.016571544863524103 -0.01093935067780213
1641 0.00012226600719814513 -0.0010386152642226272 -0.0009251000593013544
1642 0.004813678906688976 -0.029863839923234162 0.001178876217244846
1791 0.01640584155387659 -0.010498889302175789 0.002571542013053339
1484 -0.010921931631091746 -0.008556366217609081 0.008656317929686227
1480 0.022447561355487037 0.0030525610376534976 -0.0010536150454395195
1468 0.0027489471642441455 -0.000804317191278626 -0.0036746418777351447
1467 0.003880835430035906 -0.004793378660983746 -0.004622304736360361
1488 -0.00802119698202304 -0.017850813453153883 0.009112722095532147
1470 -0.006468630072364786 0.0029581263554361407 -0.0025236392330032745
1827 0.034929614677863374 -0.0038315083266403046 -0.0071246875539850915
713 0.023755989373675165 0.008413725596247035 -0.011354786391086585
1487 -0.016421967162329163 0.009346370967674694 -0.010624544750842815
1481 0.007471447733787795 0.01858379894772861 0.023428719223598883
1426 0.008094917134939464 0.003435210472088725 0.017176435163591953
1482 -0.017345284822278494 -0.035657270048421216 0.028928030730075334
112 -0.00175946539073084 0.022447751785856087 0.018497856123727115
98 8.786243313465449e-05 0.003479200923768371 0.006783930023678663
99 -0.005281836908547364 -0.004324713789608246 0.0006135238827387604
114 0.025645004835076778 0.025630939636947955 -0.03886264803022051
1489 -0.032085526076569865 0.025873886478469266 0.0071704800815973035
1466 0.00023477615458825603 0.0076983175694493545 -0.006514510178790696
1465 0.0006337657817118848 0.0012926526014554948 0.006981209605300403
1472 0.00033883261860805254 0.002232320962828874 0.001504705974024798
1490 0.004252809534535154 -0.005186729659422088 -0.015135867767651402
1471 0.0030926343553069617 -0.00986949166418671 -0.005276354088198093
120 0.009242529119050274 -0.009833232131378144 0.021144373289914583
1473 0.016737364224858546 -0.021692972416902743 -0.0007985210489396828
1444 0.0087570460104443 -0.009166683148579173 -0.018004671068387712
97 -0.005403180412433731 0.013729889043041421 -0.003193776928275427
100 0.0019096369519588645 -0.0014840222696697394 -0.00962579166475759
101 -0.005512765581024294 -0.002672622454209169 -0.006593092807804654
113 0.012804679215186063 -0.01300634202741696 0.0019095503678419321
119 0.0007239256575606671 -0.015139544664488141 0.008456677073874824
107 0.0028360696224256103 0.0018042804114312468 -0.0007077444865885613
106 -0.004153089989985733 -0.006141626573221405 -0.00022529239766220114
102 -0.0024515237614470384 -0.004673439429120202 0.0063743438690810755
104 -0.0006995264049032761 0.003889346132857732 0.0029984284394842056
236 -0.00023401899362747986 0.014526599403687286 -0.007629329776833711
223 0.002233808799921971 -0.004046016785670071 0.0008373136696470991
1543 -0.0057224099144738815 0.021239422636216396 0.030361398223113064
1544 -0.014915129536754508 0.01498913033029024 0.009360524438038134
1530 -0.005123168952693233 -0.0006470879375961358 -0.001067947191434297
808 -0.008880188469077772 -0.007028686990211611 0.018247707014236822
838 0.0238715789994738 0.004375669210607234 -0.011501451238994391
823 -0.022610538564797823 -0.007026138564192408 -0.0004241158314473283
824 0.0002042517626276281 -0.002203119119759499 0.00424336964454243
837 0.02850993130192674 -0.021829111986005775 0.007528392972821835
1331 0.006337851340659441 0.0018798567648772018 -0.0016311630840270255
1330 -0.0182616560901005 0.01516836888372409 0.003921643873217976
1314 -0.009233704927748776 0.0023600736370607894 0.0011521992835317127
1421 -0.008229973421097892 0.00478970734696193 0.012541744025854453
1326 -0.0036529186296655335 0.02613619945072405 -0.009863683740234885
1328 -0.008524979668565707 -0.029466771034339114 0.03514173152360178
1427 -0.02632830376569557 -0.0058508059105090325 -0.0042952163672873465
1325 0.03395980327741562 0.019575177901134336 -0.014019346169681611
1408 0.00046205628664698005 0.0034303282160949703 0.00028232838981798387
1428 -0.00891397824354401 0.02018561330193796 -0.01187069690131588
1812 -0.013857262480916798 -0.0007700720486469925 0.002758136131894327
1811 -1.6672140042636431e-06 -0.004779591754758579 0.0003018932040314314
121 -0.004595986278417374 0.011348790234304303 0.017822742791073713
1813 0.02372472007695789 0.0005674599427455502 0.006798701093580016
1442 -0.03792294575211603 -0.0029528708289386705 -0.000743046233483039
105 -0.007696826564713725 -0.0040375708250338874 0.0013758906790066478
123 0.012251813947239672 0.006448071411393123 0.003682309073546491
118 0.0014168283356934732 0.012855231931875882 0.023601279796249104
1549 0.006417476770118287 -0.004564002967154849 0.013350025142915676
921 -0.0003894270479774388 -0.010322397592643974 -0.004239401150010425
1529 0.007760091487156881 0.0018509473684412549 0.004817114814838561
1531 0.00010370873351372367 0.004753963994124436 0.0036656355732710205
1545 -0.005219222592519416 0.004208240426659978 -0.04256403362706475
920 0.0011178726467992932 -0.010526076274140208 -0.005912207220791325
934 0.006860971789101157 -0.003124008603614638 0.03592817627213912
1547 -0.00039054576749741887 -0.026721967694718525 -0.00037496054263711745
885 0.01086845947307994 -0.030717644066271314 -0.010408564446938027
867 0.005602212551163462 -0.0006367308879721572 0.0037901024858722075
771 -0.014340106043135176 -0.0003807012241947428 0.00022227580696361615
858 0.004973343525986099 -0.002857198784301857 -0.0022794677567541752
787 -0.020296115278787462 0.02027763905590504 0.024285578049616247
785 -0.0082322250510126 -0.028414881311548432 -0.008054068926556444
1337 -0.0003250573329646079 -0.0015823010273299278 -0.00917216170855965
772 0.002138121321852634 -0.001776000435170206 0.003548963680282575
790 0.0018251521952512883 -0.004492637419618188 -0.009502622073547098
788 0.005992077398925445 -0.004313008671425649 -0.03696310789248502
1351 -0.02827773833311918 -0.0005368971362295082 0.01361880906161562
1336 -0.009834951864753137 -0.00554955107521326 0.008234353245583553
1135 -0.00852032871326522 0.02407178636980388 -0.0120262708211457
1382 -0.004990980585799851 -0.013560685248809934 -0.026800037767192406
1399 -0.006231842918999938 0.004799995362414688 0.0061429432171828885
1661 -0.0039300958028700575 0.0012616766854746059 -0.0010785095237900192
1381 -0.005050457082305321 0.016178182747987897 0.014216864886051173
1662 -0.021407212034612717 0.023017251033960608 -0.01166757400956917
922 0.003198385667134656 0.0009016059415433503 -0.001296841982492023
938 0.00047998544716616347 -0.003562302493002026 -0.003107136539914412
1078 -0.004706543678664179 -0.0008046484249364408 0.005879227599256435
1060 -0.0018569655273315436 0.006597087754377926 -0.010394294267901486
1129 -0.011196093706847553 -0.006161862712358826 -0.012268593273381485
1770 0.016298194236693667 -0.003126684202178498 -0.019926404879318894
1769 0.00022564264711266642 -0.008185068022733548 -0.0037205755963895908
915 0.0036503235462634217 0.00972712769238421 -0.006606135338897745
1615 -0.00016139156965231264 -0.0011902134971136739 0.0024428171616460996
914 0.0018215214678853169 0.004970455304616962 -0.007085239629297081
1276 0.0096824783577759 0.000527690397688431 0.0038766664305643185
1320 0.027585928983651024 0.0241648258236203 -0.010446272560855436
1285 0.0006474919585068825 -0.005476041049621211 -0.012776779419417484
1290 0.027451669922965626 0.006007298051973759 0.017955637219021613
1275 0.008180101619100972 -0.008018120012700771 -0.0036211232227656826
1120 0.004711132500003231 -0.005910157330725501 0.0016767015057851439
1132 -0.009251045600841808 0.023769862881811592 -0.005115714688672876
1350 0.0023278438956234196 -0.009032791897150273 -0.018185364644549635
1221 -0.012898824452849341 -0.005749265008618317 -0.03991145652066374
1600 -0.016191313438430225 -0.011146048274371288 0.03696932697778596
1115 -0.0003197972665534053 0.010976021907464191 -0.0014879388739762395
1117 -0.00616257587461746 -0.00623409613289644 -0.0042564558792445965
757 -0.030493349792007806 0.00859597946920859 0.006757829224200392
737 0.003869732086969352 -0.0057590931835463065 0.0017268661649323905
749 0.0005933423326432988 0.02633549721380882 -0.008882873954165139
1508 -0.005868299959632375 0.019426101016980075 0.018283962463679287
741 0.0051488558051495945 0.002008260630166774 -0.004363953319717873
739 -0.0009642083541156553 0.0057121717173839 0.005042671925769461
752 0.0008769852045141371 0.014113493483435774 -0.00568047511774131
1053 -0.004236397419724917 -0.0018162155861189083 0.00254634649635641
736 0.0073908495597161195 -0.0013906518639629198 2.2911150776765098e-05
1749 -0.012317657784749591 -0.004937537744364511 0.005388480476644951
1742 -0.0029349968857316296 0.002652347569383852 0.0017137349438365972
730 0.001877871073022674 0.00879889069943496 -0.011930156983159124
1743 0.0009934163888238505 -0.0049503782924517105 0.00851762256744934
652 -0.008162537523352671 0.021801063906919004 0.024871449912934947
637 0.0019532648805545274 0.0016310050052932578 0.008047565403798734
683 0.0006671081219448055 0.0023067639549850306 0.0016278866948648857
1222 -0.0028108231762837958 0.011510868654696636 -0.010835312915891732
700 0.0036644934255261104 -0.0051116703142044155 0.0020650819949888256
714 -0.014134997170610243 0.018468381636322147 0.026448687389405905
1210 0.003811895859750238 0.0006044168978238173 0.0017487174379818592
1231 0.005573967258480886 0.0062464967472772946 0.005978595980932454
1226 -0.00868384641367193 0.007655952965864516 -0.02818446564030488
1509 -0.0049935331713238966 -0.003039717537481077 -0.01785009394126442
1512 0.03222052791376815 -0.007898633974283809 0.00883206547905904
1599 -0.008271394070001308 -0.009102776702025108 0.004320075163700059
1497 0.006418944700029695 -0.0024869258678746446 -0.007313239216433603
1211 0.0035212845634848894 0.00652791647948643 -0.0011969375247564695
1495 -0.0024391826075664132 0.0012427017099415644 0.003286777918053102
1510 0.015748293431862175 0.026104545682033187 -0.0013987073573519197
817 -0.03178973905335606 -0.02269360120543289 0.017644820037873717
1603 -0.003846290826770062 -0.006305316889178635 0.005265681704741808
1542 0.01682972913963871 -0.019640061995658913 -0.003221737670897404
814 -0.004210354825324727 -0.03007695912304922 -0.0070890268437438205
816 -0.007365715592476991 -0.0214602959326391 -0.005155153590358113
802 0.001459751269627534 -0.0037318935960553978 -0.005429892225754669
818 0.00816511425190619 -0.023305369913788804 -0.01413960470474464
1604 -0.0176956705124723 -0.009016044906767278 0.007759928386094923
743 0.005126095714393862 0.010584201918791345 -0.002894172766539003
792 0.00037668424746245527 0.005258112438631002 -0.006303034547773193
774 -0.0017228885226352358 -0.005298087687449611 0.0068611777691528625
746 -0.006788037212741932 -0.03698119412633324 -0.0006944430523507832
766 0.003637041132511297 0.002037785281902738 -0.0031712547079362687
701 0.005478597213371909 -0.002929991254096921 0.0016702491182731178
715 -0.014360888708205947 0.01750935335311004 0.0006380584543463659
779 -0.001231209738882714 -0.001391037493652498 0.018920607166186636
1828 -0.0002936767697038006 0.011935726277687414 -0.024632529584541603
1486 -0.003367582828848925 0.025406134455170152 -0.008121229642574671
1826 0.00546760421783845 0.0026874647800515174 -0.001495512408085752
1477 0.01777948435500951 0.01206296384277658 -0.00016215153916896701
1463 0.007655139347215751 0.013648053707038577 5.881799881097914e-05
1460 0.007400494442914717 -0.003992806174050041 0.007017207240412895
1461 0.0009478319631509355 0.005190889987173372 0.0012362096289315542
1459 -0.007156810476360084 -0.011627082323373068 0.03015994665482498
1430 -0.0020274581741274414 -0.0029413505397681114 0.0035215786943426156
1462 0.004158854741368911 -0.0015556398226380618 4.9621649405109845e-05
1464 0.004997630237319289 -0.0013236464677179834 -0.003879648318225924
1475 -0.002712830217260525 0.00942235498258247 0.004491381075830758
1413 -0.0192360312837718 -0.024726435790105687 -0.004131319193156969
1429 -0.0009670543436539729 0.004722047184676516 0.0011072367976507139

Bonds

1 8 1639 1640
2 4 1528 1529
3 7 1528 1540
4 7 1528 1541
5 7 423 439
6 7 423 440
7 7 423 441
8 7 421 433
9 7 421 434
10 7 421 435
11 7 1563 1580
12 7 1563 1581
13 7 1563 1582
14 4 420 421
15 4 420 422
16 4 420 423
17 3 1564 1565
18 6 1564 1583
19 4 1559 1560
20 7 1559 1572
21 7 1559 1573
22 2 1558 1559
23 3 1558 1564
24 7 422 436
25 7 422 437
26 7 422 438
27 3 866 867
28 6 866 884
29 2 860 861
30 3 860 866
31 4 861 862
32 7 861 873
33 7 861 874
34 3 859 860
35 6 859 872
36 4 769 770
37 4 769 771
38 4 769 772
39 7 770 782
40 7 770 783
41 7 770 784
42 7 863 875
43 7 863 876
44 7 863 877
45 7 865 881
46 7 865 882
47 7 865 883
48 4 862 863
49 4 862 864
50 4 862 865
51 8 1595 1596
52 4 768 769
53 7 768 780
54 7 768 781
55 7 864 878
56 7 864 879
57 7 864 880
58 8 1673 1674
59 3 1339 1340
60 6 1339 1352
61 3 1338 1339
62 3 1338 1348
63 6 1348 1366
64 6 1379 1397
65 3 1340 1341
66 6 1340 1353
67 3 1347 1348
68 6 1347 1365
69 2 1341 1342
70 3 1341 1347
71 2 1372 1373
72 3 1372 1378
73 3 1371 1372
74 6 1371 1384
75 4 1342 1343
76 7 1342 1354
77 7 1342 1355
78 4 1343 1344
79 4 1343 1345
80 4 1343 1346
81 7 1345 1359
82 7 1345 1360
83 7 1345 1361
84 7 1346 1362
85 7 1346 1363
86 7 1346 1364
87 1 1367 1368
88 5 1367 1380
89 5 1367 1381
90 3 1369 1370
91 3 1369 1379
92 3 1370 1371
93 6 1370 1383
94 2 1368 1369
95 1 1368 1398
96 5 1368 1382
97 1 1398 1399
98 5 1398 1411
99 5 1398 1412
100 7 1561 1574
101 7 1561 1575
102 7 1561 1576
103 5 1250 1270
104 5 1250 1271
105 5 1250 1272
106 3 1557 1558
107 6 1557 1571
108 7 1562 1577
109 7 1562 1578
110 7 1562 1579
111 4 1560 1561
112 4 1560 1562
113 4 1560 1563
114 7 925 938
115 7 925 939
116 7 925 940
117 4 924 925
118 4 924 926
119 4 924 927
120 7 927 944
121 7 927 945
122 7 927 946
123 4 923 924
124 7 923 936
125 7 923 937
126 7 926 941
127 7 926 942
128 7 926 943
129 6 1092 1110
130 8 1611 1612
131 3 1082 1083
132 3 1082 1092
133 4 419 420
134 7 419 431
135 7 419 432
136 8 1663 1664
137 7 1283 1300
138 7 1283 1301
139 7 1283 1302
140 7 1281 1294
141 7 1281 1295
142 7 1281 1296
143 4 1279 1280
144 7 1279 1292
145 7 1279 1293
146 4 1280 1281
147 4 1280 1282
148 4 1280 1283
149 7 1027 1041
150 7 1027 1042
151 7 1027 1043
152 7 1282 1297
153 7 1282 1298
154 7 1282 1299
155 9 1823 1824
156 9 1823 1825
157 9 1802 1803
158 9 1802 1804
159 3 1284 1285
160 6 1284 1303
161 2 1278 1279
162 3 1278 1284
163 3 1277 1278
164 6 1277 1291
165 2 1209 1210
166 3 1209 1215
167 3 1215 1216
168 6 1215 1233
169 6 1216 1234
170 9 1871 1872
171 9 1871 1873
172 9 1907 1908
173 9 1907 1909
174 3 1206 1207
175 3 1206 1216
176 2 1205 1206
177 1 1205 1235
178 5 1205 1219
179 1 1204 1205
180 5 1204 1217
181 5 1204 1218
182 3 1208 1209
183 6 1208 1221
184 3 1207 1208
185 6 1207 1220
186 1 1235 1236
187 5 1235 1248
188 5 1235 1249
189 3 1113 1114
190 3 1113 1123
191 1 1142 1143
192 5 1142 1155
193 5 1142 1156
194 2 1112 1113
195 1 1112 1142
196 5 1112 1126
197 2 1236 1237
198 1 1236 1250
199 5 1236 1251
200 1 1173 1174
201 5 1173 1186
202 5 1173 1187
203 2 1174 1175
204 1 1174 1204
205 5 1174 1188
206 3 1238 1239
207 6 1238 1252
208 3 1237 1238
209 3 1237 1247
210 3 1114 1115
211 6 1114 1127
212 6 1123 1141
213 2 1116 1117
214 3 1116 1122
215 3 1122 1123
216 6 1122 1140
217 6 1061 1079
218 1 1049 1050
219 5 1049 1062
220 5 1049 1063
221 3 1051 1052
222 3 1051 1061
223 2 1050 1051
224 1 1050 1080
225 5 1050 1064
226 1 1018 1019
227 5 1018 1031
228 5 1018 1032
229 2 1019 1020
230 1 1019 1049
231 5 1019 1033
232 3 1052 1053
233 6 1052 1065
234 1 1080 1081
235 5 1080 1093
236 5 1080 1094
237 3 1020 1021
238 3 1020 1030
239 2 1081 1082
240 1 1081 1111
241 5 1081 1095
242 3 1494 1495
243 6 1494 1507
244 3 1021 1022
245 6 1021 1034
246 6 1030 1048
247 3 1029 1030
248 6 1029 1047
249 9 1748 1749
250 9 1748 1750
251 8 1597 1598
252 6 712 730
253 3 711 712
254 6 711 729
255 2 705 706
256 3 705 711
257 4 706 707
258 7 706 718
259 7 706 719
260 7 709 723
261 7 709 724
262 7 709 725
263 4 707 708
264 4 707 709
265 4 707 710
266 7 710 726
267 7 710 727
268 7 710 728
269 3 702 703
270 3 702 712
271 2 1023 1024
272 3 1023 1029
273 7 708 720
274 7 708 721
275 7 708 722
276 2 670 671
277 1 670 700
278 5 670 684
279 6 649 668
280 2 638 639
281 1 638 669
282 5 638 653
283 1 669 670
284 5 669 682
285 5 669 683
286 3 639 640
287 3 639 649
288 3 640 641
289 6 640 654
290 3 648 649
291 6 648 667
292 3 641 642
293 6 641 655
294 2 642 643
295 3 642 648
296 2 1143 1144
297 1 1143 1173
298 5 1143 1157
299 8 1629 1630
300 7 1212 1224
301 7 1212 1225
302 7 1212 1226
303 2 1496 1497
304 3 1496 1502
305 3 1502 1503
306 6 1502 1520
307 3 1145 1146
308 6 1145 1158
309 6 1503 1521
310 3 1146 1147
311 6 1146 1159
312 3 1144 1145
313 3 1144 1154
314 2 1147 1148
315 3 1147 1153
316 6 1154 1172
317 3 1153 1154
318 6 1153 1171
319 4 1148 1149
320 7 1148 1160
321 7 1148 1161
322 1 1111 1112
323 5 1111 1124
324 5 1111 1125
325 2 988 989
326 1 988 1018
327 5 988 1002
328 8 1625 1626
329 3 1533 1534
330 6 1533 1551
331 6 1534 1552
332 1 987 988
333 5 987 1000
334 5 987 1001
335 3 1524 1525
336 3 1524 1534
337 1 955 956
338 1 955 968
339 5 955 969
340 5 955 970
341 3 1525 1526
342 6 1525 1538
343 2 1523 1524
344 1 1523 1553
345 5 1523 1537
346 1 1553 1554
347 5 1553 1566
348 5 1553 1567
349 3 989 990
350 3 989 999
351 6 999 1017
352 5 968 1267
353 5 968 1268
354 5 968 1269
355 3 742 743
356 6 742 760
357 3 703 704
358 6 703 716
359 3 704 705
360 6 704 717
361 2 956 957
362 1 956 987
363 5 956 971
364 6 967 986
365 3 773 774
366 6 773 791
367 3 957 958
368 3 957 967
369 7 679 695
370 7 679 696
371 7 679 697
372 7 677 689
373 7 677 690
374 7 677 691
375 3 672 673
376 6 672 685
377 6 681 699
378 3 671 672
379 3 671 681
380 3 680 681
381 6 680 698
382 2 674 675
383 3 674 680
384 3 673 674
385 6 673 686
386 4 675 676
387 7 675 687
388 7 675 688
389 7 1437 1449
390 7 1437 1450
391 7 1437 1451
392 4 676 677
393 4 676 678
394 4 676 679
395 7 1439 1455
396 7 1439 1456
397 7 1439 1457
398 4 1435 1436
399 7 1435 1447
400 7 1435 1448
401 3 1440 1441
402 6 1440 1458
403 4 1436 1437
404 4 1436 1438
405 4 1436 1439
406 2 1434 1435
407 3 1434 1440
408 6 1441 1459
409 3 1433 1434
410 6 1433 1446
411 3 1431 1432
412 3 1431 1441
413 3 1432 1433
414 6 1432 1445
415 1 1491 1492
416 5 1491 1504
417 5 1491 1505
418 7 1438 1452
419 7 1438 1453
420 7 1438 1454
421 3 1493 1494
422 3 1493 1503
423 2 1492 1493
424 1 1492 1522
425 5 1492 1506
426 1 1522 1523
427 5 1522 1535
428 5 1522 1536
429 2 1527 1528
430 3 1527 1533
431 3 1526 1527
432 6 1526 1539
433 6 1565 1584
434 3 1555 1556
435 3 1555 1565
436 2 767 768
437 3 767 773
438 7 678 692
439 7 678 693
440 7 678 694
441 3 1378 1379
442 6 1378 1396
443 4 1373 1374
444 7 1373 1385
445 7 1373 1386
446 8 1657 1658
447 7 1375 1387
448 7 1375 1388
449 7 1375 1389
450 3 1556 1557
451 6 1556 1570
452 8 1627 1628
453 6 487 505
454 3 486 487
455 6 486 504
456 3 477 478
457 3 477 487
458 3 479 480
459 6 479 492
460 2 480 481
461 3 480 486
462 2 445 446
463 1 445 475
464 5 445 459
465 1 475 476
466 5 475 488
467 5 475 489
468 2 476 477
469 1 476 506
470 5 476 490
471 3 478 479
472 6 478 491
473 1 444 445
474 5 444 457
475 5 444 458
476 3 446 447
477 3 446 456
478 7 577 591
479 7 577 592
480 7 577 593
481 6 456 474
482 3 455 456
483 6 455 473
484 4 575 576
485 4 575 577
486 4 575 578
487 7 576 588
488 7 576 589
489 7 576 590
490 4 450 451
491 7 450 462
492 7 450 463
493 2 449 450
494 3 449 455
495 7 578 594
496 7 578 595
497 7 578 596
498 3 447 448
499 6 447 460
500 3 448 449
501 6 448 461
502 9 1799 1800
503 9 1799 1801
504 8 1679 1680
505 7 1344 1356
506 7 1344 1357
507 7 1344 1358
508 9 1712 1713
509 9 1712 1714
510 9 1763 1764
511 9 1763 1765
512 9 1883 1884
513 9 1883 1885
514 9 1733 1734
515 9 1733 1735
516 7 290 305
517 7 290 306
518 7 290 307
519 9 1727 1728
520 9 1727 1729
521 7 1376 1390
522 7 1376 1391
523 7 1376 1392
524 9 1697 1698
525 9 1697 1699
526 9 1694 1695
527 9 1694 1696
528 8 1635 1636
529 7 485 501
530 7 485 502
531 7 485 503
532 9 1775 1776
533 9 1775 1777
534 8 1685 1686
535 7 484 498
536 7 484 499
537 7 484 500
538 9 1706 1707
539 9 1706 1708
540 9 1760 1761
541 9 1760 1762
542 9 1808 1809
543 9 1808 1810
544 4 482 483
545 4 482 484
546 4 482 485
547 4 481 482
548 7 481 493
549 7 481 494
550 7 483 495
551 7 483 496
552 7 483 497
553 7 1026 1038
554 7 1026 1039
555 7 1026 1040
556 3 424 425
557 6 424 442
558 2 418 419
559 3 418 424
560 6 425 443
561 3 417 418
562 6 417 430
563 7 1088 1100
564 7 1088 1101
565 7 1088 1102
566 4 1087 1088
567 4 1087 1089
568 4 1087 1090
569 3 415 416
570 3 415 425
571 3 416 417
572 6 416 429
573 2 1085 1086
574 3 1085 1091
575 3 1091 1092
576 6 1091 1109
577 4 1086 1087
578 7 1086 1098
579 7 1086 1099
580 7 1089 1103
581 7 1089 1104
582 7 1089 1105
583 2 414 415
584 1 414 444
585 5 414 428
586 8 1687 1688
587 3 1084 1085
588 6 1084 1097
589 8 1649 1650
590 4 1025 1026
591 4 1025 1027
592 4 1025 1028
593 7 1028 1044
594 7 1028 1045
595 7 1028 1046
596 7 452 464
597 7 452 465
598 7 452 466
599 4 451 452
600 4 451 453
601 4 451 454
602 9 1814 1815
603 9 1814 1816
604 7 454 470
605 7 454 471
606 7 454 472
607 8 1655 1656
608 7 453 467
609 7 453 468
610 7 453 469
611 9 1844 1845
612 9 1844 1846
613 7 390 402
614 7 390 403
615 7 390 404
616 6 1185 1203
617 3 1184 1185
618 6 1184 1202
619 3 1175 1176
620 3 1175 1185
621 6 1247 1266
622 3 1246 1247
623 6 1246 1265
624 3 1239 1240
625 6 1239 1253
626 2 1240 1241
627 3 1240 1246
628 7 1245 1262
629 7 1245 1263
630 7 1245 1264
631 4 1241 1242
632 7 1241 1254
633 7 1241 1255
634 4 1242 1243
635 4 1242 1244
636 4 1242 1245
637 7 1243 1256
638 7 1243 1257
639 7 1243 1258
640 7 1244 1259
641 7 1244 1260
642 7 1244 1261
643 3 1022 1023
644 6 1022 1035
645 3 990 991
646 6 990 1003
647 3 991 992
648 6 991 1004
649 2 992 993
650 3 992 998
651 7 995 1007
652 7 995 1008
653 7 995 1009
654 8 1633 1634
655 7 1090 1106
656 7 1090 1107
657 7 1090 1108
658 4 993 994
659 7 993 1005
660 7 993 1006
661 4 994 995
662 4 994 996
663 4 994 997
664 7 997 1013
665 7 997 1014
666 7 997 1015
667 9 1838 1839
668 9 1838 1840
669 7 996 1010
670 7 996 1011
671 7 996 1012
672 3 602 603
673 6 602 616
674 3 603 604
675 6 603 617
676 4 1024 1025
677 7 1024 1036
678 7 1024 1037
679 8 1651 1652
680 9 1829 1830
681 9 1829 1831
682 2 604 605
683 3 604 610
684 3 610 611
685 6 610 629
686 4 605 606
687 7 605 618
688 7 605 619
689 7 609 626
690 7 609 627
691 7 609 628
692 4 606 607
693 4 606 608
694 4 606 609
695 7 607 620
696 7 607 621
697 7 607 622
698 7 647 664
699 7 647 665
700 7 647 666
701 8 1617 1618
702 4 644 645
703 4 644 646
704 4 644 647
705 7 645 658
706 7 645 659
707 7 645 660
708 4 643 644
709 7 643 656
710 7 643 657
711 9 1715 1716
712 9 1715 1717
713 7 646 661
714 7 646 662
715 7 646 663
716 9 1703 1704
717 9 1703 1705
718 8 1631 1632
719 9 1898 1899
720 9 1898 1900
721 9 1751 1752
722 9 1751 1753
723 4 1179 1180
724 7 1179 1191
725 7 1179 1192
726 3 1177 1178
727 6 1177 1190
728 2 1178 1179
729 3 1178 1184
730 9 1877 1878
731 9 1877 1879
732 3 1176 1177
733 6 1176 1189
734 7 1151 1165
735 7 1151 1166
736 7 1151 1167
737 4 1149 1150
738 4 1149 1151
739 4 1149 1152
740 7 1152 1168
741 7 1152 1169
742 7 1152 1170
743 8 1609 1610
744 7 1181 1193
745 7 1181 1194
746 7 1181 1195
747 4 1180 1181
748 4 1180 1182
749 4 1180 1183
750 7 1183 1199
751 7 1183 1200
752 7 1183 1201
753 7 166 180
754 7 166 181
755 7 166 182
756 7 1182 1196
757 7 1182 1197
758 7 1182 1198
759 3 1083 1084
760 6 1083 1096
761 6 580 598
762 5 614 634
763 5 614 635
764 5 614 636
765 5 1568 1588
766 5 1568 1589
767 5 1568 1590
768 3 998 999
769 6 998 1016
770 2 600 601
771 1 600 614
772 5 600 615
773 2 569 570
774 1 569 599
775 5 569 583
776 1 599 600
777 5 599 612
778 5 599 613
779 3 539 540
780 3 539 549
781 6 549 567
782 2 1554 1555
783 1 1554 1568
784 5 1554 1569
785 3 548 549
786 6 548 566
787 1 568 569
788 5 568 581
789 5 568 582
790 3 570 571
791 3 570 580
792 3 601 602
793 3 601 611
794 3 958 959
795 6 958 972
796 3 966 967
797 6 966 985
798 3 959 960
799 6 959 973
800 2 960 961
801 3 960 966
802 4 961 962
803 7 961 974
804 7 961 975
805 7 963 976
806 7 963 977
807 7 963 978
808 3 572 573
809 6 572 585
810 6 611 630
811 3 571 572
812 6 571 584
813 4 962 963
814 4 962 964
815 4 962 965
816 9 1886 1887
817 9 1886 1888
818 7 964 979
819 7 964 980
820 7 964 981
821 7 965 982
822 7 965 983
823 7 965 984
824 9 1766 1767
825 9 1766 1768
826 8 1683 1684
827 7 1377 1393
828 7 1377 1394
829 7 1377 1395
830 9 1847 1848
831 9 1847 1849
832 9 1862 1863
833 9 1862 1864
834 9 1772 1773
835 9 1772 1774
836 8 1601 1602
837 7 1150 1162
838 7 1150 1163
839 7 1150 1164
840 7 545 557
841 7 545 558
842 7 545 559
843 7 546 560
844 7 546 561
845 7 546 562
846 4 544 545
847 4 544 546
848 4 544 547
849 7 167 183
850 7 167 184
851 7 167 185
852 7 547 563
853 7 547 564
854 7 547 565
855 9 1832 1833
856 9 1832 1834
857 4 164 165
858 4 164 166
859 4 164 167
860 8 1647 1648
861 2 542 543
862 3 542 548
863 2 538 539
864 1 538 568
865 5 538 552
866 3 540 541
867 6 540 553
868 3 541 542
869 6 541 554
870 3 579 580
871 6 579 597
872 4 574 575
873 7 574 586
874 7 574 587
875 2 573 574
876 3 573 579
877 4 287 288
878 7 287 300
879 7 287 301
880 8 1623 1624
881 4 1374 1375
882 4 1374 1376
883 4 1374 1377
884 4 543 544
885 7 543 555
886 7 543 556
887 1 506 507
888 5 506 519
889 5 506 520
890 2 507 508
891 1 507 537
892 5 507 521
893 6 518 536
894 3 508 509
895 3 508 518
896 7 229 245
897 7 229 246
898 7 229 247
899 3 509 510
900 6 509 522
901 3 230 231
902 6 230 248
903 3 517 518
904 6 517 535
905 3 510 511
906 6 510 523
907 2 511 512
908 3 511 517
909 7 228 242
910 7 228 243
911 7 228 244
912 4 226 227
913 4 226 228
914 4 226 229
915 4 512 513
916 7 512 524
917 7 512 525
918 2 224 225
919 3 224 230
920 4 225 226
921 7 225 237
922 7 225 238
923 7 227 239
924 7 227 240
925 7 227 241
926 8 1681 1682
927 9 1910 1911
928 9 1910 1912
929 7 833 847
930 7 833 848
931 7 833 849
932 4 830 831
933 7 830 842
934 7 830 843
935 3 828 829
936 6 828 841
937 9 1781 1782
938 9 1781 1783
939 9 1865 1866
940 9 1865 1867
941 9 1874 1875
942 9 1874 1876
943 8 1659 1660
944 7 291 308
945 7 291 309
946 7 291 310
947 9 1757 1758
948 9 1757 1759
949 8 1637 1638
950 9 1880 1881
951 9 1880 1882
952 7 10 25
953 7 10 26
954 7 10 27
955 7 1406 1418
956 7 1406 1419
957 7 1406 1420
958 7 11 28
959 7 11 29
960 7 11 30
961 4 8 9
962 4 8 10
963 4 8 11
964 9 1736 1737
965 9 1736 1738
966 8 1689 1690
967 7 196 208
968 7 196 209
969 7 196 210
970 7 198 214
971 7 198 215
972 7 198 216
973 7 9 22
974 7 9 23
975 7 9 24
976 9 1778 1779
977 9 1778 1780
978 7 516 532
979 7 516 533
980 7 516 534
981 7 197 211
982 7 197 212
983 7 197 213
984 1 413 414
985 5 413 426
986 5 413 427
987 1 382 383
988 5 382 395
989 5 382 396
990 3 353 354
991 3 353 363
992 3 354 355
993 6 354 367
994 6 363 381
995 2 352 353
996 1 352 382
997 5 352 366
998 3 355 356
999 6 355 368
1000 1 351 352
1001 5 351 364
1002 5 351 365
1003 3 362 363
1004 6 362 380
1005 2 356 357
1006 3 356 362
1007 3 321 322
1008 3 321 331
1009 6 331 350
1010 3 322 323
1011 6 322 336
1012 2 320 321
1013 1 320 351
1014 5 320 335
1015 4 831 832
1016 4 831 833
1017 4 831 834
1018 2 383 384
1019 1 383 413
1020 5 383 397
1021 3 384 385
1022 3 384 394
1023 3 385 386
1024 6 385 398
1025 6 394 412
1026 3 393 394
1027 6 393 411
1028 3 386 387
1029 6 386 399
1030 2 387 388
1031 3 387 393
1032 7 832 844
1033 7 832 845
1034 7 832 846
1035 8 1669 1670
1036 9 1817 1818
1037 9 1817 1819
1038 4 388 389
1039 7 388 400
1040 7 388 401
1041 9 1841 1842
1042 9 1841 1843
1043 4 389 390
1044 4 389 391
1045 4 389 392
1046 7 392 408
1047 7 392 409
1048 7 392 410
1049 7 391 405
1050 7 391 406
1051 7 391 407
1052 9 1835 1836
1053 9 1835 1837
1054 3 5 6
1055 6 5 19
1056 7 360 374
1057 7 360 375
1058 7 360 376
1059 9 1796 1797
1060 9 1796 1798
1061 9 1850 1851
1062 9 1850 1852
1063 8 1593 1594
1064 7 361 377
1065 7 361 378
1066 7 361 379
1067 4 358 359
1068 4 358 360
1069 4 358 361
1070 7 359 371
1071 7 359 372
1072 7 359 373
1073 6 13 32
1074 3 3 4
1075 3 3 13
1076 3 12 13
1077 6 12 31
1078 3 4 5
1079 6 4 18
1080 2 6 7
1081 3 6 12
1082 4 7 8
1083 7 7 20
1084 7 7 21
1085 9 1724 1725
1086 9 1724 1726
1087 4 357 358
1088 7 357 369
1089 7 357 370
1090 3 330 331
1091 6 330 349
1092 2 324 325
1093 3 324 330
1094 8 1677 1678
1095 7 259 273
1096 7 259 274
1097 7 259 275
1098 4 257 258
1099 4 257 259
1100 4 257 260
1101 4 256 257
1102 7 256 268
1103 7 256 269
1104 2 255 256
1105 3 255 261
1106 7 258 270
1107 7 258 271
1108 7 258 272
1109 8 1591 1592
1110 3 261 262
1111 6 261 279
1112 1 157 158
1113 5 157 170
1114 5 157 171
1115 3 323 324
1116 6 323 337
1117 7 329 346
1118 7 329 347
1119 7 329 348
1120 7 260 276
1121 7 260 277
1122 7 260 278
1123 7 608 623
1124 7 608 624
1125 7 608 625
1126 9 1868 1869
1127 9 1868 1870
1128 9 1895 1896
1129 9 1895 1897
1130 3 254 255
1131 6 254 267
1132 9 1820 1821
1133 9 1820 1822
1134 9 1691 1692
1135 9 1691 1693
1136 7 135 149
1137 7 135 150
1138 7 135 151
1139 5 14 313
1140 5 14 314
1141 5 14 315
1142 9 1853 1854
1143 9 1853 1855
1144 9 1892 1893
1145 9 1892 1894
1146 9 1856 1857
1147 9 1856 1858
1148 9 1889 1890
1149 9 1889 1891
1150 8 1607 1608
1151 9 1901 1902
1152 9 1901 1903
1153 9 1805 1806
1154 9 1805 1807
1155 1 1 2
1156 1 1 14
1157 5 1 15
1158 5 1 16
1159 8 1671 1672
1160 7 328 343
1161 7 328 344
1162 7 328 345
1163 4 325 326
1164 7 325 338
1165 7 325 339
1166 2 2 3
1167 1 2 33
1168 5 2 17
1169 1 64 65
1170 5 64 77
1171 5 64 78
1172 1 33 34
1173 5 33 46
1174 5 33 47
1175 2 34 35
1176 1 34 64
1177 5 34 48
1178 2 65 66
1179 1 65 95
1180 5 65 79
1181 1 95 96
1182 5 95 108
1183 5 95 109
1184 3 66 67
1185 3 66 76
1186 4 326 327
1187 4 326 328
1188 4 326 329
1189 7 327 340
1190 7 327 341
1191 7 327 342
1192 1 219 220
1193 5 219 232
1194 5 219 233
1195 3 190 191
1196 3 190 200
1197 1 188 189
1198 5 188 201
1199 5 188 202
1200 6 200 218
1201 2 220 221
1202 1 220 250
1203 5 220 234
1204 2 189 190
1205 1 189 219
1206 5 189 203
1207 3 191 192
1208 6 191 204
1209 2 158 159
1210 1 158 188
1211 5 158 172
1212 3 221 222
1213 3 221 231
1214 3 160 161
1215 6 160 173
1216 3 199 200
1217 6 199 217
1218 3 159 160
1219 3 159 169
1220 3 192 193
1221 6 192 205
1222 3 222 223
1223 6 222 235
1224 9 1787 1788
1225 9 1787 1789
1226 6 262 280
1227 1 250 251
1228 5 250 263
1229 5 250 264
1230 3 253 254
1231 6 253 266
1232 3 252 253
1233 3 252 262
1234 3 283 284
1235 3 283 293
1236 1 281 282
1237 5 281 294
1238 5 281 295
1239 2 282 283
1240 1 282 296
1241 5 282 297
1242 6 293 312
1243 2 251 252
1244 1 251 281
1245 5 251 265
1246 5 296 316
1247 5 296 317
1248 5 296 318
1249 9 1859 1860
1250 9 1859 1861
1251 3 284 285
1252 6 284 298
1253 9 1745 1746
1254 9 1745 1747
1255 2 286 287
1256 3 286 292
1257 3 285 286
1258 6 285 299
1259 7 73 87
1260 7 73 88
1261 7 73 89
1262 4 71 72
1263 4 71 73
1264 4 71 74
1265 7 72 84
1266 7 72 85
1267 7 72 86
1268 7 74 90
1269 7 74 91
1270 7 74 92
1271 4 70 71
1272 7 70 82
1273 7 70 83
1274 7 165 177
1275 7 165 178
1276 7 165 179
1277 8 1621 1622
1278 4 163 164
1279 7 163 175
1280 7 163 176
1281 2 162 163
1282 3 162 168
1283 3 168 169
1284 6 168 186
1285 9 1754 1755
1286 9 1754 1756
1287 3 75 76
1288 6 75 93
1289 6 76 94
1290 2 69 70
1291 3 69 75
1292 4 194 195
1293 7 194 206
1294 7 194 207
1295 3 68 69
1296 6 68 81
1297 6 169 187
1298 3 161 162
1299 6 161 174
1300 2 193 194
1301 3 193 199
1302 1 537 538
1303 5 537 550
1304 5 537 551
1305 6 231 249
1306 3 292 293
1307 6 292 311
1308 7 289 302
1309 7 289 303
1310 7 289 304
1311 4 288 289
1312 4 288 290
1313 4 288 291
1314 9 1793 1794
1315 9 1793 1795
1316 4 195 196
1317 4 195 197
1318 4 195 198
1319 8 1675 1676
1320 8 1667 1668
1321 3 888 889
1322 3 888 898
1323 1 886 887
1324 5 886 899
1325 5 886 900
1326 1 917 918
1327 5 917 930
1328 5 917 931
1329 2 918 919
1330 1 918 932
1331 5 918 933
1332 5 932 952
1333 5 932 953
1334 5 932 954
1335 2 887 888
1336 1 887 917
1337 5 887 901
1338 3 919 920
1339 3 919 929
1340 7 1532 1548
1341 7 1532 1549
1342 7 1532 1550
1343 3 889 890
1344 6 889 902
1345 2 825 826
1346 1 825 855
1347 5 825 839
1348 3 827 828
1349 6 827 840
1350 3 826 827
1351 3 826 836
1352 2 829 830
1353 3 829 835
1354 3 835 836
1355 6 835 853
1356 6 836 854
1357 7 1315 1331
1358 7 1315 1332
1359 7 1315 1333
1360 1 855 856
1361 5 855 868
1362 5 855 869
1363 2 856 857
1364 1 856 886
1365 5 856 870
1366 8 1643 1644
1367 3 857 858
1368 3 857 867
1369 4 1311 1312
1370 7 1311 1323
1371 7 1311 1324
1372 2 1310 1311
1373 3 1310 1316
1374 3 1316 1317
1375 6 1316 1334
1376 6 1317 1335
1377 3 1309 1310
1378 6 1309 1322
1379 3 1307 1308
1380 3 1307 1317
1381 3 1308 1309
1382 6 1308 1321
1383 2 1306 1307
1384 1 1306 1336
1385 5 1306 1320
1386 4 1312 1313
1387 4 1312 1314
1388 4 1312 1315
1389 7 1407 1421
1390 7 1407 1422
1391 7 1407 1423
1392 4 1405 1406
1393 4 1405 1407
1394 4 1405 1408
1395 7 1313 1325
1396 7 1313 1326
1397 7 1313 1327
1398 4 1404 1405
1399 7 1404 1416
1400 7 1404 1417
1401 2 1403 1404
1402 3 1403 1409
1403 3 1402 1403
1404 6 1402 1415
1405 7 514 526
1406 7 514 527
1407 7 514 528
1408 4 513 514
1409 4 513 515
1410 4 513 516
1411 7 515 529
1412 7 515 530
1413 7 515 531
1414 3 1401 1402
1415 6 1401 1414
1416 8 1645 1646
1417 7 1121 1137
1418 7 1121 1138
1419 7 1121 1139
1420 3 1400 1401
1421 3 1400 1410
1422 3 1409 1410
1423 6 1409 1427
1424 6 1410 1428
1425 5 332 631
1426 5 332 632
1427 5 332 633
1428 1 319 320
1429 1 319 332
1430 5 319 333
1431 5 319 334
1432 4 1055 1056
1433 7 1055 1067
1434 7 1055 1068
1435 7 1057 1069
1436 7 1057 1070
1437 7 1057 1071
1438 7 1059 1075
1439 7 1059 1076
1440 7 1059 1077
1441 6 929 948
1442 8 1665 1666
1443 6 898 916
1444 3 928 929
1445 6 928 947
1446 3 897 898
1447 6 897 915
1448 8 1653 1654
1449 3 890 891
1450 6 890 903
1451 2 891 892
1452 3 891 897
1453 4 892 893
1454 7 892 904
1455 7 892 905
1456 9 1784 1785
1457 9 1784 1786
1458 9 1730 1731
1459 9 1730 1732
1460 7 834 850
1461 7 834 851
1462 7 834 852
1463 7 894 906
1464 7 894 907
1465 7 894 908
1466 7 895 909
1467 7 895 910
1468 7 895 911
1469 4 893 894
1470 4 893 895
1471 4 893 896
1472 7 896 912
1473 7 896 913
1474 7 896 914
1475 9 1904 1905
1476 9 1904 1906
1477 5 1286 1585
1478 5 1286 1586
1479 5 1286 1587
1480 1 1273 1274
1481 1 1273 1286
1482 5 1273 1287
1483 5 1273 1288
1484 1 1305 1306
1485 5 1305 1318
1486 5 1305 1319
1487 2 1274 1275
1488 1 1274 1305
1489 5 1274 1289
1490 7 41 53
1491 7 41 54
1492 7 41 55
1493 7 42 56
1494 7 42 57
1495 7 42 58
1496 2 38 39
1497 3 38 44
1498 7 43 59
1499 7 43 60
1500 7 43 61
1501 4 40 41
1502 4 40 42
1503 4 40 43
1504 4 39 40
1505 7 39 51
1506 7 39 52
1507 3 37 38
1508 6 37 50
1509 4 1118 1119
1510 4 1118 1120
1511 4 1118 1121
1512 7 1119 1131
1513 7 1119 1132
1514 7 1119 1133
1515 3 130 131
1516 6 130 143
1517 2 131 132
1518 3 131 137
1519 3 137 138
1520 6 137 155
1521 6 138 156
1522 3 129 130
1523 6 129 142
1524 3 128 129
1525 3 128 138
1526 4 1056 1057
1527 4 1056 1058
1528 4 1056 1059
1529 7 1058 1072
1530 7 1058 1073
1531 7 1058 1074
1532 2 127 128
1533 1 127 157
1534 5 127 141
1535 8 1613 1614
1536 7 740 754
1537 7 740 755
1538 7 740 756
1539 1 126 127
1540 5 126 139
1541 5 126 140
1542 4 738 739
1543 4 738 740
1544 4 738 741
1545 2 1054 1055
1546 3 1054 1060
1547 4 132 133
1548 7 132 144
1549 7 132 145
1550 9 1718 1719
1551 9 1718 1720
1552 4 133 134
1553 4 133 135
1554 4 133 136
1555 7 134 146
1556 7 134 147
1557 7 134 148
1558 7 136 152
1559 7 136 153
1560 7 136 154
1561 9 1913 1914
1562 9 1913 1915
1563 9 1739 1740
1564 9 1739 1741
1565 3 735 736
1566 6 735 748
1567 3 734 735
1568 6 734 747
1569 9 1709 1710
1570 9 1709 1711
1571 5 650 949
1572 5 650 950
1573 5 650 951
1574 3 44 45
1575 6 44 62
1576 8 1619 1620
1577 3 36 37
1578 6 36 49
1579 3 35 36
1580 3 35 45
1581 6 45 63
1582 7 1500 1514
1583 7 1500 1515
1584 7 1500 1516
1585 3 67 68
1586 6 67 80
1587 7 1213 1227
1588 7 1213 1228
1589 7 1213 1229
1590 7 1501 1517
1591 7 1501 1518
1592 7 1501 1519
1593 7 1499 1511
1594 7 1499 1512
1595 7 1499 1513
1596 4 1498 1499
1597 4 1498 1500
1598 4 1498 1501
1599 7 1214 1230
1600 7 1214 1231
1601 7 1214 1232
1602 2 96 97
1603 1 96 126
1604 5 96 110
1605 3 797 798
1606 6 797 810
1607 4 799 800
1608 7 799 811
1609 7 799 812
1610 2 798 799
1611 3 798 804
1612 7 103 115
1613 7 103 116
1614 7 103 117
1615 3 804 805
1616 6 804 822
1617 7 803 819
1618 7 803 820
1619 7 803 821
1620 4 800 801
1621 4 800 802
1622 4 800 803
1623 7 801 813
1624 7 801 814
1625 7 801 815
1626 8 1605 1606
1627 6 805 823
1628 3 796 797
1629 6 796 809
1630 3 795 796
1631 3 795 805
1632 2 794 795
1633 1 794 824
1634 5 794 808
1635 1 793 794
1636 5 793 806
1637 5 793 807
1638 1 762 763
1639 5 762 775
1640 5 762 776
1641 2 763 764
1642 1 763 793
1643 5 763 777
1644 3 733 734
1645 3 733 743
1646 3 764 765
1647 3 764 774
1648 2 732 733
1649 1 732 762
1650 5 732 746
1651 3 765 766
1652 6 765 778
1653 1 731 732
1654 5 731 744
1655 5 731 745
1656 7 1469 1483
1657 7 1469 1484
1658 7 1469 1485
1659 9 1721 1722
1660 9 1721 1723
1661 9 1790 1791
1662 9 1790 1792
1663 9 1700 1701
1664 9 1700 1702
1665 8 1641 1642
1666 7 1468 1480
1667 7 1468 1481
1668 7 1468 1482
1669 4 1467 1468
1670 4 1467 1469
1671 4 1467 1470
1672 7 1470 1486
1673 7 1470 1487
1674 7 1470 1488
1675 3 98 99
1676 6 98 111
1677 3 99 100
1678 6 99 112
1679 4 1466 1467
1680 7 1466 1478
1681 7 1466 1479
1682 2 1465 1466
1683 3 1465 1471
1684 6 1472 1490
1685 3 1471 1472
1686 6 1471 1489
1687 3 97 98
1688 3 97 107
1689 2 100 101
1690 3 100 106
1691 4 101 102
1692 7 101 113
1693 7 101 114
1694 6 107 125
1695 3 106 107
1696 6 106 124
1697 4 102 103
1698 4 102 104
1699 4 102 105
1700 7 104 118
1701 7 104 119
1702 7 104 120
1703 3 223 224
1704 6 223 236
1705 7 1530 1542
1706 7 1530 1543
1707 7 1530 1544
1708 1 824 825
1709 5 824 837
1710 5 824 838
1711 7 1314 1328
1712 7 1314 1329
1713 7 1314 1330
1714 7 1408 1424
1715 7 1408 1425
1716 7 1408 1426
1717 9 1811 1812
1718 9 1811 1813
1719 7 105 121
1720 7 105 122
1721 7 105 123
1722 3 921 922
1723 6 921 935
1724 4 1529 1530
1725 4 1529 1531
1726 4 1529 1532
1727 7 1531 1545
1728 7 1531 1546
1729 7 1531 1547
1730 3 920 921
1731 6 920 934
1732 6 867 885
1733 7 771 785
1734 7 771 786
1735 7 771 787
1736 3 858 859
1737 6 858 871
1738 2 1337 1338
1739 1 1337 1367
1740 5 1337 1351
1741 7 772 788
1742 7 772 789
1743 7 772 790
1744 1 1336 1337
1745 5 1336 1349
1746 5 1336 1350
1747 2 1399 1400
1748 1 1399 1429
1749 5 1399 1413
1750 8 1661 1662
1751 2 922 923
1752 3 922 928
1753 3 1060 1061
1754 6 1060 1078
1755 9 1769 1770
1756 9 1769 1771
1757 8 1615 1616
1758 3 1276 1277
1759 6 1276 1290
1760 6 1285 1304
1761 3 1275 1276
1762 3 1275 1285
1763 7 1120 1134
1764 7 1120 1135
1765 7 1120 1136
1766 3 1115 1116
1767 6 1115 1128
1768 4 1117 1118
1769 7 1117 1129
1770 7 1117 1130
1771 4 737 738
1772 7 737 749
1773 7 737 750
1774 7 741 757
1775 7 741 758
1776 7 741 759
1777 7 739 751
1778 7 739 752
1779 7 739 753
1780 3 1053 1054
1781 6 1053 1066
1782 2 736 737
1783 3 736 742
1784 9 1742 1743
1785 9 1742 1744
1786 1 637 638
1787 1 637 650
1788 5 637 651
1789 5 637 652
1790 1 700 701
1791 5 700 713
1792 5 700 714
1793 4 1210 1211
1794 7 1210 1222
1795 7 1210 1223
1796 8 1599 1600
1797 4 1497 1498
1798 7 1497 1509
1799 7 1497 1510
1800 4 1211 1212
1801 4 1211 1213
1802 4 1211 1214
1803 3 1495 1496
1804 6 1495 1508
1805 8 1603 1604
1806 7 802 816
1807 7 802 817
1808 7 802 818
1809 6 743 761
1810 6 774 792
1811 3 766 767
1812 6 766 779
1813 2 701 702
1814 1 701 731
1815 5 701 715
1816 9 1826 1827
1817 9 1826 1828
1818 3 1463 1464
1819 6 1463 1476
1820 1 1460 1461
1821 5 1460 1473
1822 5 1460 1474
1823 2 1461 1462
1824 1 1461 1491
1825 5 1461 1475
1826 2 1430 1431
1827 1 1430 1460
1828 5 1430 1444
1829 3 1462 1463
1830 3 1462 1472
1831 3 1464 1465
1832 6 1464 1477
1833 1 1429 1430
1834 5 1429 1442
1835 5 1429 1443

Angles

1 5 1527 1528 1529
2 10 1527 1528 1540
3 10 1527 1528 1541
4 11 1529 1528 1540
5 11 1529 1528 1541
6 13 1540 1528 1541
7 11 420 423 439
8 11 420 423 440
9 11 420 423 441
10 13 439 423 440
11 13 439 423 441
12 13 440 423 441
13 11 420 421 433
14 11 420 421 434
15 11 420 421 435
16 13 433 421 434
17 13 433 421 435
18 13 434 421 435
19 11 1560 1563 1580
20 11 1560 1563 1581
21 11 1560 1563 1582
22 13 1580 1563 1581
23 13 1580 1563 1582
24 13 1581 1563 1582
25 6 419 420 421
26 6 419 420 422
27 6 419 420 423
28 6 421 420 422
29 6 421 420 423
30 6 422 420 423
31 4 1558 1564 1565
32 9 1558 1564 1583
33 9 1565 1564 1583
34 5 1558 1559 1560
35 10 1558 1559 1572
36 10 1558 1559 1573
37 11 1560 1559 1572
38 11 1560 1559 1573
39 13 1572 1559 1573
40 3 1557 1558 1559
41 4 1557 1558 1564
42 3 1559 1558 1564
43 11 420 422 436
44 11 420 422 437
45 11 420 422 438
46 13 436 422 437
47 13 436 422 438
48 13 437 422 438
49 4 860 866 867
50 9 860 866 884
51 9 867 866 884
52 3 859 860 861
53 4 859 860 866
54 3 861 860 866
55 5 860 861 862
56 10 860 861 873
57 10 860 861 874
58 11 862 861 873
59 11 862 861 874
60 13 873 861 874
61 4 858 859 860
62 9 858 859 872
63 9 860 859 872
64 6 768 769 770
65 6 768 769 771
66 6 768 769 772
67 6 770 769 771
68 6 770 769 772
69 6 771 769 772
70 11 769 770 782
71 11 769 770 783
72 11 769 770 784
73 13 782 770 783
74 13 782 770 784
75 13 783 770 784
76 11 862 863 875
77 11 862 863 876
78 11 862 863 877
79 13 875 863 876
80 13 875 863 877
81 13 876 863 877
82 11 862 865 881
83 11 862 865 882
84 11 862 865 883
85 13 881 865 882
86 13 881 865 883
87 13 882 865 883
88 6 861 862 863
89 6 861 862 864
90 6 861 862 865
91 6 863 862 864
92 6 863 862 865
93 6 864 862 865
94 5 767 768 769
95 10 767 768 780
96 10 767 768 781
97 11 769 768 780
98 11 769 768 781
99 13 780 768 781
100 11 862 864 878
101 11 862 864 879
102 11 862 864 880
103 13 878 864 879
104 13 878 864 880
105 13 879 864 880
106 4 1338 1339 1340
107 9 1338 1339 1352
108 9 1340 1339 1352
109 3 1337 1338 1339
110 3 1337 1338 1348
111 4 1339 1338 1348
112 4 1338 1348 1347
113 9 1338 1348 1366
114 9 1347 1348 1366
115 4 1369 1379 1378
116 9 1369 1379 1397
117 9 1378 1379 1397
118 4 1339 1340 1341
119 9 1339 1340 1353
120 9 1341 1340 1353
121 4 1341 1347 1348
122 9 1341 1347 1365
123 9 1348 1347 1365
124 3 1340 1341 1342
125 4 1340 1341 1347
126 3 1342 1341 1347
127 3 1371 1372 1373
128 4 1371 1372 1378
129 3 1373 1372 1378
130 4 1370 1371 1372
131 9 1370 1371 1384
132 9 1372 1371 1384
133 5 1341 1342 1343
134 10 1341 1342 1354
135 10 1341 1342 1355
136 11 1343 1342 1354
137 11 1343 1342 1355
138 13 1354 1342 1355
139 6 1342 1343 1344
140 6 1342 1343 1345
141 6 1342 1343 1346
142 6 1344 1343 1345
143 6 1344 1343 1346
144 6 1345 1343 1346
145 11 1343 1345 1359
146 11 1343 1345 1360
147 11 1343 1345 1361
148 13 1359 1345 1360
149 13 1359 1345 1361
150 13 1360 1345 1361
151 11 1343 1346 1362
152 11 1343 1346 1363
153 11 1343 1346 1364
154 13 1362 1346 1363
155 13 1362 1346 1364
156 13 1363 1346 1364
157 2 1337 1367 1368
158 7 1337 1367 1380
159 7 1337 1367 1381
160 7 1368 1367 1380
161 7 1368 1367 1381
162 12 1380 1367 1381
163 3 1368 1369 1370
164 3 1368 1369 1379
165 4 1370 1369 1379
166 4 1369 1370 1371
167 9 1369 1370 1383
168 9 1371 1370 1383
169 1 1367 1368 1369
170 2 1367 1368 1398
171 1 1369 1368 1398
172 7 1367 1368 1382
173 8 1369 1368 1382
174 7 1382 1368 1398
175 2 1368 1398 1399
176 7 1368 1398 1411
177 7 1368 1398 1412
178 7 1399 1398 1411
179 7 1399 1398 1412
180 12 1411 1398 1412
181 11 1560 1561 1574
182 11 1560 1561 1575
183 11 1560 1561 1576
184 13 1574 1561 1575
185 13 1574 1561 1576
186 13 1575 1561 1576
187 7 1236 1250 1270
188 7 1236 1250 1271
189 7 1236 1250 1272
190 12 1270 1250 1271
191 12 1270 1250 1272
192 12 1271 1250 1272
193 4 1556 1557 1558
194 9 1556 1557 1571
195 9 1558 1557 1571
196 11 1560 1562 1577
197 11 1560 1562 1578
198 11 1560 1562 1579
199 13 1577 1562 1578
200 13 1577 1562 1579
201 13 1578 1562 1579
202 6 1559 1560 1561
203 6 1559 1560 1562
204 6 1559 1560 1563
205 6 1561 1560 1562
206 6 1561 1560 1563
207 6 1562 1560 1563
208 11 924 925 938
209 11 924 925 939
210 11 924 925 940
211 13 938 925 939
212 13 938 925 940
213 13 939 925 940
214 6 923 924 925
215 6 923 924 926
216 6 923 924 927
217 6 925 924 926
218 6 925 924 927
219 6 926 924 927
220 11 924 927 944
221 11 924 927 945
222 11 924 927 946
223 13 944 927 945
224 13 944 927 946
225 13 945 927 946
226 5 922 923 924
227 10 922 923 936
228 10 922 923 937
229 11 924 923 936
230 11 924 923 937
231 13 936 923 937
232 11 924 926 941
233 11 924 926 942
234 11 924 926 943
235 13 941 926 942
236 13 941 926 943
237 13 942 926 943
238 4 1082 1092 1091
239 9 1082 1092 1110
240 9 1091 1092 1110
241 3 1081 1082 1083
242 3 1081 1082 1092
243 4 1083 1082 1092
244 5 418 419 420
245 10 418 419 431
246 10 418 419 432
247 11 420 419 431
248 11 420 419 432
249 13 431 419 432
250 11 1280 1283 1300
251 11 1280 1283 1301
252 11 1280 1283 1302
253 13 1300 1283 1301
254 13 1300 1283 1302
255 13 1301 1283 1302
256 11 1280 1281 1294
257 11 1280 1281 1295
258 11 1280 1281 1296
259 13 1294 1281 1295
260 13 1294 1281 1296
261 13 1295 1281 1296
262 5 1278 1279 1280
263 10 1278 1279 1292
264 10 1278 1279 1293
265 11 1280 1279 1292
266 11 1280 1279 1293
267 13 1292 1279 1293
268 6 1279 1280 1281
269 6 1279 1280 1282
270 6 1279 1280 1283
271 6 1281 1280 1282
272 6 1281 1280 1283
273 6 1282 1280 1283
274 11 1025 1027 1041
275 11 1025 1027 1042
276 11 1025 1027 1043
277 13 1041 1027 1042
278 13 1041 1027 1043
279 13 1042 1027 1043
280 11 1280 1282 1297
281 11 1280 1282 1298
282 11 1280 1282 1299
283 13 1297 1282 1298
284 13 1297 1282 1299
285 13 1298 1282 1299
286 14 1824 1823 1825
287 14 1803 1802 1804
288 4 1278 1284 1285
289 9 1278 1284 1303
290 9 1285 1284 1303
291 3 1277 1278 1279
292 4 1277 1278 1284
293 3 1279 1278 1284
294 4 1276 1277 1278
295 9 1276 1277 1291
296 9 1278 1277 1291
297 3 1208 1209 1210
298 4 1208 1209 1215
299 3 1210 1209 1215
300 4 1209 1215 1216
301 9 1209 1215 1233
302 9 1216 1215 1233
303 4 1206 1216 1215
304 9 1206 1216 1234
305 9 1215 1216 1234
306 14 1872 1871 1873
307 14 1908 1907 1909
308 3 1205 1206 1207
309 3 1205 1206 1216
310 4 1207 1206 1216
311 1 1204 1205 1206
312 2 1204 1205 1235
313 1 1206 1205 1235
314 7 1204 1205 1219
315 8 1206 1205 1219
316 7 1219 1205 1235
317 2 1174 1204 1205
318 7 1174 1204 1217
319 7 1174 1204 1218
320 7 1205 1204 1217
321 7 1205 1204 1218
322 12 1217 1204 1218
323 4 1207 1208 1209
324 9 1207 1208 1221
325 9 1209 1208 1221
326 4 1206 1207 1208
327 9 1206 1207 1220
328 9 1208 1207 1220
329 2 1205 1235 1236
330 7 1205 1235 1248
331 7 1205 1235 1249
332 7 1236 1235 1248
333 7 1236 1235 1249
334 12 1248 1235 1249
335 3 1112 1113 1114
336 3 1112 1113 1123
337 4 1114 1113 1123
338 2 1112 1142 1143
339 7 1112 1142 1155
340 7 1112 1142 1156
341 7 1143 1142 1155
342 7 1143 1142 1156
343 12 1155 1142 1156
344 1 1111 1112 1113
345 2 1111 1112 1142
346 1 1113 1112 1142
347 7 1111 1112 1126
348 8 1113 1112 1126
349 7 1126 1112 1142
350 1 1235 1236 1237
351 2 1235 1236 1250
352 1 1237 1236 1250
353 7 1235 1236 1251
354 8 1237 1236 1251
355 7 1250 1236 1251
356 2 1143 1173 1174
357 7 1143 1173 1186
358 7 1143 1173 1187
359 7 1174 1173 1186
360 7 1174 1173 1187
361 12 1186 1173 1187
362 1 1173 1174 1175
363 2 1173 1174 1204
364 1 1175 1174 1204
365 7 1173 1174 1188
366 8 1175 1174 1188
367 7 1188 1174 1204
368 4 1237 1238 1239
369 9 1237 1238 1252
370 9 1239 1238 1252
371 3 1236 1237 1238
372 3 1236 1237 1247
373 4 1238 1237 1247
374 4 1113 1114 1115
375 9 1113 1114 1127
376 9 1115 1114 1127
377 4 1113 1123 1122
378 9 1113 1123 1141
379 9 1122 1123 1141
380 3 1115 1116 1117
381 4 1115 1116 1122
382 3 1117 1116 1122
383 4 1116 1122 1123
384 9 1116 1122 1140
385 9 1123 1122 1140
386 4 1051 1061 1060
387 9 1051 1061 1079
388 9 1060 1061 1079
389 2 1019 1049 1050
390 7 1019 1049 1062
391 7 1019 1049 1063
392 7 1050 1049 1062
393 7 1050 1049 1063
394 12 1062 1049 1063
395 3 1050 1051 1052
396 3 1050 1051 1061
397 4 1052 1051 1061
398 1 1049 1050 1051
399 2 1049 1050 1080
400 1 1051 1050 1080
401 7 1049 1050 1064
402 8 1051 1050 1064
403 7 1064 1050 1080
404 2 988 1018 1019
405 7 988 1018 1031
406 7 988 1018 1032
407 7 1019 1018 1031
408 7 1019 1018 1032
409 12 1031 1018 1032
410 1 1018 1019 1020
411 2 1018 1019 1049
412 1 1020 1019 1049
413 7 1018 1019 1033
414 8 1020 1019 1033
415 7 1033 1019 1049
416 4 1051 1052 1053
417 9 1051 1052 1065
418 9 1053 1052 1065
419 2 1050 1080 1081
420 7 1050 1080 1093
421 7 1050 1080 1094
422 7 1081 1080 1093
423 7 1081 1080 1094
424 12 1093 1080 1094
425 3 1019 1020 1021
426 3 1019 1020 1030
427 4 1021 1020 1030
428 1 1080 1081 1082
429 2 1080 1081 1111
430 1 1082 1081 1111
431 7 1080 1081 1095
432 8 1082 1081 1095
433 7 1095 1081 1111
434 4 1493 1494 1495
435 9 1493 1494 1507
436 9 1495 1494 1507
437 4 1020 1021 1022
438 9 1020 1021 1034
439 9 1022 1021 1034
440 4 1020 1030 1029
441 9 1020 1030 1048
442 9 1029 1030 1048
443 4 1023 1029 1030
444 9 1023 1029 1047
445 9 1030 1029 1047
446 14 1749 1748 1750
447 4 702 712 711
448 9 702 712 730
449 9 711 712 730
450 4 705 711 712
451 9 705 711 729
452 9 712 711 729
453 3 704 705 706
454 4 704 705 711
455 3 706 705 711
456 5 705 706 707
457 10 705 706 718
458 10 705 706 719
459 11 707 706 718
460 11 707 706 719
461 13 718 706 719
462 11 707 709 723
463 11 707 709 724
464 11 707 709 725
465 13 723 709 724
466 13 723 709 725
467 13 724 709 725
468 6 706 707 708
469 6 706 707 709
470 6 706 707 710
471 6 708 707 709
472 6 708 707 710
473 6 709 707 710
474 11 707 710 726
475 11 707 710 727
476 11 707 710 728
477 13 726 710 727
478 13 726 710 728
479 13 727 710 728
480 3 701 702 703
481 3 701 702 712
482 4 703 702 712
483 3 1022 1023 1024
484 4 1022 1023 1029
485 3 1024 1023 1029
486 11 707 708 720
487 11 707 708 721
488 11 707 708 722
489 13 720 708 721
490 13 720 708 722
491 13 721 708 722
492 1 669 670 671
493 2 669 670 700
494 1 671 670 700
495 7 669 670 684
496 8 671 670 684
497 7 684 670 700
498 4 639 649 648
499 9 639 649 668
500 9 648 649 668
501 1 637 638 639
502 2 637 638 669
503 1 639 638 669
504 7 637 638 653
505 8 639 638 653
506 7 653 638 669
507 2 638 669 670
508 7 638 669 682
509 7 638 669 683
510 7 670 669 682
511 7 670 669 683
512 12 682 669 683
513 3 638 639 640
514 3 638 639 649
515 4 640 639 649
516 4 639 640 641
517 9 639 640 654
518 9 641 640 654
519 4 642 648 649
520 9 642 648 667
521 9 649 648 667
522 4 640 641 642
523 9 640 641 655
524 9 642 641 655
525 3 641 642 643
526 4 641 642 648
527 3 643 642 648
528 1 1142 1143 1144
529 2 1142 1143 1173
530 1 1144 1143 1173
531 7 1142 1143 1157
532 8 1144 1143 1157
533 7 1157 1143 1173
534 11 1211 1212 1224
535 11 1211 1212 1225
536 11 1211 1212 1226
537 13 1224 1212 1225
538 13 1224 1212 1226
539 13 1225 1212 1226
540 3 1495 1496 1497
541 4 1495 1496 1502
542 3 1497 1496 1502
543 4 1496 1502 1503
544 9 1496 1502 1520
545 9 1503 1502 1520
546 4 1144 1145 1146
547 9 1144 1145 1158
548 9 1146 1145 1158
549 4 1493 1503 1502
550 9 1493 1503 1521
551 9 1502 1503 1521
552 4 1145 1146 1147
553 9 1145 1146 1159
554 9 1147 1146 1159
555 3 1143 1144 1145
556 3 1143 1144 1154
557 4 1145 1144 1154
558 3 1146 1147 1148
559 4 1146 1147 1153
560 3 1148 1147 1153
561 4 1144 1154 1153
562 9 1144 1154 1172
563 9 1153 1154 1172
564 4 1147 1153 1154
565 9 1147 1153 1171
566 9 1154 1153 1171
567 5 1147 1148 1149
568 10 1147 1148 1160
569 10 1147 1148 1161
570 11 1149 1148 1160
571 11 1149 1148 1161
572 13 1160 1148 1161
573 2 1081 1111 1112
574 7 1081 1111 1124
575 7 1081 1111 1125
576 7 1112 1111 1124
577 7 1112 1111 1125
578 12 1124 1111 1125
579 1 987 988 989
580 2 987 988 1018
581 1 989 988 1018
582 7 987 988 1002
583 8 989 988 1002
584 7 1002 988 1018
585 4 1527 1533 1534
586 9 1527 1533 1551
587 9 1534 1533 1551
588 4 1524 1534 1533
589 9 1524 1534 1552
590 9 1533 1534 1552
591 2 956 987 988
592 7 956 987 1000
593 7 956 987 1001
594 7 988 987 1000
595 7 988 987 1001
596 12 1000 987 1001
597 3 1523 1524 1525
598 3 1523 1524 1534
599 4 1525 1524 1534
600 2 956 955 968
601 7 956 955 969
602 7 956 955 970
603 7 968 955 969
604 7 968 955 970
605 12 969 955 970
606 4 1524 1525 1526
607 9 1524 1525 1538
608 9 1526 1525 1538
609 1 1522 1523 1524
610 2 1522 1523 1553
611 1 1524 1523 1553
612 7 1522 1523 1537
613 8 1524 1523 1537
614 7 1537 1523 1553
615 2 1523 1553 1554
616 7 1523 1553 1566
617 7 1523 1553 1567
618 7 1554 1553 1566
619 7 1554 1553 1567
620 12 1566 1553 1567
621 3 988 989 990
622 3 988 989 999
623 4 990 989 999
624 4 989 999 998
625 9 989 999 1017
626 9 998 999 1017
627 7 955 968 1267
628 7 955 968 1268
629 7 955 968 1269
630 12 1267 968 1268
631 12 1267 968 1269
632 12 1268 968 1269
633 4 736 742 743
634 9 736 742 760
635 9 743 742 760
636 4 702 703 704
637 9 702 703 716
638 9 704 703 716
639 4 703 704 705
640 9 703 704 717
641 9 705 704 717
642 1 955 956 957
643 2 955 956 987
644 1 957 956 987
645 7 955 956 971
646 8 957 956 971
647 7 971 956 987
648 4 957 967 966
649 9 957 967 986
650 9 966 967 986
651 4 767 773 774
652 9 767 773 791
653 9 774 773 791
654 3 956 957 958
655 3 956 957 967
656 4 958 957 967
657 11 676 679 695
658 11 676 679 696
659 11 676 679 697
660 13 695 679 696
661 13 695 679 697
662 13 696 679 697
663 11 676 677 689
664 11 676 677 690
665 11 676 677 691
666 13 689 677 690
667 13 689 677 691
668 13 690 677 691
669 4 671 672 673
670 9 671 672 685
671 9 673 672 685
672 4 671 681 680
673 9 671 681 699
674 9 680 681 699
675 3 670 671 672
676 3 670 671 681
677 4 672 671 681
678 4 674 680 681
679 9 674 680 698
680 9 681 680 698
681 3 673 674 675
682 4 673 674 680
683 3 675 674 680
684 4 672 673 674
685 9 672 673 686
686 9 674 673 686
687 5 674 675 676
688 10 674 675 687
689 10 674 675 688
690 11 676 675 687
691 11 676 675 688
692 13 687 675 688
693 11 1436 1437 1449
694 11 1436 1437 1450
695 11 1436 1437 1451
696 13 1449 1437 1450
697 13 1449 1437 1451
698 13 1450 1437 1451
699 6 675 676 677
700 6 675 676 678
701 6 675 676 679
702 6 677 676 678
703 6 677 676 679
704 6 678 676 679
705 11 1436 1439 1455
706 11 1436 1439 1456
707 11 1436 1439 1457
708 13 1455 1439 1456
709 13 1455 1439 1457
710 13 1456 1439 1457
711 5 1434 1435 1436
712 10 1434 1435 1447
713 10 1434 1435 1448
714 11 1436 1435 1447
715 11 1436 1435 1448
716 13 1447 1435 1448
717 4 1434 1440 1441
718 9 1434 1440 1458
719 9 1441 1440 1458
720 6 1435 1436 1437
721 6 1435 1436 1438
722 6 1435 1436 1439
723 6 1437 1436 1438
724 6 1437 1436 1439
725 6 1438 1436 1439
726 3 1433 1434 1435
727 4 1433 1434 1440
728 3 1435 1434 1440
729 4 1431 1441 1440
730 9 1431 1441 1459
731 9 1440 1441 1459
732 4 1432 1433 1434
733 9 1432 1433 1446
734 9 1434 1433 1446
735 3 1430 1431 1432
736 3 1430 1431 1441
737 4 1432 1431 1441
738 4 1431 1432 1433
739 9 1431 1432 1445
740 9 1433 1432 1445
741 2 1461 1491 1492
742 7 1461 1491 1504
743 7 1461 1491 1505
744 7 1492 1491 1504
745 7 1492 1491 1505
746 12 1504 1491 1505
747 11 1436 1438 1452
748 11 1436 1438 1453
749 11 1436 1438 1454
750 13 1452 1438 1453
751 13 1452 1438 1454
752 13 1453 1438 1454
753 3 1492 1493 1494
754 3 1492 1493 1503
755 4 1494 1493 1503
756 1 1491 1492 1493
757 2 1491 1492 1522
758 1 1493 1492 1522
759 7 1491 1492 1506
760 8 1493 1492 1506
761 7 1506 1492 1522
762 2 1492 1522 1523
763 7 1492 1522 1535
764 7 1492 1522 1536
765 7 1523 1522 1535
766 7 1523 1522 1536
767 12 1535 1522 1536
768 3 1526 1527 1528
769 4 1526 1527 1533
770 3 1528 1527 1533
771 4 1525 1526 1527
772 9 1525 1526 1539
773 9 1527 1526 1539
774 4 1555 1565 1564
775 9 1555 1565 1584
776 9 1564 1565 1584
777 3 1554 1555 1556
778 3 1554 1555 1565
779 4 1556 1555 1565
780 3 766 767 768
781 4 766 767 773
782 3 768 767 773
783 11 676 678 692
784 11 676 678 693
785 11 676 678 694
786 13 692 678 693
787 13 692 678 694
788 13 693 678 694
789 4 1372 1378 1379
790 9 1372 1378 1396
791 9 1379 1378 1396
792 5 1372 1373 1374
793 10 1372 1373 1385
794 10 1372 1373 1386
795 11 1374 1373 1385
796 11 1374 1373 1386
797 13 1385 1373 1386
798 11 1374 1375 1387
799 11 1374 1375 1388
800 11 1374 1375 1389
801 13 1387 1375 1388
802 13 1387 1375 1389
803 13 1388 1375 1389
804 4 1555 1556 1557
805 9 1555 1556 1570
806 9 1557 1556 1570
807 4 477 487 486
808 9 477 487 505
809 9 486 487 505
810 4 480 486 487
811 9 480 486 504
812 9 487 486 504
813 3 476 477 478
814 3 476 477 487
815 4 478 477 487
816 4 478 479 480
817 9 478 479 492
818 9 480 479 492
819 3 479 480 481
820 4 479 480 486
821 3 481 480 486
822 1 444 445 446
823 2 444 445 475
824 1 446 445 475
825 7 444 445 459
826 8 446 445 459
827 7 459 445 475
828 2 445 475 476
829 7 445 475 488
830 7 445 475 489
831 7 476 475 488
832 7 476 475 489
833 12 488 475 489
834 1 475 476 477
835 2 475 476 506
836 1 477 476 506
837 7 475 476 490
838 8 477 476 490
839 7 490 476 506
840 4 477 478 479
841 9 477 478 491
842 9 479 478 491
843 2 414 444 445
844 7 414 444 457
845 7 414 444 458
846 7 445 444 457
847 7 445 444 458
848 12 457 444 458
849 3 445 446 447
850 3 445 446 456
851 4 447 446 456
852 11 575 577 591
853 11 575 577 592
854 11 575 577 593
855 13 591 577 592
856 13 591 577 593
857 13 592 577 593
858 4 446 456 455
859 9 446 456 474
860 9 455 456 474
861 4 449 455 456
862 9 449 455 473
863 9 456 455 473
864 6 574 575 576
865 6 574 575 577
866 6 574 575 578
867 6 576 575 577
868 6 576 575 578
869 6 577 575 578
870 11 575 576 588
871 11 575 576 589
872 11 575 576 590
873 13 588 576 589
874 13 588 576 590
875 13 589 576 590
876 5 449 450 451
877 10 449 450 462
878 10 449 450 463
879 11 451 450 462
880 11 451 450 463
881 13 462 450 463
882 3 448 449 450
883 4 448 449 455
884 3 450 449 455
885 11 575 578 594
886 11 575 578 595
887 11 575 578 596
888 13 594 578 595
889 13 594 578 596
890 13 595 578 596
891 4 446 447 448
892 9 446 447 460
893 9 448 447 460
894 4 447 448 449
895 9 447 448 461
896 9 449 448 461
897 14 1800 1799 1801
898 11 1343 1344 1356
899 11 1343 1344 1357
900 11 1343 1344 1358
901 13 1356 1344 1357
902 13 1356 1344 1358
903 13 1357 1344 1358
904 14 1713 1712 1714
905 14 1764 1763 1765
906 14 1884 1883 1885
907 14 1734 1733 1735
908 11 288 290 305
909 11 288 290 306
910 11 288 290 307
911 13 305 290 306
912 13 305 290 307
913 13 306 290 307
914 14 1728 1727 1729
915 11 1374 1376 1390
916 11 1374 1376 1391
917 11 1374 1376 1392
918 13 1390 1376 1391
919 13 1390 1376 1392
920 13 1391 1376 1392
921 14 1698 1697 1699
922 14 1695 1694 1696
923 11 482 485 501
924 11 482 485 502
925 11 482 485 503
926 13 501 485 502
927 13 501 485 503
928 13 502 485 503
929 14 1776 1775 1777
930 11 482 484 498
931 11 482 484 499
932 11 482 484 500
933 13 498 484 499
934 13 498 484 500
935 13 499 484 500
936 14 1707 1706 1708
937 14 1761 1760 1762
938 14 1809 1808 1810
939 6 481 482 483
940 6 481 482 484
941 6 481 482 485
942 6 483 482 484
943 6 483 482 485
944 6 484 482 485
945 5 480 481 482
946 10 480 481 493
947 10 480 481 494
948 11 482 481 493
949 11 482 481 494
950 13 493 481 494
951 11 482 483 495
952 11 482 483 496
953 11 482 483 497
954 13 495 483 496
955 13 495 483 497
956 13 496 483 497
957 11 1025 1026 1038
958 11 1025 1026 1039
959 11 1025 1026 1040
960 13 1038 1026 1039
961 13 1038 1026 1040
962 13 1039 1026 1040
963 4 418 424 425
964 9 418 424 442
965 9 425 424 442
966 3 417 418 419
967 4 417 418 424
968 3 419 418 424
969 4 415 425 424
970 9 415 425 443
971 9 424 425 443
972 4 416 417 418
973 9 416 417 430
974 9 418 417 430
975 11 1087 1088 1100
976 11 1087 1088 1101
977 11 1087 1088 1102
978 13 1100 1088 1101
979 13 1100 1088 1102
980 13 1101 1088 1102
981 6 1086 1087 1088
982 6 1086 1087 1089
983 6 1086 1087 1090
984 6 1088 1087 1089
985 6 1088 1087 1090
986 6 1089 1087 1090
987 3 414 415 416
988 3 414 415 425
989 4 416 415 425
990 4 415 416 417
991 9 415 416 429
992 9 417 416 429
993 3 1084 1085 1086
994 4 1084 1085 1091
995 3 1086 1085 1091
996 4 1085 1091 1092
997 9 1085 1091 1109
998 9 1092 1091 1109
999 5 1085 1086 1087
1000 10 1085 1086 1098
1001 10 1085 1086 1099
1002 11 1087 1086 1098
1003 11 1087 1086 1099
1004 13 1098 1086 1099
1005 11 1087 1089 1103
1006 11 1087 1089 1104
1007 11 1087 1089 1105
1008 13 1103 1089 1104
1009 13 1103 1089 1105
1010 13 1104 1089 1105
1011 1 413 414 415
1012 2 413 414 444
1013 1 415 414 444
1014 7 413 414 428
1015 8 415 414 428
1016 7 428 414 444
1017 4 1083 1084 1085
1018 9 1083 1084 1097
1019 9 1085 1084 1097
1020 6 1024 1025 1026
1021 6 1024 1025 1027
1022 6 1024 1025 1028
1023 6 1026 1025 1027
1024 6 1026 1025 1028
1025 6 1027 1025 1028
1026 11 1025 1028 1044
1027 11 1025 1028 1045
1028 11 1025 1028 1046
1029 13 1044 1028 1045
1030 13 1044 1028 1046
1031 13 1045 1028 1046
1032 11 451 452 464
1033 11 451 452 465
1034 11 451 452 466
1035 13 464 452 465
1036 13 464 452 466
1037 13 465 452 466
1038 6 450 451 452
1039 6 450 451 453
1040 6 450 451 454
1041 6 452 451 453
1042 6 452 451 454
1043 6 453 451 454
1044 14 1815 1814 1816
1045 11 451 454 470
1046 11 451 454 471
1047 11 451 454 472
1048 13 470 454 471
1049 13 470 454 472
1050 13 471 454 472
1051 11 451 453 467
1052 11 451 453 468
1053 11 451 453 469
1054 13 467 453 468
1055 13 467 453 469
1056 13 468 453 469
1057 14 1845 1844 1846
1058 11 389 390 402
1059 11 389 390 403
1060 11 389 390 404
1061 13 402 390 403
1062 13 402 390 404
1063 13 403 390 404
1064 4 1175 1185 1184
1065 9 1175 1185 1203
1066 9 1184 1185 1203
1067 4 1178 1184 1185
1068 9 1178 1184 1202
1069 9 1185 1184 1202
1070 3 1174 1175 1176
1071 3 1174 1175 1185
1072 4 1176 1175 1185
1073 4 1237 1247 1246
1074 9 1237 1247 1266
1075 9 1246 1247 1266
1076 4 1240 1246 1247
1077 9 1240 1246 1265
1078 9 1247 1246 1265
1079 4 1238 1239 1240
1080 9 1238 1239 1253
1081 9 1240 1239 1253
1082 3 1239 1240 1241
1083 4 1239 1240 1246
1084 3 1241 1240 1246
1085 11 1242 1245 1262
1086 11 1242 1245 1263
1087 11 1242 1245 1264
1088 13 1262 1245 1263
1089 13 1262 1245 1264
1090 13 1263 1245 1264
1091 5 1240 1241 1242
1092 10 1240 1241 1254
1093 10 1240 1241 1255
1094 11 1242 1241 1254
1095 11 1242 1241 1255
1096 13 1254 1241 1255
1097 6 1241 1242 1243
1098 6 1241 1242 1244
1099 6 1241 1242 1245
1100 6 1243 1242 1244
1101 6 1243 1242 1245
1102 6 1244 1242 1245
1103 11 1242 1243 1256
1104 11 1242 1243 1257
1105 11 1242 1243 1258
1106 13 1256 1243 1257
1107 13 1256 1243 1258
1108 13 1257 1243 1258
1109 11 1242 1244 1259
1110 11 1242 1244 1260
1111 11 1242 1244 1261
1112 13 1259 1244 1260
1113 13 1259 1244 1261
1114 13 1260 1244 1261
1115 4 1021 1022 1023
1116 9 1021 1022 1035
1117 9 1023 1022 1035
1118 4 989 990 991
1119 9 989 990 1003
1120 9 991 990 1003
1121 4 990 991 992
1122 9 990 991 1004
1123 9 992 991 1004
1124 3 991 992 993
1125 4 991 992 998
1126 3 993 992 998
1127 11 994 995 1007
1128 11 994 995 1008
1129 11 994 995 1009
1130 13 1007 995 1008
1131 13 1007 995 1009
1132 13 1008 995 1009
1133 11 1087 1090 1106
1134 11 1087 1090 1107
1135 11 1087 1090 1108
1136 13 1106 1090 1107
1137 13 1106 1090 1108
1138 13 1107 1090 1108
1139 5 992 993 994
1140 10 992 993 1005
1141 10 992 993 1006
1142 11 994 993 1005
1143 11 994 993 1006
1144 13 1005 993 1006
1145 6 993 994 995
1146 6 993 994 996
1147 6 993 994 997
1148 6 995 994 996
1149 6 995 994 997
1150 6 996 994 997
1151 11 994 997 1013
1152 11 994 997 1014
1153 11 994 997 1015
1154 13 1013 997 1014
1155 13 1013 997 1015
1156 13 1014 997 1015
1157 14 1839 1838 1840
1158 11 994 996 1010
1159 11 994 996 1011
1160 11 994 996 1012
1161 13 1010 996 1011
1162 13 1010 996 1012
1163 13 1011 996 1012
1164 4 601 602 603
1165 9 601 602 616
1166 9 603 602 616
1167 4 602 603 604
1168 9 602 603 617
1169 9 604 603 617
1170 5 1023 1024 1025
1171 10 1023 1024 1036
1172 10 1023 1024 1037
1173 11 1025 1024 1036
1174 11 1025 1024 1037
1175 13 1036 1024 1037
1176 14 1830 1829 1831
1177 3 603 604 605
1178 4 603 604 610
1179 3 605 604 610
1180 4 604 610 611
1181 9 604 610 629
1182 9 611 610 629
1183 5 604 605 606
1184 10 604 605 618
1185 10 604 605 619
1186 11 606 605 618
1187 11 606 605 619
1188 13 618 605 619
1189 11 606 609 626
1190 11 606 609 627
1191 11 606 609 628
1192 13 626 609 627
1193 13 626 609 628
1194 13 627 609 628
1195 6 605 606 607
1196 6 605 606 608
1197 6 605 606 609
1198 6 607 606 608
1199 6 607 606 609
1200 6 608 606 609
1201 11 606 607 620
1202 11 606 607 621
1203 11 606 607 622
1204 13 620 607 621
1205 13 620 607 622
1206 13 621 607 622
1207 11 644 647 664
1208 11 644 647 665
1209 11 644 647 666
1210 13 664 647 665
1211 13 664 647 666
1212 13 665 647 666
1213 6 643 644 645
1214 6 643 644 646
1215 6 643 644 647
1216 6 645 644 646
1217 6 645 644 647
1218 6 646 644 647
1219 11 644 645 658
1220 11 644 645 659
1221 11 644 645 660
1222 13 658 645 659
1223 13 658 645 660
1224 13 659 645 660
1225 5 642 643 644
1226 10 642 643 656
1227 10 642 643 657
1228 11 644 643 656
1229 11 644 643 657
1230 13 656 643 657
1231 14 1716 1715 1717
1232 11 644 646 661
1233 11 644 646 662
1234 11 644 646 663
1235 13 661 646 662
1236 13 661 646 663
1237 13 662 646 663
1238 14 1704 1703 1705
1239 14 1899 1898 1900
1240 14 1752 1751 1753
1241 5 1178 1179 1180
1242 10 1178 1179 1191
1243 10 1178 1179 1192
1244 11 1180 1179 1191
1245 11 1180 1179 1192
1246 13 1191 1179 1192
1247 4 1176 1177 1178
1248 9 1176 1177 1190
1249 9 1178 1177 1190
1250 3 1177 1178 1179
1251 4 1177 1178 1184
1252 3 1179 1178 1184
1253 14 1878 1877 1879
1254 4 1175 1176 1177
1255 9 1175 1176 1189
1256 9 1177 1176 1189
1257 11 1149 1151 1165
1258 11 1149 1151 1166
1259 11 1149 1151 1167
1260 13 1165 1151 1166
1261 13 1165 1151 1167
1262 13 1166 1151 1167
1263 6 1148 1149 1150
1264 6 1148 1149 1151
1265 6 1148 1149 1152
1266 6 1150 1149 1151
1267 6 1150 1149 1152
1268 6 1151 1149 1152
1269 11 1149 1152 1168
1270 11 1149 1152 1169
1271 11 1149 1152 1170
1272 13 1168 1152 1169
1273 13 1168 1152 1170
1274 13 1169 1152 1170
1275 11 1180 1181 1193
1276 11 1180 1181 1194
1277 11 1180 1181 1195
1278 13 1193 1181 1194
1279 13 1193 1181 1195
1280 13 1194 1181 1195
1281 6 1179 1180 1181
1282 6 1179 1180 1182
1283 6 1179 1180 1183
1284 6 1181 1180 1182
1285 6 1181 1180 1183
1286 6 1182 1180 1183
1287 11 1180 1183 1199
1288 11 1180 1183 1200
1289 11 1180 1183 1201
1290 13 1199 1183 1200
1291 13 1199 1183 1201
1292 13 1200 1183 1201
1293 11 164 166 180
1294 11 164 166 181
1295 11 164 166 182
1296 13 180 166 181
1297 13 180 166 182
1298 13 181 166 182
1299 11 1180 1182 1196
1300 11 1180 1182 1197
1301 11 1180 1182 1198
1302 13 1196 1182 1197
1303 13 1196 1182 1198
1304 13 1197 1182 1198
1305 4 1082 1083 1084
1306 9 1082 1083 1096
1307 9 1084 1083 1096
1308 4 570 580 579
1309 9 570 580 598
1310 9 579 580 598
1311 7 600 614 634
1312 7 600 614 635
1313 7 600 614 636
1314 12 634 614 635
1315 12 634 614 636
1316 12 635 614 636
1317 7 1554 1568 1588
1318 7 1554 1568 1589
1319 7 1554 1568 1590
1320 12 1588 1568 1589
1321 12 1588 1568 1590
1322 12 1589 1568 1590
1323 4 992 998 999
1324 9 992 998 1016
1325 9 999 998 1016
1326 1 599 600 601
1327 2 599 600 614
1328 1 601 600 614
1329 7 599 600 615
1330 8 601 600 615
1331 7 614 600 615
1332 1 568 569 570
1333 2 568 569 599
1334 1 570 569 599
1335 7 568 569 583
1336 8 570 569 583
1337 7 583 569 599
1338 2 569 599 600
1339 7 569 599 612
1340 7 569 599 613
1341 7 600 599 612
1342 7 600 599 613
1343 12 612 599 613
1344 3 538 539 540
1345 3 538 539 549
1346 4 540 539 549
1347 4 539 549 548
1348 9 539 549 567
1349 9 548 549 567
1350 1 1553 1554 1555
1351 2 1553 1554 1568
1352 1 1555 1554 1568
1353 7 1553 1554 1569
1354 8 1555 1554 1569
1355 7 1568 1554 1569
1356 4 542 548 549
1357 9 542 548 566
1358 9 549 548 566
1359 2 538 568 569
1360 7 538 568 581
1361 7 538 568 582
1362 7 569 568 581
1363 7 569 568 582
1364 12 581 568 582
1365 3 569 570 571
1366 3 569 570 580
1367 4 571 570 580
1368 3 600 601 602
1369 3 600 601 611
1370 4 602 601 611
1371 4 957 958 959
1372 9 957 958 972
1373 9 959 958 972
1374 4 960 966 967
1375 9 960 966 985
1376 9 967 966 985
1377 4 958 959 960
1378 9 958 959 973
1379 9 960 959 973
1380 3 959 960 961
1381 4 959 960 966
1382 3 961 960 966
1383 5 960 961 962
1384 10 960 961 974
1385 10 960 961 975
1386 11 962 961 974
1387 11 962 961 975
1388 13 974 961 975
1389 11 962 963 976
1390 11 962 963 977
1391 11 962 963 978
1392 13 976 963 977
1393 13 976 963 978
1394 13 977 963 978
1395 4 571 572 573
1396 9 571 572 585
1397 9 573 572 585
1398 4 601 611 610
1399 9 601 611 630
1400 9 610 611 630
1401 4 570 571 572
1402 9 570 571 584
1403 9 572 571 584
1404 6 961 962 963
1405 6 961 962 964
1406 6 961 962 965
1407 6 963 962 964
1408 6 963 962 965
1409 6 964 962 965
1410 14 1887 1886 1888
1411 11 962 964 979
1412 11 962 964 980
1413 11 962 964 981
1414 13 979 964 980
1415 13 979 964 981
1416 13 980 964 981
1417 11 962 965 982
1418 11 962 965 983
1419 11 962 965 984
1420 13 982 965 983
1421 13 982 965 984
1422 13 983 965 984
1423 14 1767 1766 1768
1424 11 1374 1377 1393
1425 11 1374 1377 1394
1426 11 1374 1377 1395
1427 13 1393 1377 1394
1428 13 1393 1377 1395
1429 13 1394 1377 1395
1430 14 1848 1847 1849
1431 14 1863 1862 1864
1432 14 1773 1772 1774
1433 11 1149 1150 1162
1434 11 1149 1150 1163
1435 11 1149 1150 1164
1436 13 1162 1150 1163
1437 13 1162 1150 1164
1438 13 1163 1150 1164
1439 11 544 545 557
1440 11 544 545 558
1441 11 544 545 559
1442 13 557 545 558
1443 13 557 545 559
1444 13 558 545 559
1445 11 544 546 560
1446 11 544 546 561
1447 11 544 546 562
1448 13 560 546 561
1449 13 560 546 562
1450 13 561 546 562
1451 6 543 544 545
1452 6 543 544 546
1453 6 543 544 547
1454 6 545 544 546
1455 6 545 544 547
1456 6 546 544 547
1457 11 164 167 183
1458 11 164 167 184
1459 11 164 167 185
1460 13 183 167 184
1461 13 183 167 185
1462 13 184 167 185
1463 11 544 547 563
1464 11 544 547 564
1465 11 544 547 565
1466 13 563 547 564
1467 13 563 547 565
1468 13 564 547 565
1469 14 1833 1832 1834
1470 6 163 164 165
1471 6 163 164 166
1472 6 163 164 167
1473 6 165 164 166
1474 6 165 164 167
1475 6 166 164 167
1476 3 541 542 543
1477 4 541 542 548
1478 3 543 542 548
1479 1 537 538 539
1480 2 537 538 568
1481 1 539 538 568
1482 7 537 538 552
1483 8 539 538 552
1484 7 552 538 568
1485 4 539 540 541
1486 9 539 540 553
1487 9 541 540 553
1488 4 540 541 542
1489 9 540 541 554
1490 9 542 541 554
1491 4 573 579 580
1492 9 573 579 597
1493 9 580 579 597
1494 5 573 574 575
1495 10 573 574 586
1496 10 573 574 587
1497 11 575 574 586
1498 11 575 574 587
1499 13 586 574 587
1500 3 572 573 574
1501 4 572 573 579
1502 3 574 573 579
1503 5 286 287 288
1504 10 286 287 300
1505 10 286 287 301
1506 11 288 287 300
1507 11 288 287 301
1508 13 300 287 301
1509 6 1373 1374 1375
1510 6 1373 1374 1376
1511 6 1373 1374 1377
1512 6 1375 1374 1376
1513 6 1375 1374 1377
1514 6 1376 1374 1377
1515 5 542 543 544
1516 10 542 543 555
1517 10 542 543 556
1518 11 544 543 555
1519 11 544 543 556
1520 13 555 543 556
1521 2 476 506 507
1522 7 476 506 519
1523 7 476 506 520
1524 7 507 506 519
1525 7 507 506 520
1526 12 519 506 520
1527 1 506 507 508
1528 2 506 507 537
1529 1 508 507 537
1530 7 506 507 521
1531 8 508 507 521
1532 7 521 507 537
1533 4 508 518 517
1534 9 508 518 536
1535 9 517 518 536
1536 3 507 508 509
1537 3 507 508 518
1538 4 509 508 518
1539 11 226 229 245
1540 11 226 229 246
1541 11 226 229 247
1542 13 245 229 246
1543 13 245 229 247
1544 13 246 229 247
1545 4 508 509 510
1546 9 508 509 522
1547 9 510 509 522
1548 4 224 230 231
1549 9 224 230 248
1550 9 231 230 248
1551 4 511 517 518
1552 9 511 517 535
1553 9 518 517 535
1554 4 509 510 511
1555 9 509 510 523
1556 9 511 510 523
1557 3 510 511 512
1558 4 510 511 517
1559 3 512 511 517
1560 11 226 228 242
1561 11 226 228 243
1562 11 226 228 244
1563 13 242 228 243
1564 13 242 228 244
1565 13 243 228 244
1566 6 225 226 227
1567 6 225 226 228
1568 6 225 226 229
1569 6 227 226 228
1570 6 227 226 229
1571 6 228 226 229
1572 5 511 512 513
1573 10 511 512 524
1574 10 511 512 525
1575 11 513 512 524
1576 11 513 512 525
1577 13 524 512 525
1578 3 223 224 225
1579 4 223 224 230
1580 3 225 224 230
1581 5 224 225 226
1582 10 224 225 237
1583 10 224 225 238
1584 11 226 225 237
1585 11 226 225 238
1586 13 237 225 238
1587 11 226 227 239
1588 11 226 227 240
1589 11 226 227 241
1590 13 239 227 240
1591 13 239 227 241
1592 13 240 227 241
1593 14 1911 1910 1912
1594 11 831 833 847
1595 11 831 833 848
1596 11 831 833 849
1597 13 847 833 848
1598 13 847 833 849
1599 13 848 833 849
1600 5 829 830 831
1601 10 829 830 842
1602 10 829 830 843
1603 11 831 830 842
1604 11 831 830 843
1605 13 842 830 843
1606 4 827 828 829
1607 9 827 828 841
1608 9 829 828 841
1609 14 1782 1781 1783
1610 14 1866 1865 1867
1611 14 1875 1874 1876
1612 11 288 291 308
1613 11 288 291 309
1614 11 288 291 310
1615 13 308 291 309
1616 13 308 291 310
1617 13 309 291 310
1618 14 1758 1757 1759
1619 14 1881 1880 1882
1620 11 8 10 25
1621 11 8 10 26
1622 11 8 10 27
1623 13 25 10 26
1624 13 25 10 27
1625 13 26 10 27
1626 11 1405 1406 1418
1627 11 1405 1406 1419
1628 11 1405 1406 1420
1629 13 1418 1406 1419
1630 13 1418 1406 1420
1631 13 1419 1406 1420
1632 11 8 11 28
1633 11 8 11 29
1634 11 8 11 30
1635 13 28 11 29
1636 13 28 11 30
1637 13 29 11 30
1638 6 7 8 9
1639 6 7 8 10
1640 6 7 8 11
1641 6 9 8 10
1642 6 9 8 11
1643 6 10 8 11
1644 14 1737 1736 1738
1645 11 195 196 208
1646 11 195 196 209
1647 11 195 196 210
1648 13 208 196 209
1649 13 208 196 210
1650 13 209 196 210
1651 11 195 198 214
1652 11 195 198 215
1653 11 195 198 216
1654 13 214 198 215
1655 13 214 198 216
1656 13 215 198 216
1657 11 8 9 22
1658 11 8 9 23
1659 11 8 9 24
1660 13 22 9 23
1661 13 22 9 24
1662 13 23 9 24
1663 14 1779 1778 1780
1664 11 513 516 532
1665 11 513 516 533
1666 11 513 516 534
1667 13 532 516 533
1668 13 532 516 534
1669 13 533 516 534
1670 11 195 197 211
1671 11 195 197 212
1672 11 195 197 213
1673 13 211 197 212
1674 13 211 197 213
1675 13 212 197 213
1676 2 383 413 414
1677 7 383 413 426
1678 7 383 413 427
1679 7 414 413 426
1680 7 414 413 427
1681 12 426 413 427
1682 2 352 382 383
1683 7 352 382 395
1684 7 352 382 396
1685 7 383 382 395
1686 7 383 382 396
1687 12 395 382 396
1688 3 352 353 354
1689 3 352 353 363
1690 4 354 353 363
1691 4 353 354 355
1692 9 353 354 367
1693 9 355 354 367
1694 4 353 363 362
1695 9 353 363 381
1696 9 362 363 381
1697 1 351 352 353
1698 2 351 352 382
1699 1 353 352 382
1700 7 351 352 366
1701 8 353 352 366
1702 7 366 352 382
1703 4 354 355 356
1704 9 354 355 368
1705 9 356 355 368
1706 2 320 351 352
1707 7 320 351 364
1708 7 320 351 365
1709 7 352 351 364
1710 7 352 351 365
1711 12 364 351 365
1712 4 356 362 363
1713 9 356 362 380
1714 9 363 362 380
1715 3 355 356 357
1716 4 355 356 362
1717 3 357 356 362
1718 3 320 321 322
1719 3 320 321 331
1720 4 322 321 331
1721 4 321 331 330
1722 9 321 331 350
1723 9 330 331 350
1724 4 321 322 323
1725 9 321 322 336
1726 9 323 322 336
1727 1 319 320 321
1728 2 319 320 351
1729 1 321 320 351
1730 7 319 320 335
1731 8 321 320 335
1732 7 335 320 351
1733 6 830 831 832
1734 6 830 831 833
1735 6 830 831 834
1736 6 832 831 833
1737 6 832 831 834
1738 6 833 831 834
1739 1 382 383 384
1740 2 382 383 413
1741 1 384 383 413
1742 7 382 383 397
1743 8 384 383 397
1744 7 397 383 413
1745 3 383 384 385
1746 3 383 384 394
1747 4 385 384 394
1748 4 384 385 386
1749 9 384 385 398
1750 9 386 385 398
1751 4 384 394 393
1752 9 384 394 412
1753 9 393 394 412
1754 4 387 393 394
1755 9 387 393 411
1756 9 394 393 411
1757 4 385 386 387
1758 9 385 386 399
1759 9 387 386 399
1760 3 386 387 388
1761 4 386 387 393
1762 3 388 387 393
1763 11 831 832 844
1764 11 831 832 845
1765 11 831 832 846
1766 13 844 832 845
1767 13 844 832 846
1768 13 845 832 846
1769 14 1818 1817 1819
1770 5 387 388 389
1771 10 387 388 400
1772 10 387 388 401
1773 11 389 388 400
1774 11 389 388 401
1775 13 400 388 401
1776 14 1842 1841 1843
1777 6 388 389 390
1778 6 388 389 391
1779 6 388 389 392
1780 6 390 389 391
1781 6 390 389 392
1782 6 391 389 392
1783 11 389 392 408
1784 11 389 392 409
1785 11 389 392 410
1786 13 408 392 409
1787 13 408 392 410
1788 13 409 392 410
1789 11 389 391 405
1790 11 389 391 406
1791 11 389 391 407
1792 13 405 391 406
1793 13 405 391 407
1794 13 406 391 407
1795 14 1836 1835 1837
1796 4 4 5 6
1797 9 4 5 19
1798 9 6 5 19
1799 11 358 360 374
1800 11 358 360 375
1801 11 358 360 376
1802 13 374 360 375
1803 13 374 360 376
1804 13 375 360 376
1805 14 1797 1796 1798
1806 14 1851 1850 1852
1807 11 358 361 377
1808 11 358 361 378
1809 11 358 361 379
1810 13 377 361 378
1811 13 377 361 379
1812 13 378 361 379
1813 6 357 358 359
1814 6 357 358 360
1815 6 357 358 361
1816 6 359 358 360
1817 6 359 358 361
1818 6 360 358 361
1819 11 358 359 371
1820 11 358 359 372
1821 11 358 359 373
1822 13 371 359 372
1823 13 371 359 373
1824 13 372 359 373
1825 4 3 13 12
1826 9 3 13 32
1827 9 12 13 32
1828 3 2 3 4
1829 3 2 3 13
1830 4 4 3 13
1831 4 6 12 13
1832 9 6 12 31
1833 9 13 12 31
1834 4 3 4 5
1835 9 3 4 18
1836 9 5 4 18
1837 3 5 6 7
1838 4 5 6 12
1839 3 7 6 12
1840 5 6 7 8
1841 10 6 7 20
1842 10 6 7 21
1843 11 8 7 20
1844 11 8 7 21
1845 13 20 7 21
1846 14 1725 1724 1726
1847 5 356 357 358
1848 10 356 357 369
1849 10 356 357 370
1850 11 358 357 369
1851 11 358 357 370
1852 13 369 357 370
1853 4 324 330 331
1854 9 324 330 349
1855 9 331 330 349
1856 3 323 324 325
1857 4 323 324 330
1858 3 325 324 330
1859 11 257 259 273
1860 11 257 259 274
1861 11 257 259 275
1862 13 273 259 274
1863 13 273 259 275
1864 13 274 259 275
1865 6 256 257 258
1866 6 256 257 259
1867 6 256 257 260
1868 6 258 257 259
1869 6 258 257 260
1870 6 259 257 260
1871 5 255 256 257
1872 10 255 256 268
1873 10 255 256 269
1874 11 257 256 268
1875 11 257 256 269
1876 13 268 256 269
1877 3 254 255 256
1878 4 254 255 261
1879 3 256 255 261
1880 11 257 258 270
1881 11 257 258 271
1882 11 257 258 272
1883 13 270 258 271
1884 13 270 258 272
1885 13 271 258 272
1886 4 255 261 262
1887 9 255 261 279
1888 9 262 261 279
1889 2 127 157 158
1890 7 127 157 170
1891 7 127 157 171
1892 7 158 157 170
1893 7 158 157 171
1894 12 170 157 171
1895 4 322 323 324
1896 9 322 323 337
1897 9 324 323 337
1898 11 326 329 346
1899 11 326 329 347
1900 11 326 329 348
1901 13 346 329 347
1902 13 346 329 348
1903 13 347 329 348
1904 11 257 260 276
1905 11 257 260 277
1906 11 257 260 278
1907 13 276 260 277
1908 13 276 260 278
1909 13 277 260 278
1910 11 606 608 623
1911 11 606 608 624
1912 11 606 608 625
1913 13 623 608 624
1914 13 623 608 625
1915 13 624 608 625
1916 14 1869 1868 1870
1917 14 1896 1895 1897
1918 4 253 254 255
1919 9 253 254 267
1920 9 255 254 267
1921 14 1821 1820 1822
1922 14 1692 1691 1693
1923 11 133 135 149
1924 11 133 135 150
1925 11 133 135 151
1926 13 149 135 150
1927 13 149 135 151
1928 13 150 135 151
1929 7 1 14 313
1930 7 1 14 314
1931 7 1 14 315
1932 12 313 14 314
1933 12 313 14 315
1934 12 314 14 315
1935 14 1854 1853 1855
1936 14 1893 1892 1894
1937 14 1857 1856 1858
1938 14 1890 1889 1891
1939 14 1902 1901 1903
1940 14 1806 1805 1807
1941 2 2 1 14
1942 7 2 1 15
1943 7 2 1 16
1944 7 14 1 15
1945 7 14 1 16
1946 12 15 1 16
1947 11 326 328 343
1948 11 326 328 344
1949 11 326 328 345
1950 13 343 328 344
1951 13 343 328 345
1952 13 344 328 345
1953 5 324 325 326
1954 10 324 325 338
1955 10 324 325 339
1956 11 326 325 338
1957 11 326 325 339
1958 13 338 325 339
1959 1 1 2 3
1960 2 1 2 33
1961 1 3 2 33
1962 7 1 2 17
1963 8 3 2 17
1964 7 17 2 33
1965 2 34 64 65
1966 7 34 64 77
1967 7 34 64 78
1968 7 65 64 77
1969 7 65 64 78
1970 12 77 64 78
1971 2 2 33 34
1972 7 2 33 46
1973 7 2 33 47
1974 7 34 33 46
1975 7 34 33 47
1976 12 46 33 47
1977 1 33 34 35
1978 2 33 34 64
1979 1 35 34 64
1980 7 33 34 48
1981 8 35 34 48
1982 7 48 34 64
1983 1 64 65 66
1984 2 64 65 95
1985 1 66 65 95
1986 7 64 65 79
1987 8 66 65 79
1988 7 79 65 95
1989 2 65 95 96
1990 7 65 95 108
1991 7 65 95 109
1992 7 96 95 108
1993 7 96 95 109
1994 12 108 95 109
1995 3 65 66 67
1996 3 65 66 76
1997 4 67 66 76
1998 6 325 326 327
1999 6 325 326 328
2000 6 325 326 329
2001 6 327 326 328
2002 6 327 326 329
2003 6 328 326 329
2004 11 326 327 340
2005 11 326 327 341
2006 11 326 327 342
2007 13 340 327 341
2008 13 340 327 342
2009 13 341 327 342
2010 2 189 219 220
2011 7 189 219 232
2012 7 189 219 233
2013 7 220 219 232
2014 7 220 219 233
2015 12 232 219 233
2016 3 189 190 191
2017 3 189 190 200
2018 4 191 190 200
2019 2 158 188 189
2020 7 158 188 201
2021 7 158 188 202
2022 7 189 188 201
2023 7 189 188 202
2024 12 201 188 202
2025 4 190 200 199
2026 9 190 200 218
2027 9 199 200 218
2028 1 219 220 221
2029 2 219 220 250
2030 1 221 220 250
2031 7 219 220 234
2032 8 221 220 234
2033 7 234 220 250
2034 1 188 189 190
2035 2 188 189 219
2036 1 190 189 219
2037 7 188 189 203
2038 8 190 189 203
2039 7 203 189 219
2040 4 190 191 192
2041 9 190 191 204
2042 9 192 191 204
2043 1 157 158 159
2044 2 157 158 188
2045 1 159 158 188
2046 7 157 158 172
2047 8 159 158 172
2048 7 172 158 188
2049 3 220 221 222
2050 3 220 221 231
2051 4 222 221 231
2052 4 159 160 161
2053 9 159 160 173
2054 9 161 160 173
2055 4 193 199 200
2056 9 193 199 217
2057 9 200 199 217
2058 3 158 159 160
2059 3 158 159 169
2060 4 160 159 169
2061 4 191 192 193
2062 9 191 192 205
2063 9 193 192 205
2064 4 221 222 223
2065 9 221 222 235
2066 9 223 222 235
2067 14 1788 1787 1789
2068 4 252 262 261
2069 9 252 262 280
2070 9 261 262 280
2071 2 220 250 251
2072 7 220 250 263
2073 7 220 250 264
2074 7 251 250 263
2075 7 251 250 264
2076 12 263 250 264
2077 4 252 253 254
2078 9 252 253 266
2079 9 254 253 266
2080 3 251 252 253
2081 3 251 252 262
2082 4 253 252 262
2083 3 282 283 284
2084 3 282 283 293
2085 4 284 283 293
2086 2 251 281 282
2087 7 251 281 294
2088 7 251 281 295
2089 7 282 281 294
2090 7 282 281 295
2091 12 294 281 295
2092 1 281 282 283
2093 2 281 282 296
2094 1 283 282 296
2095 7 281 282 297
2096 8 283 282 297
2097 7 296 282 297
2098 4 283 293 292
2099 9 283 293 312
2100 9 292 293 312
2101 1 250 251 252
2102 2 250 251 281
2103 1 252 251 281
2104 7 250 251 265
2105 8 252 251 265
2106 7 265 251 281
2107 7 282 296 316
2108 7 282 296 317
2109 7 282 296 318
2110 12 316 296 317
2111 12 316 296 318
2112 12 317 296 318
2113 14 1860 1859 1861
2114 4 283 284 285
2115 9 283 284 298
2116 9 285 284 298
2117 14 1746 1745 1747
2118 3 285 286 287
2119 4 285 286 292
2120 3 287 286 292
2121 4 284 285 286
2122 9 284 285 299
2123 9 286 285 299
2124 11 71 73 87
2125 11 71 73 88
2126 11 71 73 89
2127 13 87 73 88
2128 13 87 73 89
2129 13 88 73 89
2130 6 70 71 72
2131 6 70 71 73
2132 6 70 71 74
2133 6 72 71 73
2134 6 72 71 74
2135 6 73 71 74
2136 11 71 72 84
2137 11 71 72 85
2138 11 71 72 86
2139 13 84 72 85
2140 13 84 72 86
2141 13 85 72 86
2142 11 71 74 90
2143 11 71 74 91
2144 11 71 74 92
2145 13 90 74 91
2146 13 90 74 92
2147 13 91 74 92
2148 5 69 70 71
2149 10 69 70 82
2150 10 69 70 83
2151 11 71 70 82
2152 11 71 70 83
2153 13 82 70 83
2154 11 164 165 177
2155 11 164 165 178
2156 11 164 165 179
2157 13 177 165 178
2158 13 177 165 179
2159 13 178 165 179
2160 5 162 163 164
2161 10 162 163 175
2162 10 162 163 176
2163 11 164 163 175
2164 11 164 163 176
2165 13 175 163 176
2166 3 161 162 163
2167 4 161 162 168
2168 3 163 162 168
2169 4 162 168 169
2170 9 162 168 186
2171 9 169 168 186
2172 14 1755 1754 1756
2173 4 69 75 76
2174 9 69 75 93
2175 9 76 75 93
2176 4 66 76 75
2177 9 66 76 94
2178 9 75 76 94
2179 3 68 69 70
2180 4 68 69 75
2181 3 70 69 75
2182 5 193 194 195
2183 10 193 194 206
2184 10 193 194 207
2185 11 195 194 206
2186 11 195 194 207
2187 13 206 194 207
2188 4 67 68 69
2189 9 67 68 81
2190 9 69 68 81
2191 4 159 169 168
2192 9 159 169 187
2193 9 168 169 187
2194 4 160 161 162
2195 9 160 161 174
2196 9 162 161 174
2197 3 192 193 194
2198 4 192 193 199
2199 3 194 193 199
2200 2 507 537 538
2201 7 507 537 550
2202 7 507 537 551
2203 7 538 537 550
2204 7 538 537 551
2205 12 550 537 551
2206 4 221 231 230
2207 9 221 231 249
2208 9 230 231 249
2209 4 286 292 293
2210 9 286 292 311
2211 9 293 292 311
2212 11 288 289 302
2213 11 288 289 303
2214 11 288 289 304
2215 13 302 289 303
2216 13 302 289 304
2217 13 303 289 304
2218 6 287 288 289
2219 6 287 288 290
2220 6 287 288 291
2221 6 289 288 290
2222 6 289 288 291
2223 6 290 288 291
2224 14 1794 1793 1795
2225 6 194 195 196
2226 6 194 195 197
2227 6 194 195 198
2228 6 196 195 197
2229 6 196 195 198
2230 6 197 195 198
2231 3 887 888 889
2232 3 887 888 898
2233 4 889 888 898
2234 2 856 886 887
2235 7 856 886 899
2236 7 856 886 900
2237 7 887 886 899
2238 7 887 886 900
2239 12 899 886 900
2240 2 887 917 918
2241 7 887 917 930
2242 7 887 917 931
2243 7 918 917 930
2244 7 918 917 931
2245 12 930 917 931
2246 1 917 918 919
2247 2 917 918 932
2248 1 919 918 932
2249 7 917 918 933
2250 8 919 918 933
2251 7 932 918 933
2252 7 918 932 952
2253 7 918 932 953
2254 7 918 932 954
2255 12 952 932 953
2256 12 952 932 954
2257 12 953 932 954
2258 1 886 887 888
2259 2 886 887 917
2260 1 888 887 917
2261 7 886 887 901
2262 8 888 887 901
2263 7 901 887 917
2264 3 918 919 920
2265 3 918 919 929
2266 4 920 919 929
2267 11 1529 1532 1548
2268 11 1529 1532 1549
2269 11 1529 1532 1550
2270 13 1548 1532 1549
2271 13 1548 1532 1550
2272 13 1549 1532 1550
2273 4 888 889 890
2274 9 888 889 902
2275 9 890 889 902
2276 1 824 825 826
2277 2 824 825 855
2278 1 826 825 855
2279 7 824 825 839
2280 8 826 825 839
2281 7 839 825 855
2282 4 826 827 828
2283 9 826 827 840
2284 9 828 827 840
2285 3 825 826 827
2286 3 825 826 836
2287 4 827 826 836
2288 3 828 829 830
2289 4 828 829 835
2290 3 830 829 835
2291 4 829 835 836
2292 9 829 835 853
2293 9 836 835 853
2294 4 826 836 835
2295 9 826 836 854
2296 9 835 836 854
2297 11 1312 1315 1331
2298 11 1312 1315 1332
2299 11 1312 1315 1333
2300 13 1331 1315 1332
2301 13 1331 1315 1333
2302 13 1332 1315 1333
2303 2 825 855 856
2304 7 825 855 868
2305 7 825 855 869
2306 7 856 855 868
2307 7 856 855 869
2308 12 868 855 869
2309 1 855 856 857
2310 2 855 856 886
2311 1 857 856 886
2312 7 855 856 870
2313 8 857 856 870
2314 7 870 856 886
2315 3 856 857 858
2316 3 856 857 867
2317 4 858 857 867
2318 5 1310 1311 1312
2319 10 1310 1311 1323
2320 10 1310 1311 1324
2321 11 1312 1311 1323
2322 11 1312 1311 1324
2323 13 1323 1311 1324
2324 3 1309 1310 1311
2325 4 1309 1310 1316
2326 3 1311 1310 1316
2327 4 1310 1316 1317
2328 9 1310 1316 1334
2329 9 1317 1316 1334
2330 4 1307 1317 1316
2331 9 1307 1317 1335
2332 9 1316 1317 1335
2333 4 1308 1309 1310
2334 9 1308 1309 1322
2335 9 1310 1309 1322
2336 3 1306 1307 1308
2337 3 1306 1307 1317
2338 4 1308 1307 1317
2339 4 1307 1308 1309
2340 9 1307 1308 1321
2341 9 1309 1308 1321
2342 1 1305 1306 1307
2343 2 1305 1306 1336
2344 1 1307 1306 1336
2345 7 1305 1306 1320
2346 8 1307 1306 1320
2347 7 1320 1306 1336
2348 6 1311 1312 1313
2349 6 1311 1312 1314
2350 6 1311 1312 1315
2351 6 1313 1312 1314
2352 6 1313 1312 1315
2353 6 1314 1312 1315
2354 11 1405 1407 1421
2355 11 1405 1407 1422
2356 11 1405 1407 1423
2357 13 1421 1407 1422
2358 13 1421 1407 1423
2359 13 1422 1407 1423
2360 6 1404 1405 1406
2361 6 1404 1405 1407
2362 6 1404 1405 1408
2363 6 1406 1405 1407
2364 6 1406 1405 1408
2365 6 1407 1405 1408
2366 11 1312 1313 1325
2367 11 1312 1313 1326
2368 11 1312 1313 1327
2369 13 1325 1313 1326
2370 13 1325 1313 1327
2371 13 1326 1313 1327
2372 5 1403 1404 1405
2373 10 1403 1404 1416
2374 10 1403 1404 1417
2375 11 1405 1404 1416
2376 11 1405 1404 1417
2377 13 1416 1404 1417
2378 3 1402 1403 1404
2379 4 1402 1403 1409
2380 3 1404 1403 1409
2381 4 1401 1402 1403
2382 9 1401 1402 1415
2383 9 1403 1402 1415
2384 11 513 514 526
2385 11 513 514 527
2386 11 513 514 528
2387 13 526 514 527
2388 13 526 514 528
2389 13 527 514 528
2390 6 512 513 514
2391 6 512 513 515
2392 6 512 513 516
2393 6 514 513 515
2394 6 514 513 516
2395 6 515 513 516
2396 11 513 515 529
2397 11 513 515 530
2398 11 513 515 531
2399 13 529 515 530
2400 13 529 515 531
2401 13 530 515 531
2402 4 1400 1401 1402
2403 9 1400 1401 1414
2404 9 1402 1401 1414
2405 11 1118 1121 1137
2406 11 1118 1121 1138
2407 11 1118 1121 1139
2408 13 1137 1121 1138
2409 13 1137 1121 1139
2410 13 1138 1121 1139
2411 3 1399 1400 1401
2412 3 1399 1400 1410
2413 4 1401 1400 1410
2414 4 1403 1409 1410
2415 9 1403 1409 1427
2416 9 1410 1409 1427
2417 4 1400 1410 1409
2418 9 1400 1410 1428
2419 9 1409 1410 1428
2420 7 319 332 631
2421 7 319 332 632
2422 7 319 332 633
2423 12 631 332 632
2424 12 631 332 633
2425 12 632 332 633
2426 2 320 319 332
2427 7 320 319 333
2428 7 320 319 334
2429 7 332 319 333
2430 7 332 319 334
2431 12 333 319 334
2432 5 1054 1055 1056
2433 10 1054 1055 1067
2434 10 1054 1055 1068
2435 11 1056 1055 1067
2436 11 1056 1055 1068
2437 13 1067 1055 1068
2438 11 1056 1057 1069
2439 11 1056 1057 1070
2440 11 1056 1057 1071
2441 13 1069 1057 1070
2442 13 1069 1057 1071
2443 13 1070 1057 1071
2444 11 1056 1059 1075
2445 11 1056 1059 1076
2446 11 1056 1059 1077
2447 13 1075 1059 1076
2448 13 1075 1059 1077
2449 13 1076 1059 1077
2450 4 919 929 928
2451 9 919 929 948
2452 9 928 929 948
2453 4 888 898 897
2454 9 888 898 916
2455 9 897 898 916
2456 4 922 928 929
2457 9 922 928 947
2458 9 929 928 947
2459 4 891 897 898
2460 9 891 897 915
2461 9 898 897 915
2462 4 889 890 891
2463 9 889 890 903
2464 9 891 890 903
2465 3 890 891 892
2466 4 890 891 897
2467 3 892 891 897
2468 5 891 892 893
2469 10 891 892 904
2470 10 891 892 905
2471 11 893 892 904
2472 11 893 892 905
2473 13 904 892 905
2474 14 1785 1784 1786
2475 14 1731 1730 1732
2476 11 831 834 850
2477 11 831 834 851
2478 11 831 834 852
2479 13 850 834 851
2480 13 850 834 852
2481 13 851 834 852
2482 11 893 894 906
2483 11 893 894 907
2484 11 893 894 908
2485 13 906 894 907
2486 13 906 894 908
2487 13 907 894 908
2488 11 893 895 909
2489 11 893 895 910
2490 11 893 895 911
2491 13 909 895 910
2492 13 909 895 911
2493 13 910 895 911
2494 6 892 893 894
2495 6 892 893 895
2496 6 892 893 896
2497 6 894 893 895
2498 6 894 893 896
2499 6 895 893 896
2500 11 893 896 912
2501 11 893 896 913
2502 11 893 896 914
2503 13 912 896 913
2504 13 912 896 914
2505 13 913 896 914
2506 14 1905 1904 1906
2507 7 1273 1286 1585
2508 7 1273 1286 1586
2509 7 1273 1286 1587
2510 12 1585 1286 1586
2511 12 1585 1286 1587
2512 12 1586 1286 1587
2513 2 1274 1273 1286
2514 7 1274 1273 1287
2515 7 1274 1273 1288
2516 7 1286 1273 1287
2517 7 1286 1273 1288
2518 12 1287 1273 1288
2519 2 1274 1305 1306
2520 7 1274 1305 1318
2521 7 1274 1305 1319
2522 7 1306 1305 1318
2523 7 1306 1305 1319
2524 12 1318 1305 1319
2525 1 1273 1274 1275
2526 2 1273 1274 1305
2527 1 1275 1274 1305
2528 7 1273 1274 1289
2529 8 1275 1274 1289
2530 7 1289 1274 1305
2531 11 40 41 53
2532 11 40 41 54
2533 11 40 41 55
2534 13 53 41 54
2535 13 53 41 55
2536 13 54 41 55
2537 11 40 42 56
2538 11 40 42 57
2539 11 40 42 58
2540 13 56 42 57
2541 13 56 42 58
2542 13 57 42 58
2543 3 37 38 39
2544 4 37 38 44
2545 3 39 38 44
2546 11 40 43 59
2547 11 40 43 60
2548 11 40 43 61
2549 13 59 43 60
2550 13 59 43 61
2551 13 60 43 61
2552 6 39 40 41
2553 6 39 40 42
2554 6 39 40 43
2555 6 41 40 42
2556 6 41 40 43
2557 6 42 40 43
2558 5 38 39 40
2559 10 38 39 51
2560 10 38 39 52
2561 11 40 39 51
2562 11 40 39 52
2563 13 51 39 52
2564 4 36 37 38
2565 9 36 37 50
2566 9 38 37 50
2567 6 1117 1118 1119
2568 6 1117 1118 1120
2569 6 1117 1118 1121
2570 6 1119 1118 1120
2571 6 1119 1118 1121
2572 6 1120 1118 1121
2573 11 1118 1119 1131
2574 11 1118 1119 1132
2575 11 1118 1119 1133
2576 13 1131 1119 1132
2577 13 1131 1119 1133
2578 13 1132 1119 1133
2579 4 129 130 131
2580 9 129 130 143
2581 9 131 130 143
2582 3 130 131 132
2583 4 130 131 137
2584 3 132 131 137
2585 4 131 137 138
2586 9 131 137 155
2587 9 138 137 155
2588 4 128 138 137
2589 9 128 138 156
2590 9 137 138 156
2591 4 128 129 130
2592 9 128 129 142
2593 9 130 129 142
2594 3 127 128 129
2595 3 127 128 138
2596 4 129 128 138
2597 6 1055 1056 1057
2598 6 1055 1056 1058
2599 6 1055 1056 1059
2600 6 1057 1056 1058
2601 6 1057 1056 1059
2602 6 1058 1056 1059
2603 11 1056 1058 1072
2604 11 1056 1058 1073
2605 11 1056 1058 1074
2606 13 1072 1058 1073
2607 13 1072 1058 1074
2608 13 1073 1058 1074
2609 1 126 127 128
2610 2 126 127 157
2611 1 128 127 157
2612 7 126 127 141
2613 8 128 127 141
2614 7 141 127 157
2615 11 738 740 754
2616 11 738 740 755
2617 11 738 740 756
2618 13 754 740 755
2619 13 754 740 756
2620 13 755 740 756
2621 2 96 126 127
2622 7 96 126 139
2623 7 96 126 140
2624 7 127 126 139
2625 7 127 126 140
2626 12 139 126 140
2627 6 737 738 739
2628 6 737 738 740
2629 6 737 738 741
2630 6 739 738 740
2631 6 739 738 741
2632 6 740 738 741
2633 3 1053 1054 1055
2634 4 1053 1054 1060
2635 3 1055 1054 1060
2636 5 131 132 133
2637 10 131 132 144
2638 10 131 132 145
2639 11 133 132 144
2640 11 133 132 145
2641 13 144 132 145
2642 14 1719 1718 1720
2643 6 132 133 134
2644 6 132 133 135
2645 6 132 133 136
2646 6 134 133 135
2647 6 134 133 136
2648 6 135 133 136
2649 11 133 134 146
2650 11 133 134 147
2651 11 133 134 148
2652 13 146 134 147
2653 13 146 134 148
2654 13 147 134 148
2655 11 133 136 152
2656 11 133 136 153
2657 11 133 136 154
2658 13 152 136 153
2659 13 152 136 154
2660 13 153 136 154
2661 14 1914 1913 1915
2662 14 1740 1739 1741
2663 4 734 735 736
2664 9 734 735 748
2665 9 736 735 748
2666 4 733 734 735
2667 9 733 734 747
2668 9 735 734 747
2669 14 1710 1709 1711
2670 7 637 650 949
2671 7 637 650 950
2672 7 637 650 951
2673 12 949 650 950
2674 12 949 650 951
2675 12 950 650 951
2676 4 38 44 45
2677 9 38 44 62
2678 9 45 44 62
2679 4 35 36 37
2680 9 35 36 49
2681 9 37 36 49
2682 3 34 35 36
2683 3 34 35 45
2684 4 36 35 45
2685 4 35 45 44
2686 9 35 45 63
2687 9 44 45 63
2688 11 1498 1500 1514
2689 11 1498 1500 1515
2690 11 1498 1500 1516
2691 13 1514 1500 1515
2692 13 1514 1500 1516
2693 13 1515 1500 1516
2694 4 66 67 68
2695 9 66 67 80
2696 9 68 67 80
2697 11 1211 1213 1227
2698 11 1211 1213 1228
2699 11 1211 1213 1229
2700 13 1227 1213 1228
2701 13 1227 1213 1229
2702 13 1228 1213 1229
2703 11 1498 1501 1517
2704 11 1498 1501 1518
2705 11 1498 1501 1519
2706 13 1517 1501 1518
2707 13 1517 1501 1519
2708 13 1518 1501 1519
2709 11 1498 1499 1511
2710 11 1498 1499 1512
2711 11 1498 1499 1513
2712 13 1511 1499 1512
2713 13 1511 1499 1513
2714 13 1512 1499 1513
2715 6 1497 1498 1499
2716 6 1497 1498 1500
2717 6 1497 1498 1501
2718 6 1499 1498 1500
2719 6 1499 1498 1501
2720 6 1500 1498 1501
2721 11 1211 1214 1230
2722 11 1211 1214 1231
2723 11 1211 1214 1232
2724 13 1230 1214 1231
2725 13 1230 1214 1232
2726 13 1231 1214 1232
2727 1 95 96 97
2728 2 95 96 126
2729 1 97 96 126
2730 7 95 96 110
2731 8 97 96 110
2732 7 110 96 126
2733 4 796 797 798
2734 9 796 797 810
2735 9 798 797 810
2736 5 798 799 800
2737 10 798 799 811
2738 10 798 799 812
2739 11 800 799 811
2740 11 800 799 812
2741 13 811 799 812
2742 3 797 798 799
2743 4 797 798 804
2744 3 799 798 804
2745 11 102 103 115
2746 11 102 103 116
2747 11 102 103 117
2748 13 115 103 116
2749 13 115 103 117
2750 13 116 103 117
2751 4 798 804 805
2752 9 798 804 822
2753 9 805 804 822
2754 11 800 803 819
2755 11 800 803 820
2756 11 800 803 821
2757 13 819 803 820
2758 13 819 803 821
2759 13 820 803 821
2760 6 799 800 801
2761 6 799 800 802
2762 6 799 800 803
2763 6 801 800 802
2764 6 801 800 803
2765 6 802 800 803
2766 11 800 801 813
2767 11 800 801 814
2768 11 800 801 815
2769 13 813 801 814
2770 13 813 801 815
2771 13 814 801 815
2772 4 795 805 804
2773 9 795 805 823
2774 9 804 805 823
2775 4 795 796 797
2776 9 795 796 809
2777 9 797 796 809
2778 3 794 795 796
2779 3 794 795 805
2780 4 796 795 805
2781 1 793 794 795
2782 2 793 794 824
2783 1 795 794 824
2784 7 793 794 808
2785 8 795 794 808
2786 7 808 794 824
2787 2 763 793 794
2788 7 763 793 806
2789 7 763 793 807
2790 7 794 793 806
2791 7 794 793 807
2792 12 806 793 807
2793 2 732 762 763
2794 7 732 762 775
2795 7 732 762 776
2796 7 763 762 775
2797 7 763 762 776
2798 12 775 762 776
2799 1 762 763 764
2800 2 762 763 793
2801 1 764 763 793
2802 7 762 763 777
2803 8 764 763 777
2804 7 777 763 793
2805 3 732 733 734
2806 3 732 733 743
2807 4 734 733 743
2808 3 763 764 765
2809 3 763 764 774
2810 4 765 764 774
2811 1 731 732 733
2812 2 731 732 762
2813 1 733 732 762
2814 7 731 732 746
2815 8 733 732 746
2816 7 746 732 762
2817 4 764 765 766
2818 9 764 765 778
2819 9 766 765 778
2820 2 701 731 732
2821 7 701 731 744
2822 7 701 731 745
2823 7 732 731 744
2824 7 732 731 745
2825 12 744 731 745
2826 11 1467 1469 1483
2827 11 1467 1469 1484
2828 11 1467 1469 1485
2829 13 1483 1469 1484
2830 13 1483 1469 1485
2831 13 1484 1469 1485
2832 14 1722 1721 1723
2833 14 1791 1790 1792
2834 14 1701 1700 1702
2835 11 1467 1468 1480
2836 11 1467 1468 1481
2837 11 1467 1468 1482
2838 13 1480 1468 1481
2839 13 1480 1468 1482
2840 13 1481 1468 1482
2841 6 1466 1467 1468
2842 6 1466 1467 1469
2843 6 1466 1467 1470
2844 6 1468 1467 1469
2845 6 1468 1467 1470
2846 6 1469 1467 1470
2847 11 1467 1470 1486
2848 11 1467 1470 1487
2849 11 1467 1470 1488
2850 13 1486 1470 1487
2851 13 1486 1470 1488
2852 13 1487 1470 1488
2853 4 97 98 99
2854 9 97 98 111
2855 9 99 98 111
2856 4 98 99 100
2857 9 98 99 112
2858 9 100 99 112
2859 5 1465 1466 1467
2860 10 1465 1466 1478
2861 10 1465 1466 1479
2862 11 1467 1466 1478
2863 11 1467 1466 1479
2864 13 1478 1466 1479
2865 3 1464 1465 1466
2866 4 1464 1465 1471
2867 3 1466 1465 1471
2868 4 1462 1472 1471
2869 9 1462 1472 1490
2870 9 1471 1472 1490
2871 4 1465 1471 1472
2872 9 1465 1471 1489
2873 9 1472 1471 1489
2874 3 96 97 98
2875 3 96 97 107
2876 4 98 97 107
2877 3 99 100 101
2878 4 99 100 106
2879 3 101 100 106
2880 5 100 101 102
2881 10 100 101 113
2882 10 100 101 114
2883 11 102 101 113
2884 11 102 101 114
2885 13 113 101 114
2886 4 97 107 106
2887 9 97 107 125
2888 9 106 107 125
2889 4 100 106 107
2890 9 100 106 124
2891 9 107 106 124
2892 6 101 102 103
2893 6 101 102 104
2894 6 101 102 105
2895 6 103 102 104
2896 6 103 102 105
2897 6 104 102 105
2898 11 102 104 118
2899 11 102 104 119
2900 11 102 104 120
2901 13 118 104 119
2902 13 118 104 120
2903 13 119 104 120
2904 4 222 223 224
2905 9 222 223 236
2906 9 224 223 236
2907 11 1529 1530 1542
2908 11 1529 1530 1543
2909 11 1529 1530 1544
2910 13 1542 1530 1543
2911 13 1542 1530 1544
2912 13 1543 1530 1544
2913 2 794 824 825
2914 7 794 824 837
2915 7 794 824 838
2916 7 825 824 837
2917 7 825 824 838
2918 12 837 824 838
2919 11 1312 1314 1328
2920 11 1312 1314 1329
2921 11 1312 1314 1330
2922 13 1328 1314 1329
2923 13 1328 1314 1330
2924 13 1329 1314 1330
2925 11 1405 1408 1424
2926 11 1405 1408 1425
2927 11 1405 1408 1426
2928 13 1424 1408 1425
2929 13 1424 1408 1426
2930 13 1425 1408 1426
2931 14 1812 1811 1813
2932 11 102 105 121
2933 11 102 105 122
2934 11 102 105 123
2935 13 121 105 122
2936 13 121 105 123
2937 13 122 105 123
2938 4 920 921 922
2939 9 920 921 935
2940 9 922 921 935
2941 6 1528 1529 1530
2942 6 1528 1529 1531
2943 6 1528 1529 1532
2944 6 1530 1529 1531
2945 6 1530 1529 1532
2946 6 1531 1529 1532
2947 11 1529 1531 1545
2948 11 1529 1531 1546
2949 11 1529 1531 1547
2950 13 1545 1531 1546
2951 13 1545 1531 1547
2952 13 1546 1531 1547
2953 4 919 920 921
2954 9 919 920 934
2955 9 921 920 934
2956 4 857 867 866
2957 9 857 867 885
2958 9 866 867 885
2959 11 769 771 785
2960 11 769 771 786
2961 11 769 771 787
2962 13 785 771 786
2963 13 785 771 787
2964 13 786 771 787
2965 4 857 858 859
2966 9 857 858 871
2967 9 859 858 871
2968 1 1336 1337 1338
2969 2 1336 1337 1367
2970 1 1338 1337 1367
2971 7 1336 1337 1351
2972 8 1338 1337 1351
2973 7 1351 1337 1367
2974 11 769 772 788
2975 11 769 772 789
2976 11 769 772 790
2977 13 788 772 789
2978 13 788 772 790
2979 13 789 772 790
2980 2 1306 1336 1337
2981 7 1306 1336 1349
2982 7 1306 1336 1350
2983 7 1337 1336 1349
2984 7 1337 1336 1350
2985 12 1349 1336 1350
2986 1 1398 1399 1400
2987 2 1398 1399 1429
2988 1 1400 1399 1429
2989 7 1398 1399 1413
2990 8 1400 1399 1413
2991 7 1413 1399 1429
2992 3 921 922 923
2993 4 921 922 928
2994 3 923 922 928
2995 4 1054 1060 1061
2996 9 1054 1060 1078
2997 9 1061 1060 1078
2998 14 1770 1769 1771
2999 4 1275 1276 1277
3000 9 1275 1276 1290
3001 9 1277 1276 1290
3002 4 1275 1285 1284
3003 9 1275 1285 1304
3004 9 1284 1285 1304
3005 3 1274 1275 1276
3006 3 1274 1275 1285
3007 4 1276 1275 1285
3008 11 1118 1120 1134
3009 11 1118 1120 1135
3010 11 1118 1120 1136
3011 13 1134 1120 1135
3012 13 1134 1120 1136
3013 13 1135 1120 1136
3014 4 1114 1115 1116
3015 9 1114 1115 1128
3016 9 1116 1115 1128
3017 5 1116 1117 1118
3018 10 1116 1117 1129
3019 10 1116 1117 1130
3020 11 1118 1117 1129
3021 11 1118 1117 1130
3022 13 1129 1117 1130
3023 5 736 737 738
3024 10 736 737 749
3025 10 736 737 750
3026 11 738 737 749
3027 11 738 737 750
3028 13 749 737 750
3029 11 738 741 757
3030 11 738 741 758
3031 11 738 741 759
3032 13 757 741 758
3033 13 757 741 759
3034 13 758 741 759
3035 11 738 739 751
3036 11 738 739 752
3037 11 738 739 753
3038 13 751 739 752
3039 13 751 739 753
3040 13 752 739 753
3041 4 1052 1053 1054
3042 9 1052 1053 1066
3043 9 1054 1053 1066
3044 3 735 736 737
3045 4 735 736 742
3046 3 737 736 742
3047 14 1743 1742 1744
3048 2 638 637 650
3049 7 638 637 651
3050 7 638 637 652
3051 7 650 637 651
3052 7 650 637 652
3053 12 651 637 652
3054 2 670 700 701
3055 7 670 700 713
3056 7 670 700 714
3057 7 701 700 713
3058 7 701 700 714
3059 12 713 700 714
3060 5 1209 1210 1211
3061 10 1209 1210 1222
3062 10 1209 1210 1223
3063 11 1211 1210 1222
3064 11 1211 1210 1223
3065 13 1222 1210 1223
3066 5 1496 1497 1498
3067 10 1496 1497 1509
3068 10 1496 1497 1510
3069 11 1498 1497 1509
3070 11 1498 1497 1510
3071 13 1509 1497 1510
3072 6 1210 1211 1212
3073 6 1210 1211 1213
3074 6 1210 1211 1214
3075 6 1212 1211 1213
3076 6 1212 1211 1214
3077 6 1213 1211 1214
3078 4 1494 1495 1496
3079 9 1494 1495 1508
3080 9 1496 1495 1508
3081 11 800 802 816
3082 11 800 802 817
3083 11 800 802 818
3084 13 816 802 817
3085 13 816 802 818
3086 13 817 802 818
3087 4 733 743 742
3088 9 733 743 761
3089 9 742 743 761
3090 4 764 774 773
3091 9 764 774 792
3092 9 773 774 792
3093 4 765 766 767
3094 9 765 766 779
3095 9 767 766 779
3096 1 700 701 702
3097 2 700 701 731
3098 1 702 701 731
3099 7 700 701 715
3100 8 702 701 715
3101 7 715 701 731
3102 14 1827 1826 1828
3103 4 1462 1463 1464
3104 9 1462 1463 1476
3105 9 1464 1463 1476
3106 2 1430 1460 1461
3107 7 1430 1460 1473
3108 7 1430 1460 1474
3109 7 1461 1460 1473
3110 7 1461 1460 1474
3111 12 1473 1460 1474
3112 1 1460 1461 1462
3113 2 1460 1461 1491
3114 1 1462 1461 1491
3115 7 1460 1461 1475
3116 8 1462 1461 1475
3117 7 1475 1461 1491
3118 1 1429 1430 1431
3119 2 1429 1430 1460
3120 1 1431 1430 1460
3121 7 1429 1430 1444
3122 8 1431 1430 1444
3123 7 1444 1430 1460
3124 3 1461 1462 1463
3125 3 1461 1462 1472
3126 4 1463 1462 1472
3127 4 1463 1464 1465
3128 9 1463 1464 1477
3129 9 1465 1464 1477
3130 2 1399 1429 1430
3131 7 1399 1429 1442
3132 7 1399 1429 1443
3133 7 1430 1429 1442
3134 7 1430 1429 1443
3135 12 1442 1429 1443

Dihedrals

1 6 1527 1528 1529 1530
2 7 1527 1528 1529 1530
3 6 1527 1528 1529 1531
4 7 1527 1528 1529 1531
5 6 1527 1528 1529 1532
6 7 1527 1528 1529 1532
7 5 1529 1528 1527 1533
8 4 419 420 421 433
9 4 419 420 421 434
10 4 419 420 421 435
11 4 419 420 422 436
12 4 419 420 422 437
13 4 419 420 422 438
14 4 419 420 423 439
15 4 419 420 423 440
16 4 419 420 423 441
17 4 421 420 419 431
18 4 421 420 419 432
19 4 421 420 422 436
20 4 421 420 422 437
21 4 421 420 422 438
22 4 421 420 423 439
23 4 421 420 423 440
24 4 421 420 423 441
25 4 422 420 419 431
26 4 422 420 419 432
27 4 422 420 421 433
28 4 422 420 421 434
29 4 422 420 421 435
30 4 422 420 423 439
31 4 422 420 423 440
32 4 422 420 423 441
33 4 423 420 419 431
34 4 423 420 419 432
35 4 423 420 421 433
36 4 423 420 421 434
37 4 423 420 421 435
38 4 423 420 422 436
39 4 423 420 422 437
40 4 423 420 422 438
41 3 1558 1564 1565 1584
42 3 1583 1564 1565 1584
43 6 1558 1559 1560 1561
44 7 1558 1559 1560 1561
45 6 1558 1559 1560 1562
46 7 1558 1559 1560 1562
47 6 1558 1559 1560 1563
48 7 1558 1559 1560 1563
49 5 1560 1559 1558 1564
50 5 1557 1558 1559 1560
51 3 1557 1558 1564 1565
52 3 1559 1558 1564 1565
53 5 1557 1558 1559 1572
54 5 1557 1558 1559 1573
55 3 1557 1558 1564 1583
56 3 1559 1558 1557 1571
57 3 1559 1558 1564 1583
58 3 1564 1558 1557 1571
59 5 1564 1558 1559 1572
60 5 1564 1558 1559 1573
61 3 860 866 867 885
62 3 884 866 867 885
63 5 859 860 861 862
64 3 859 860 866 867
65 3 861 860 866 867
66 5 859 860 861 873
67 5 859 860 861 874
68 3 859 860 866 884
69 3 861 860 859 872
70 3 861 860 866 884
71 3 866 860 859 872
72 5 866 860 861 873
73 5 866 860 861 874
74 6 860 861 862 863
75 7 860 861 862 863
76 6 860 861 862 864
77 7 860 861 862 864
78 6 860 861 862 865
79 7 860 861 862 865
80 5 862 861 860 866
81 3 858 859 860 861
82 3 858 859 860 866
83 3 860 859 858 871
84 4 768 769 770 782
85 4 768 769 770 783
86 4 768 769 770 784
87 4 768 769 771 785
88 4 768 769 771 786
89 4 768 769 771 787
90 4 768 769 772 788
91 4 768 769 772 789
92 4 768 769 772 790
93 4 770 769 768 780
94 4 770 769 768 781
95 4 770 769 771 785
96 4 770 769 771 786
97 4 770 769 771 787
98 4 770 769 772 788
99 4 770 769 772 789
100 4 770 769 772 790
101 4 771 769 768 780
102 4 771 769 768 781
103 4 771 769 770 782
104 4 771 769 770 783
105 4 771 769 770 784
106 4 771 769 772 788
107 4 771 769 772 789
108 4 771 769 772 790
109 4 772 769 768 780
110 4 772 769 768 781
111 4 772 769 770 782
112 4 772 769 770 783
113 4 772 769 770 784
114 4 772 769 771 785
115 4 772 769 771 786
116 4 772 769 771 787
117 4 861 862 863 875
118 4 861 862 863 876
119 4 861 862 863 877
120 4 861 862 864 878
121 4 861 862 864 879
122 4 861 862 864 880
123 4 861 862 865 881
124 4 861 862 865 882
125 4 861 862 865 883
126 4 863 862 861 873
127 4 863 862 861 874
128 4 863 862 864 878
129 4 863 862 864 879
130 4 863 862 864 880
131 4 863 862 865 881
132 4 863 862 865 882
133 4 863 862 865 883
134 4 864 862 861 873
135 4 864 862 861 874
136 4 864 862 863 875
137 4 864 862 863 876
138 4 864 862 863 877
139 4 864 862 865 881
140 4 864 862 865 882
141 4 864 862 865 883
142 4 865 862 861 873
143 4 865 862 861 874
144 4 865 862 863 875
145 4 865 862 863 876
146 4 865 862 863 877
147 4 865 862 864 878
148 4 865 862 864 879
149 4 865 862 864 880
150 6 767 768 769 770
151 7 767 768 769 770
152 6 767 768 769 771
153 7 767 768 769 771
154 6 767 768 769 772
155 7 767 768 769 772
156 5 769 768 767 773
157 3 1338 1339 1340 1341
158 3 1340 1339 1338 1348
159 3 1338 1339 1340 1353
160 3 1352 1339 1340 1353
161 3 1337 1338 1339 1340
162 3 1337 1338 1348 1347
163 1 1339 1338 1337 1367
164 3 1339 1338 1348 1347
165 1 1348 1338 1337 1367
166 3 1337 1338 1339 1352
167 3 1337 1338 1348 1366
168 9 1339 1338 1337 1351
169 5 1339 1338 1337 1351
170 3 1339 1338 1348 1366
171 9 1348 1338 1337 1351
172 5 1348 1338 1337 1351
173 3 1348 1338 1339 1352
174 3 1338 1348 1347 1341
175 3 1338 1348 1347 1365
176 3 1369 1379 1378 1372
177 3 1369 1379 1378 1396
178 3 1339 1340 1341 1342
179 3 1339 1340 1341 1347
180 3 1341 1340 1339 1352
181 3 1341 1347 1348 1366
182 3 1365 1347 1348 1366
183 5 1340 1341 1342 1343
184 3 1340 1341 1347 1348
185 3 1342 1341 1347 1348
186 5 1340 1341 1342 1354
187 5 1340 1341 1342 1355
188 3 1340 1341 1347 1365
189 3 1342 1341 1340 1353
190 3 1342 1341 1347 1365
191 3 1347 1341 1340 1353
192 5 1347 1341 1342 1354
193 5 1347 1341 1342 1355
194 5 1371 1372 1373 1374
195 3 1371 1372 1378 1379
196 3 1373 1372 1378 1379
197 5 1371 1372 1373 1385
198 5 1371 1372 1373 1386
199 3 1371 1372 1378 1396
200 3 1373 1372 1371 1384
201 3 1373 1372 1378 1396
202 3 1378 1372 1371 1384
203 5 1378 1372 1373 1385
204 5 1378 1372 1373 1386
205 3 1370 1371 1372 1373
206 3 1370 1371 1372 1378
207 3 1372 1371 1370 1383
208 6 1341 1342 1343 1344
209 7 1341 1342 1343 1344
210 6 1341 1342 1343 1345
211 7 1341 1342 1343 1345
212 6 1341 1342 1343 1346
213 7 1341 1342 1343 1346
214 5 1343 1342 1341 1347
215 4 1342 1343 1344 1356
216 4 1342 1343 1344 1357
217 4 1342 1343 1344 1358
218 4 1342 1343 1345 1359
219 4 1342 1343 1345 1360
220 4 1342 1343 1345 1361
221 4 1342 1343 1346 1362
222 4 1342 1343 1346 1363
223 4 1342 1343 1346 1364
224 4 1344 1343 1342 1354
225 4 1344 1343 1342 1355
226 4 1344 1343 1345 1359
227 4 1344 1343 1345 1360
228 4 1344 1343 1345 1361
229 4 1344 1343 1346 1362
230 4 1344 1343 1346 1363
231 4 1344 1343 1346 1364
232 4 1345 1343 1342 1354
233 4 1345 1343 1342 1355
234 4 1345 1343 1344 1356
235 4 1345 1343 1344 1357
236 4 1345 1343 1344 1358
237 4 1345 1343 1346 1362
238 4 1345 1343 1346 1363
239 4 1345 1343 1346 1364
240 4 1346 1343 1342 1354
241 4 1346 1343 1342 1355
242 4 1346 1343 1344 1356
243 4 1346 1343 1344 1357
244 4 1346 1343 1344 1358
245 4 1346 1343 1345 1359
246 4 1346 1343 1345 1360
247 4 1346 1343 1345 1361
248 4 1337 1367 1368 1369
249 2 1337 1367 1368 1398
250 8 1337 1367 1368 1382
251 10 1380 1367 1368 1382
252 8 1380 1367 1368 1398
253 10 1381 1367 1368 1382
254 8 1381 1367 1368 1398
255 3 1368 1369 1370 1371
256 3 1368 1369 1379 1378
257 1 1370 1369 1368 1398
258 3 1370 1369 1379 1378
259 1 1379 1369 1368 1398
260 3 1368 1369 1370 1383
261 3 1368 1369 1379 1397
262 9 1370 1369 1368 1382
263 5 1370 1369 1368 1382
264 3 1370 1369 1379 1397
265 9 1379 1369 1368 1382
266 5 1379 1369 1368 1382
267 3 1379 1369 1370 1383
268 3 1369 1370 1371 1372
269 3 1371 1370 1369 1379
270 3 1369 1370 1371 1384
271 3 1383 1370 1371 1384
272 1 1367 1368 1369 1370
273 1 1367 1368 1369 1379
274 2 1367 1368 1398 1399
275 4 1369 1368 1398 1399
276 8 1367 1368 1398 1411
277 8 1367 1368 1398 1412
278 4 1369 1368 1367 1380
279 4 1369 1368 1367 1381
280 4 1369 1368 1398 1411
281 4 1369 1368 1398 1412
282 8 1382 1368 1398 1399
283 10 1382 1368 1398 1411
284 10 1382 1368 1398 1412
285 4 1368 1398 1399 1400
286 2 1368 1398 1399 1429
287 8 1368 1398 1399 1413
288 10 1411 1398 1399 1413
289 8 1411 1398 1399 1429
290 10 1412 1398 1399 1413
291 8 1412 1398 1399 1429
292 3 1556 1557 1558 1559
293 3 1556 1557 1558 1564
294 3 1558 1557 1556 1570
295 4 1559 1560 1561 1574
296 4 1559 1560 1561 1575
297 4 1559 1560 1561 1576
298 4 1559 1560 1562 1577
299 4 1559 1560 1562 1578
300 4 1559 1560 1562 1579
301 4 1559 1560 1563 1580
302 4 1559 1560 1563 1581
303 4 1559 1560 1563 1582
304 4 1561 1560 1559 1572
305 4 1561 1560 1559 1573
306 4 1561 1560 1562 1577
307 4 1561 1560 1562 1578
308 4 1561 1560 1562 1579
309 4 1561 1560 1563 1580
310 4 1561 1560 1563 1581
311 4 1561 1560 1563 1582
312 4 1562 1560 1559 1572
313 4 1562 1560 1559 1573
314 4 1562 1560 1561 1574
315 4 1562 1560 1561 1575
316 4 1562 1560 1561 1576
317 4 1562 1560 1563 1580
318 4 1562 1560 1563 1581
319 4 1562 1560 1563 1582
320 4 1563 1560 1559 1572
321 4 1563 1560 1559 1573
322 4 1563 1560 1561 1574
323 4 1563 1560 1561 1575
324 4 1563 1560 1561 1576
325 4 1563 1560 1562 1577
326 4 1563 1560 1562 1578
327 4 1563 1560 1562 1579
328 4 923 924 925 938
329 4 923 924 925 939
330 4 923 924 925 940
331 4 923 924 926 941
332 4 923 924 926 942
333 4 923 924 926 943
334 4 923 924 927 944
335 4 923 924 927 945
336 4 923 924 927 946
337 4 925 924 923 936
338 4 925 924 923 937
339 4 925 924 926 941
340 4 925 924 926 942
341 4 925 924 926 943
342 4 925 924 927 944
343 4 925 924 927 945
344 4 925 924 927 946
345 4 926 924 923 936
346 4 926 924 923 937
347 4 926 924 925 938
348 4 926 924 925 939
349 4 926 924 925 940
350 4 926 924 927 944
351 4 926 924 927 945
352 4 926 924 927 946
353 4 927 924 923 936
354 4 927 924 923 937
355 4 927 924 925 938
356 4 927 924 925 939
357 4 927 924 925 940
358 4 927 924 926 941
359 4 927 924 926 942
360 4 927 924 926 943
361 6 922 923 924 925
362 7 922 923 924 925
363 6 922 923 924 926
364 7 922 923 924 926
365 6 922 923 924 927
366 7 922 923 924 927
367 5 924 923 922 928
368 3 1082 1092 1091 1085
369 3 1082 1092 1091 1109
370 3 1081 1082 1083 1084
371 3 1081 1082 1092 1091
372 1 1083 1082 1081 1111
373 3 1083 1082 1092 1091
374 1 1092 1082 1081 1111
375 3 1081 1082 1083 1096
376 3 1081 1082 1092 1110
377 9 1083 1082 1081 1095
378 5 1083 1082 1081 1095
379 3 1083 1082 1092 1110
380 9 1092 1082 1081 1095
381 5 1092 1082 1081 1095
382 3 1092 1082 1083 1096
383 6 418 419 420 421
384 7 418 419 420 421
385 6 418 419 420 422
386 7 418 419 420 422
387 6 418 419 420 423
388 7 418 419 420 423
389 5 420 419 418 424
390 6 1278 1279 1280 1281
391 7 1278 1279 1280 1281
392 6 1278 1279 1280 1282
393 7 1278 1279 1280 1282
394 6 1278 1279 1280 1283
395 7 1278 1279 1280 1283
396 5 1280 1279 1278 1284
397 4 1279 1280 1281 1294
398 4 1279 1280 1281 1295
399 4 1279 1280 1281 1296
400 4 1279 1280 1282 1297
401 4 1279 1280 1282 1298
402 4 1279 1280 1282 1299
403 4 1279 1280 1283 1300
404 4 1279 1280 1283 1301
405 4 1279 1280 1283 1302
406 4 1281 1280 1279 1292
407 4 1281 1280 1279 1293
408 4 1281 1280 1282 1297
409 4 1281 1280 1282 1298
410 4 1281 1280 1282 1299
411 4 1281 1280 1283 1300
412 4 1281 1280 1283 1301
413 4 1281 1280 1283 1302
414 4 1282 1280 1279 1292
415 4 1282 1280 1279 1293
416 4 1282 1280 1281 1294
417 4 1282 1280 1281 1295
418 4 1282 1280 1281 1296
419 4 1282 1280 1283 1300
420 4 1282 1280 1283 1301
421 4 1282 1280 1283 1302
422 4 1283 1280 1279 1292
423 4 1283 1280 1279 1293
424 4 1283 1280 1281 1294
425 4 1283 1280 1281 1295
426 4 1283 1280 1281 1296
427 4 1283 1280 1282 1297
428 4 1283 1280 1282 1298
429 4 1283 1280 1282 1299
430 3 1278 1284 1285 1304
431 3 1303 1284 1285 1304
432 5 1277 1278 1279 1280
433 3 1277 1278 1284 1285
434 3 1279 1278 1284 1285
435 5 1277 1278 1279 1292
436 5 1277 1278 1279 1293
437 3 1277 1278 1284 1303
438 3 1279 1278 1277 1291
439 3 1279 1278 1284 1303
440 3 1284 1278 1277 1291
441 5 1284 1278 1279 1292
442 5 1284 1278 1279 1293
443 3 1276 1277 1278 1279
444 3 1276 1277 1278 1284
445 3 1278 1277 1276 1290
446 5 1208 1209 1210 1211
447 3 1208 1209 1215 1216
448 3 1210 1209 1215 1216
449 5 1208 1209 1210 1222
450 5 1208 1209 1210 1223
451 3 1208 1209 1215 1233
452 3 1210 1209 1208 1221
453 3 1210 1209 1215 1233
454 3 1215 1209 1208 1221
455 5 1215 1209 1210 1222
456 5 1215 1209 1210 1223
457 3 1209 1215 1216 1234
458 3 1233 1215 1216 1234
459 3 1206 1216 1215 1209
460 3 1206 1216 1215 1233
461 3 1205 1206 1207 1208
462 3 1205 1206 1216 1215
463 1 1207 1206 1205 1235
464 3 1207 1206 1216 1215
465 1 1216 1206 1205 1235
466 3 1205 1206 1207 1220
467 3 1205 1206 1216 1234
468 9 1207 1206 1205 1219
469 5 1207 1206 1205 1219
470 3 1207 1206 1216 1234
471 9 1216 1206 1205 1219
472 5 1216 1206 1205 1219
473 3 1216 1206 1207 1220
474 1 1204 1205 1206 1207
475 1 1204 1205 1206 1216
476 2 1204 1205 1235 1236
477 4 1206 1205 1235 1236
478 8 1204 1205 1235 1248
479 8 1204 1205 1235 1249
480 4 1206 1205 1204 1217
481 4 1206 1205 1204 1218
482 4 1206 1205 1235 1248
483 4 1206 1205 1235 1249
484 8 1219 1205 1235 1236
485 10 1219 1205 1235 1248
486 10 1219 1205 1235 1249
487 4 1174 1204 1205 1206
488 2 1174 1204 1205 1235
489 8 1174 1204 1205 1219
490 10 1217 1204 1205 1219
491 8 1217 1204 1205 1235
492 10 1218 1204 1205 1219
493 8 1218 1204 1205 1235
494 3 1207 1208 1209 1210
495 3 1207 1208 1209 1215
496 3 1209 1208 1207 1220
497 3 1206 1207 1208 1209
498 3 1208 1207 1206 1216
499 3 1206 1207 1208 1221
500 3 1220 1207 1208 1221
501 4 1205 1235 1236 1237
502 2 1205 1235 1236 1250
503 8 1205 1235 1236 1251
504 8 1248 1235 1236 1250
505 10 1248 1235 1236 1251
506 8 1249 1235 1236 1250
507 10 1249 1235 1236 1251
508 3 1112 1113 1114 1115
509 3 1112 1113 1123 1122
510 1 1114 1113 1112 1142
511 3 1114 1113 1123 1122
512 1 1123 1113 1112 1142
513 3 1112 1113 1114 1127
514 3 1112 1113 1123 1141
515 9 1114 1113 1112 1126
516 5 1114 1113 1112 1126
517 3 1114 1113 1123 1141
518 9 1123 1113 1112 1126
519 5 1123 1113 1112 1126
520 3 1123 1113 1114 1127
521 4 1112 1142 1143 1144
522 2 1112 1142 1143 1173
523 8 1112 1142 1143 1157
524 10 1155 1142 1143 1157
525 8 1155 1142 1143 1173
526 10 1156 1142 1143 1157
527 8 1156 1142 1143 1173
528 1 1111 1112 1113 1114
529 1 1111 1112 1113 1123
530 2 1111 1112 1142 1143
531 4 1113 1112 1142 1143
532 8 1111 1112 1142 1155
533 8 1111 1112 1142 1156
534 4 1113 1112 1111 1124
535 4 1113 1112 1111 1125
536 4 1113 1112 1142 1155
537 4 1113 1112 1142 1156
538 8 1126 1112 1142 1143
539 10 1126 1112 1142 1155
540 10 1126 1112 1142 1156
541 1 1235 1236 1237 1238
542 1 1235 1236 1237 1247
543 8 1235 1236 1250 1270
544 8 1235 1236 1250 1271
545 8 1235 1236 1250 1272
546 4 1237 1236 1235 1248
547 4 1237 1236 1235 1249
548 4 1237 1236 1250 1270
549 4 1237 1236 1250 1271
550 4 1237 1236 1250 1272
551 10 1251 1236 1250 1270
552 10 1251 1236 1250 1271
553 10 1251 1236 1250 1272
554 4 1143 1173 1174 1175
555 2 1143 1173 1174 1204
556 8 1143 1173 1174 1188
557 10 1186 1173 1174 1188
558 8 1186 1173 1174 1204
559 10 1187 1173 1174 1188
560 8 1187 1173 1174 1204
561 1 1173 1174 1175 1176
562 1 1173 1174 1175 1185
563 2 1173 1174 1204 1205
564 4 1175 1174 1204 1205
565 8 1173 1174 1204 1217
566 8 1173 1174 1204 1218
567 4 1175 1174 1173 1186
568 4 1175 1174 1173 1187
569 4 1175 1174 1204 1217
570 4 1175 1174 1204 1218
571 8 1188 1174 1204 1205
572 10 1188 1174 1204 1217
573 10 1188 1174 1204 1218
574 3 1237 1238 1239 1240
575 3 1239 1238 1237 1247
576 3 1237 1238 1239 1253
577 3 1252 1238 1239 1253
578 3 1236 1237 1238 1239
579 3 1236 1237 1247 1246
580 1 1238 1237 1236 1250
581 3 1238 1237 1247 1246
582 1 1247 1237 1236 1250
583 3 1236 1237 1238 1252
584 3 1236 1237 1247 1266
585 9 1238 1237 1236 1251
586 5 1238 1237 1236 1251
587 3 1238 1237 1247 1266
588 9 1247 1237 1236 1251
589 5 1247 1237 1236 1251
590 3 1247 1237 1238 1252
591 3 1113 1114 1115 1116
592 3 1115 1114 1113 1123
593 3 1113 1114 1115 1128
594 3 1127 1114 1115 1128
595 3 1113 1123 1122 1116
596 3 1113 1123 1122 1140
597 5 1115 1116 1117 1118
598 3 1115 1116 1122 1123
599 3 1117 1116 1122 1123
600 5 1115 1116 1117 1129
601 5 1115 1116 1117 1130
602 3 1115 1116 1122 1140
603 3 1117 1116 1115 1128
604 3 1117 1116 1122 1140
605 3 1122 1116 1115 1128
606 5 1122 1116 1117 1129
607 5 1122 1116 1117 1130
608 3 1116 1122 1123 1141
609 3 1140 1122 1123 1141
610 3 1051 1061 1060 1054
611 3 1051 1061 1060 1078
612 4 1019 1049 1050 1051
613 2 1019 1049 1050 1080
614 8 1019 1049 1050 1064
615 10 1062 1049 1050 1064
616 8 1062 1049 1050 1080
617 10 1063 1049 1050 1064
618 8 1063 1049 1050 1080
619 3 1050 1051 1052 1053
620 3 1050 1051 1061 1060
621 1 1052 1051 1050 1080
622 3 1052 1051 1061 1060
623 1 1061 1051 1050 1080
624 3 1050 1051 1052 1065
625 3 1050 1051 1061 1079
626 9 1052 1051 1050 1064
627 5 1052 1051 1050 1064
628 3 1052 1051 1061 1079
629 9 1061 1051 1050 1064
630 5 1061 1051 1050 1064
631 3 1061 1051 1052 1065
632 1 1049 1050 1051 1052
633 1 1049 1050 1051 1061
634 2 1049 1050 1080 1081
635 4 1051 1050 1080 1081
636 8 1049 1050 1080 1093
637 8 1049 1050 1080 1094
638 4 1051 1050 1049 1062
639 4 1051 1050 1049 1063
640 4 1051 1050 1080 1093
641 4 1051 1050 1080 1094
642 8 1064 1050 1080 1081
643 10 1064 1050 1080 1093
644 10 1064 1050 1080 1094
645 4 988 1018 1019 1020
646 2 988 1018 1019 1049
647 8 988 1018 1019 1033
648 10 1031 1018 1019 1033
649 8 1031 1018 1019 1049
650 10 1032 1018 1019 1033
651 8 1032 1018 1019 1049
652 1 1018 1019 1020 1021
653 1 1018 1019 1020 1030
654 2 1018 1019 1049 1050
655 4 1020 1019 1049 1050
656 8 1018 1019 1049 1062
657 8 1018 1019 1049 1063
658 4 1020 1019 1018 1031
659 4 1020 1019 1018 1032
660 4 1020 1019 1049 1062
661 4 1020 1019 1049 1063
662 8 1033 1019 1049 1050
663 10 1033 1019 1049 1062
664 10 1033 1019 1049 1063
665 3 1051 1052 1053 1054
666 3 1053 1052 1051 1061
667 3 1051 1052 1053 1066
668 3 1065 1052 1053 1066
669 4 1050 1080 1081 1082
670 2 1050 1080 1081 1111
671 8 1050 1080 1081 1095
672 10 1093 1080 1081 1095
673 8 1093 1080 1081 1111
674 10 1094 1080 1081 1095
675 8 1094 1080 1081 1111
676 3 1019 1020 1021 1022
677 3 1019 1020 1030 1029
678 1 1021 1020 1019 1049
679 3 1021 1020 1030 1029
680 1 1030 1020 1019 1049
681 3 1019 1020 1021 1034
682 3 1019 1020 1030 1048
683 9 1021 1020 1019 1033
684 5 1021 1020 1019 1033
685 3 1021 1020 1030 1048
686 9 1030 1020 1019 1033
687 5 1030 1020 1019 1033
688 3 1030 1020 1021 1034
689 1 1080 1081 1082 1083
690 1 1080 1081 1082 1092
691 2 1080 1081 1111 1112
692 4 1082 1081 1111 1112
693 8 1080 1081 1111 1124
694 8 1080 1081 1111 1125
695 4 1082 1081 1080 1093
696 4 1082 1081 1080 1094
697 4 1082 1081 1111 1124
698 4 1082 1081 1111 1125
699 8 1095 1081 1111 1112
700 10 1095 1081 1111 1124
701 10 1095 1081 1111 1125
702 3 1493 1494 1495 1496
703 3 1495 1494 1493 1503
704 3 1493 1494 1495 1508
705 3 1507 1494 1495 1508
706 3 1020 1021 1022 1023
707 3 1022 1021 1020 1030
708 3 1020 1021 1022 1035
709 3 1034 1021 1022 1035
710 3 1020 1030 1029 1023
711 3 1020 1030 1029 1047
712 3 1023 1029 1030 1048
713 3 1047 1029 1030 1048
714 3 702 712 711 705
715 3 702 712 711 729
716 3 705 711 712 730
717 3 729 711 712 730
718 5 704 705 706 707
719 3 704 705 711 712
720 3 706 705 711 712
721 5 704 705 706 718
722 5 704 705 706 719
723 3 704 705 711 729
724 3 706 705 704 717
725 3 706 705 711 729
726 3 711 705 704 717
727 5 711 705 706 718
728 5 711 705 706 719
729 6 705 706 707 708
730 7 705 706 707 708
731 6 705 706 707 709
732 7 705 706 707 709
733 6 705 706 707 710
734 7 705 706 707 710
735 5 707 706 705 711
736 4 706 707 708 720
737 4 706 707 708 721
738 4 706 707 708 722
739 4 706 707 709 723
740 4 706 707 709 724
741 4 706 707 709 725
742 4 706 707 710 726
743 4 706 707 710 727
744 4 706 707 710 728
745 4 708 707 706 718
746 4 708 707 706 719
747 4 708 707 709 723
748 4 708 707 709 724
749 4 708 707 709 725
750 4 708 707 710 726
751 4 708 707 710 727
752 4 708 707 710 728
753 4 709 707 706 718
754 4 709 707 706 719
755 4 709 707 708 720
756 4 709 707 708 721
757 4 709 707 708 722
758 4 709 707 710 726
759 4 709 707 710 727
760 4 709 707 710 728
761 4 710 707 706 718
762 4 710 707 706 719
763 4 710 707 708 720
764 4 710 707 708 721
765 4 710 707 708 722
766 4 710 707 709 723
767 4 710 707 709 724
768 4 710 707 709 725
769 3 701 702 703 704
770 3 701 702 712 711
771 1 703 702 701 731
772 3 703 702 712 711
773 1 712 702 701 731
774 3 701 702 703 716
775 3 701 702 712 730
776 9 703 702 701 715
777 5 703 702 701 715
778 3 703 702 712 730
779 9 712 702 701 715
780 5 712 702 701 715
781 3 712 702 703 716
782 5 1022 1023 1024 1025
783 3 1022 1023 1029 1030
784 3 1024 1023 1029 1030
785 5 1022 1023 1024 1036
786 5 1022 1023 1024 1037
787 3 1022 1023 1029 1047
788 3 1024 1023 1022 1035
789 3 1024 1023 1029 1047
790 3 1029 1023 1022 1035
791 5 1029 1023 1024 1036
792 5 1029 1023 1024 1037
793 1 669 670 671 672
794 1 669 670 671 681
795 2 669 670 700 701
796 4 671 670 700 701
797 8 669 670 700 713
798 8 669 670 700 714
799 4 671 670 669 682
800 4 671 670 669 683
801 4 671 670 700 713
802 4 671 670 700 714
803 8 684 670 700 701
804 10 684 670 700 713
805 10 684 670 700 714
806 3 639 649 648 642
807 3 639 649 648 667
808 1 637 638 639 640
809 1 637 638 639 649
810 2 637 638 669 670
811 4 639 638 669 670
812 8 637 638 669 682
813 8 637 638 669 683
814 4 639 638 669 682
815 4 639 638 669 683
816 8 653 638 669 670
817 10 653 638 669 682
818 10 653 638 669 683
819 4 638 669 670 671
820 2 638 669 670 700
821 8 638 669 670 684
822 10 682 669 670 684
823 8 682 669 670 700
824 10 683 669 670 684
825 8 683 669 670 700
826 3 638 639 640 641
827 3 638 639 649 648
828 1 640 639 638 669
829 3 640 639 649 648
830 1 649 639 638 669
831 3 638 639 640 654
832 3 638 639 649 668
833 9 640 639 638 653
834 3 640 639 649 668
835 9 649 639 638 653
836 5 649 639 638 653
837 3 649 639 640 654
838 3 639 640 641 642
839 3 641 640 639 649
840 3 639 640 641 655
841 3 654 640 641 655
842 3 642 648 649 668
843 3 667 648 649 668
844 3 640 641 642 643
845 3 640 641 642 648
846 3 642 641 640 654
847 5 641 642 643 644
848 3 641 642 648 649
849 3 643 642 648 649
850 5 641 642 643 656
851 5 641 642 643 657
852 3 641 642 648 667
853 3 643 642 641 655
854 3 643 642 648 667
855 3 648 642 641 655
856 5 648 642 643 656
857 5 648 642 643 657
858 1 1142 1143 1144 1145
859 1 1142 1143 1144 1154
860 2 1142 1143 1173 1174
861 4 1144 1143 1173 1174
862 8 1142 1143 1173 1186
863 8 1142 1143 1173 1187
864 4 1144 1143 1142 1155
865 4 1144 1143 1142 1156
866 4 1144 1143 1173 1186
867 4 1144 1143 1173 1187
868 8 1157 1143 1173 1174
869 10 1157 1143 1173 1186
870 10 1157 1143 1173 1187
871 5 1495 1496 1497 1498
872 3 1495 1496 1502 1503
873 3 1497 1496 1502 1503
874 5 1495 1496 1497 1509
875 5 1495 1496 1497 1510
876 3 1495 1496 1502 1520
877 3 1497 1496 1495 1508
878 3 1497 1496 1502 1520
879 3 1502 1496 1495 1508
880 5 1502 1496 1497 1509
881 5 1502 1496 1497 1510
882 3 1496 1502 1503 1521
883 3 1520 1502 1503 1521
884 3 1144 1145 1146 1147
885 3 1146 1145 1144 1154
886 3 1144 1145 1146 1159
887 3 1158 1145 1146 1159
888 3 1493 1503 1502 1496
889 3 1493 1503 1502 1520
890 3 1145 1146 1147 1148
891 3 1145 1146 1147 1153
892 3 1147 1146 1145 1158
893 3 1143 1144 1145 1146
894 3 1143 1144 1154 1153
895 1 1145 1144 1143 1173
896 3 1145 1144 1154 1153
897 1 1154 1144 1143 1173
898 3 1143 1144 1145 1158
899 3 1143 1144 1154 1172
900 9 1145 1144 1143 1157
901 5 1145 1144 1143 1157
902 3 1145 1144 1154 1172
903 9 1154 1144 1143 1157
904 5 1154 1144 1143 1157
905 3 1154 1144 1145 1158
906 5 1146 1147 1148 1149
907 3 1146 1147 1153 1154
908 3 1148 1147 1153 1154
909 5 1146 1147 1148 1160
910 5 1146 1147 1148 1161
911 3 1146 1147 1153 1171
912 3 1148 1147 1146 1159
913 3 1148 1147 1153 1171
914 3 1153 1147 1146 1159
915 5 1153 1147 1148 1160
916 5 1153 1147 1148 1161
917 3 1144 1154 1153 1147
918 3 1144 1154 1153 1171
919 3 1147 1153 1154 1172
920 3 1171 1153 1154 1172
921 6 1147 1148 1149 1150
922 7 1147 1148 1149 1150
923 6 1147 1148 1149 1151
924 7 1147 1148 1149 1151
925 6 1147 1148 1149 1152
926 7 1147 1148 1149 1152
927 5 1149 1148 1147 1153
928 4 1081 1111 1112 1113
929 2 1081 1111 1112 1142
930 8 1081 1111 1112 1126
931 10 1124 1111 1112 1126
932 8 1124 1111 1112 1142
933 10 1125 1111 1112 1126
934 8 1125 1111 1112 1142
935 1 987 988 989 990
936 1 987 988 989 999
937 2 987 988 1018 1019
938 4 989 988 1018 1019
939 8 987 988 1018 1031
940 8 987 988 1018 1032
941 4 989 988 987 1000
942 4 989 988 987 1001
943 4 989 988 1018 1031
944 4 989 988 1018 1032
945 8 1002 988 1018 1019
946 10 1002 988 1018 1031
947 10 1002 988 1018 1032
948 3 1527 1533 1534 1552
949 3 1551 1533 1534 1552
950 3 1524 1534 1533 1527
951 3 1524 1534 1533 1551
952 4 956 987 988 989
953 2 956 987 988 1018
954 8 956 987 988 1002
955 10 1000 987 988 1002
956 8 1000 987 988 1018
957 10 1001 987 988 1002
958 8 1001 987 988 1018
959 3 1523 1524 1525 1526
960 3 1523 1524 1534 1533
961 1 1525 1524 1523 1553
962 3 1525 1524 1534 1533
963 1 1534 1524 1523 1553
964 3 1523 1524 1525 1538
965 3 1523 1524 1534 1552
966 9 1525 1524 1523 1537
967 5 1525 1524 1523 1537
968 3 1525 1524 1534 1552
969 9 1534 1524 1523 1537
970 5 1534 1524 1523 1537
971 3 1534 1524 1525 1538
972 4 968 955 956 957
973 2 968 955 956 987
974 8 956 955 968 1267
975 8 956 955 968 1268
976 8 956 955 968 1269
977 4 969 955 956 957
978 4 970 955 956 957
979 8 968 955 956 971
980 10 969 955 956 971
981 8 969 955 956 987
982 10 969 955 968 1267
983 10 969 955 968 1268
984 10 969 955 968 1269
985 10 970 955 956 971
986 8 970 955 956 987
987 10 970 955 968 1267
988 10 970 955 968 1268
989 10 970 955 968 1269
990 3 1524 1525 1526 1527
991 3 1526 1525 1524 1534
992 3 1524 1525 1526 1539
993 3 1538 1525 1526 1539
994 1 1522 1523 1524 1525
995 1 1522 1523 1524 1534
996 2 1522 1523 1553 1554
997 4 1524 1523 1553 1554
998 8 1522 1523 1553 1566
999 8 1522 1523 1553 1567
1000 4 1524 1523 1522 1535
1001 4 1524 1523 1522 1536
1002 4 1524 1523 1553 1566
1003 4 1524 1523 1553 1567
1004 8 1537 1523 1553 1554
1005 10 1537 1523 1553 1566
1006 10 1537 1523 1553 1567
1007 4 1523 1553 1554 1555
1008 2 1523 1553 1554 1568
1009 8 1523 1553 1554 1569
1010 8 1566 1553 1554 1568
1011 10 1566 1553 1554 1569
1012 8 1567 1553 1554 1568
1013 10 1567 1553 1554 1569
1014 3 988 989 990 991
1015 3 988 989 999 998
1016 1 990 989 988 1018
1017 3 990 989 999 998
1018 1 999 989 988 1018
1019 3 988 989 990 1003
1020 3 988 989 999 1017
1021 9 990 989 988 1002
1022 5 990 989 988 1002
1023 3 990 989 999 1017
1024 9 999 989 988 1002
1025 5 999 989 988 1002
1026 3 999 989 990 1003
1027 3 989 999 998 992
1028 3 989 999 998 1016
1029 3 736 742 743 761
1030 3 760 742 743 761
1031 3 702 703 704 705
1032 3 704 703 702 712
1033 3 702 703 704 717
1034 3 716 703 704 717
1035 3 703 704 705 706
1036 3 703 704 705 711
1037 3 705 704 703 716
1038 1 955 956 957 958
1039 1 955 956 957 967
1040 2 955 956 987 988
1041 4 957 956 987 988
1042 8 955 956 987 1000
1043 8 955 956 987 1001
1044 4 957 956 987 1000
1045 4 957 956 987 1001
1046 8 971 956 987 988
1047 10 971 956 987 1000
1048 10 971 956 987 1001
1049 3 957 967 966 960
1050 3 957 967 966 985
1051 3 767 773 774 792
1052 3 791 773 774 792
1053 3 956 957 958 959
1054 3 956 957 967 966
1055 1 958 957 956 987
1056 3 958 957 967 966
1057 1 967 957 956 987
1058 3 956 957 958 972
1059 3 956 957 967 986
1060 9 958 957 956 971
1061 3 958 957 967 986
1062 9 967 957 956 971
1063 5 967 957 956 971
1064 3 967 957 958 972
1065 3 671 672 673 674
1066 3 673 672 671 681
1067 3 671 672 673 686
1068 3 685 672 673 686
1069 3 671 681 680 674
1070 3 671 681 680 698
1071 3 670 671 672 673
1072 3 670 671 681 680
1073 1 672 671 670 700
1074 3 672 671 681 680
1075 1 681 671 670 700
1076 3 670 671 672 685
1077 3 670 671 681 699
1078 9 672 671 670 684
1079 5 672 671 670 684
1080 3 672 671 681 699
1081 9 681 671 670 684
1082 5 681 671 670 684
1083 3 681 671 672 685
1084 3 674 680 681 699
1085 3 698 680 681 699
1086 5 673 674 675 676
1087 3 673 674 680 681
1088 3 675 674 680 681
1089 5 673 674 675 687
1090 5 673 674 675 688
1091 3 673 674 680 698
1092 3 675 674 673 686
1093 3 675 674 680 698
1094 3 680 674 673 686
1095 5 680 674 675 687
1096 5 680 674 675 688
1097 3 672 673 674 675
1098 3 672 673 674 680
1099 3 674 673 672 685
1100 6 674 675 676 677
1101 7 674 675 676 677
1102 6 674 675 676 678
1103 7 674 675 676 678
1104 6 674 675 676 679
1105 7 674 675 676 679
1106 5 676 675 674 680
1107 4 675 676 677 689
1108 4 675 676 677 690
1109 4 675 676 677 691
1110 4 675 676 678 692
1111 4 675 676 678 693
1112 4 675 676 678 694
1113 4 675 676 679 695
1114 4 675 676 679 696
1115 4 675 676 679 697
1116 4 677 676 675 687
1117 4 677 676 675 688
1118 4 677 676 678 692
1119 4 677 676 678 693
1120 4 677 676 678 694
1121 4 677 676 679 695
1122 4 677 676 679 696
1123 4 677 676 679 697
1124 4 678 676 675 687
1125 4 678 676 675 688
1126 4 678 676 677 689
1127 4 678 676 677 690
1128 4 678 676 677 691
1129 4 678 676 679 695
1130 4 678 676 679 696
1131 4 678 676 679 697
1132 4 679 676 675 687
1133 4 679 676 675 688
1134 4 679 676 677 689
1135 4 679 676 677 690
1136 4 679 676 677 691
1137 4 679 676 678 692
1138 4 679 676 678 693
1139 4 679 676 678 694
1140 6 1434 1435 1436 1437
1141 7 1434 1435 1436 1437
1142 6 1434 1435 1436 1438
1143 7 1434 1435 1436 1438
1144 6 1434 1435 1436 1439
1145 7 1434 1435 1436 1439
1146 5 1436 1435 1434 1440
1147 3 1434 1440 1441 1459
1148 3 1458 1440 1441 1459
1149 4 1435 1436 1437 1449
1150 4 1435 1436 1437 1450
1151 4 1435 1436 1437 1451
1152 4 1435 1436 1438 1452
1153 4 1435 1436 1438 1453
1154 4 1435 1436 1438 1454
1155 4 1435 1436 1439 1455
1156 4 1435 1436 1439 1456
1157 4 1435 1436 1439 1457
1158 4 1437 1436 1435 1447
1159 4 1437 1436 1435 1448
1160 4 1437 1436 1438 1452
1161 4 1437 1436 1438 1453
1162 4 1437 1436 1438 1454
1163 4 1437 1436 1439 1455
1164 4 1437 1436 1439 1456
1165 4 1437 1436 1439 1457
1166 4 1438 1436 1435 1447
1167 4 1438 1436 1435 1448
1168 4 1438 1436 1437 1449
1169 4 1438 1436 1437 1450
1170 4 1438 1436 1437 1451
1171 4 1438 1436 1439 1455
1172 4 1438 1436 1439 1456
1173 4 1438 1436 1439 1457
1174 4 1439 1436 1435 1447
1175 4 1439 1436 1435 1448
1176 4 1439 1436 1437 1449
1177 4 1439 1436 1437 1450
1178 4 1439 1436 1437 1451
1179 4 1439 1436 1438 1452
1180 4 1439 1436 1438 1453
1181 4 1439 1436 1438 1454
1182 5 1433 1434 1435 1436
1183 3 1433 1434 1440 1441
1184 3 1435 1434 1440 1441
1185 5 1433 1434 1435 1447
1186 5 1433 1434 1435 1448
1187 3 1433 1434 1440 1458
1188 3 1435 1434 1433 1446
1189 3 1435 1434 1440 1458
1190 3 1440 1434 1433 1446
1191 5 1440 1434 1435 1447
1192 5 1440 1434 1435 1448
1193 3 1431 1441 1440 1434
1194 3 1431 1441 1440 1458
1195 3 1432 1433 1434 1435
1196 3 1432 1433 1434 1440
1197 3 1434 1433 1432 1445
1198 3 1430 1431 1432 1433
1199 3 1430 1431 1441 1440
1200 1 1432 1431 1430 1460
1201 3 1432 1431 1441 1440
1202 1 1441 1431 1430 1460
1203 3 1430 1431 1432 1445
1204 3 1430 1431 1441 1459
1205 9 1432 1431 1430 1444
1206 5 1432 1431 1430 1444
1207 3 1432 1431 1441 1459
1208 9 1441 1431 1430 1444
1209 5 1441 1431 1430 1444
1210 3 1441 1431 1432 1445
1211 3 1431 1432 1433 1434
1212 3 1433 1432 1431 1441
1213 3 1431 1432 1433 1446
1214 3 1445 1432 1433 1446
1215 4 1461 1491 1492 1493
1216 2 1461 1491 1492 1522
1217 8 1461 1491 1492 1506
1218 10 1504 1491 1492 1506
1219 8 1504 1491 1492 1522
1220 10 1505 1491 1492 1506
1221 8 1505 1491 1492 1522
1222 3 1492 1493 1494 1495
1223 3 1492 1493 1503 1502
1224 1 1494 1493 1492 1522
1225 3 1494 1493 1503 1502
1226 1 1503 1493 1492 1522
1227 3 1492 1493 1494 1507
1228 3 1492 1493 1503 1521
1229 9 1494 1493 1492 1506
1230 5 1494 1493 1492 1506
1231 3 1494 1493 1503 1521
1232 9 1503 1493 1492 1506
1233 5 1503 1493 1492 1506
1234 3 1503 1493 1494 1507
1235 1 1491 1492 1493 1494
1236 1 1491 1492 1493 1503
1237 2 1491 1492 1522 1523
1238 4 1493 1492 1522 1523
1239 8 1491 1492 1522 1535
1240 8 1491 1492 1522 1536
1241 4 1493 1492 1491 1504
1242 4 1493 1492 1491 1505
1243 4 1493 1492 1522 1535
1244 4 1493 1492 1522 1536
1245 8 1506 1492 1522 1523
1246 10 1506 1492 1522 1535
1247 10 1506 1492 1522 1536
1248 4 1492 1522 1523 1524
1249 2 1492 1522 1523 1553
1250 8 1492 1522 1523 1537
1251 10 1535 1522 1523 1537
1252 8 1535 1522 1523 1553
1253 10 1536 1522 1523 1537
1254 8 1536 1522 1523 1553
1255 5 1526 1527 1528 1529
1256 3 1526 1527 1533 1534
1257 3 1528 1527 1533 1534
1258 5 1526 1527 1528 1540
1259 5 1526 1527 1528 1541
1260 3 1526 1527 1533 1551
1261 3 1528 1527 1526 1539
1262 3 1528 1527 1533 1551
1263 3 1533 1527 1526 1539
1264 5 1533 1527 1528 1540
1265 5 1533 1527 1528 1541
1266 3 1525 1526 1527 1528
1267 3 1525 1526 1527 1533
1268 3 1527 1526 1525 1538
1269 3 1555 1565 1564 1558
1270 3 1555 1565 1564 1583
1271 3 1554 1555 1556 1557
1272 3 1554 1555 1565 1564
1273 1 1556 1555 1554 1568
1274 3 1556 1555 1565 1564
1275 1 1565 1555 1554 1568
1276 3 1554 1555 1556 1570
1277 3 1554 1555 1565 1584
1278 9 1556 1555 1554 1569
1279 5 1556 1555 1554 1569
1280 3 1556 1555 1565 1584
1281 9 1565 1555 1554 1569
1282 5 1565 1555 1554 1569
1283 3 1565 1555 1556 1570
1284 5 766 767 768 769
1285 3 766 767 773 774
1286 3 768 767 773 774
1287 5 766 767 768 780
1288 5 766 767 768 781
1289 3 766 767 773 791
1290 3 768 767 766 779
1291 3 768 767 773 791
1292 3 773 767 766 779
1293 5 773 767 768 780
1294 5 773 767 768 781
1295 3 1372 1378 1379 1397
1296 3 1396 1378 1379 1397
1297 6 1372 1373 1374 1375
1298 7 1372 1373 1374 1375
1299 6 1372 1373 1374 1376
1300 7 1372 1373 1374 1376
1301 6 1372 1373 1374 1377
1302 7 1372 1373 1374 1377
1303 5 1374 1373 1372 1378
1304 3 1555 1556 1557 1558
1305 3 1557 1556 1555 1565
1306 3 1555 1556 1557 1571
1307 3 1570 1556 1557 1571
1308 3 477 487 486 480
1309 3 477 487 486 504
1310 3 480 486 487 505
1311 3 504 486 487 505
1312 3 476 477 478 479
1313 3 476 477 487 486
1314 1 478 477 476 506
1315 3 478 477 487 486
1316 1 487 477 476 506
1317 3 476 477 478 491
1318 3 476 477 487 505
1319 9 478 477 476 490
1320 5 478 477 476 490
1321 3 478 477 487 505
1322 9 487 477 476 490
1323 5 487 477 476 490
1324 3 487 477 478 491
1325 3 478 479 480 481
1326 3 478 479 480 486
1327 3 480 479 478 491
1328 5 479 480 481 482
1329 3 479 480 486 487
1330 3 481 480 486 487
1331 5 479 480 481 493
1332 5 479 480 481 494
1333 3 479 480 486 504
1334 3 481 480 479 492
1335 3 481 480 486 504
1336 3 486 480 479 492
1337 5 486 480 481 493
1338 5 486 480 481 494
1339 1 444 445 446 447
1340 1 444 445 446 456
1341 2 444 445 475 476
1342 4 446 445 475 476
1343 8 444 445 475 488
1344 8 444 445 475 489
1345 4 446 445 444 457
1346 4 446 445 444 458
1347 4 446 445 475 488
1348 4 446 445 475 489
1349 8 459 445 475 476
1350 10 459 445 475 488
1351 10 459 445 475 489
1352 4 445 475 476 477
1353 2 445 475 476 506
1354 8 445 475 476 490
1355 10 488 475 476 490
1356 8 488 475 476 506
1357 10 489 475 476 490
1358 8 489 475 476 506
1359 1 475 476 477 478
1360 1 475 476 477 487
1361 2 475 476 506 507
1362 4 477 476 506 507
1363 8 475 476 506 519
1364 8 475 476 506 520
1365 4 477 476 475 488
1366 4 477 476 475 489
1367 4 477 476 506 519
1368 4 477 476 506 520
1369 8 490 476 506 507
1370 10 490 476 506 519
1371 10 490 476 506 520
1372 3 477 478 479 480
1373 3 479 478 477 487
1374 3 477 478 479 492
1375 3 491 478 479 492
1376 4 414 444 445 446
1377 2 414 444 445 475
1378 8 414 444 445 459
1379 10 457 444 445 459
1380 8 457 444 445 475
1381 10 458 444 445 459
1382 8 458 444 445 475
1383 3 445 446 447 448
1384 3 445 446 456 455
1385 1 447 446 445 475
1386 3 447 446 456 455
1387 1 456 446 445 475
1388 3 445 446 447 460
1389 3 445 446 456 474
1390 9 447 446 445 459
1391 5 447 446 445 459
1392 3 447 446 456 474
1393 9 456 446 445 459
1394 5 456 446 445 459
1395 3 456 446 447 460
1396 3 446 456 455 449
1397 3 446 456 455 473
1398 3 449 455 456 474
1399 3 473 455 456 474
1400 4 574 575 576 588
1401 4 574 575 576 589
1402 4 574 575 576 590
1403 4 574 575 577 591
1404 4 574 575 577 592
1405 4 574 575 577 593
1406 4 574 575 578 594
1407 4 574 575 578 595
1408 4 574 575 578 596
1409 4 576 575 574 586
1410 4 576 575 574 587
1411 4 576 575 577 591
1412 4 576 575 577 592
1413 4 576 575 577 593
1414 4 576 575 578 594
1415 4 576 575 578 595
1416 4 576 575 578 596
1417 4 577 575 574 586
1418 4 577 575 574 587
1419 4 577 575 576 588
1420 4 577 575 576 589
1421 4 577 575 576 590
1422 4 577 575 578 594
1423 4 577 575 578 595
1424 4 577 575 578 596
1425 4 578 575 574 586
1426 4 578 575 574 587
1427 4 578 575 576 588
1428 4 578 575 576 589
1429 4 578 575 576 590
1430 4 578 575 577 591
1431 4 578 575 577 592
1432 4 578 575 577 593
1433 6 449 450 451 452
1434 7 449 450 451 452
1435 6 449 450 451 453
1436 7 449 450 451 453
1437 6 449 450 451 454
1438 7 449 450 451 454
1439 5 451 450 449 455
1440 5 448 449 450 451
1441 3 448 449 455 456
1442 3 450 449 455 456
1443 5 448 449 450 462
1444 5 448 449 450 463
1445 3 448 449 455 473
1446 3 450 449 448 461
1447 3 450 449 455 473
1448 3 455 449 448 461
1449 5 455 449 450 462
1450 5 455 449 450 463
1451 3 446 447 448 449
1452 3 448 447 446 456
1453 3 446 447 448 461
1454 3 460 447 448 461
1455 3 447 448 449 450
1456 3 447 448 449 455
1457 3 449 448 447 460
1458 4 481 482 483 495
1459 4 481 482 483 496
1460 4 481 482 483 497
1461 4 481 482 484 498
1462 4 481 482 484 499
1463 4 481 482 484 500
1464 4 481 482 485 501
1465 4 481 482 485 502
1466 4 481 482 485 503
1467 4 483 482 481 493
1468 4 483 482 481 494
1469 4 483 482 484 498
1470 4 483 482 484 499
1471 4 483 482 484 500
1472 4 483 482 485 501
1473 4 483 482 485 502
1474 4 483 482 485 503
1475 4 484 482 481 493
1476 4 484 482 481 494
1477 4 484 482 483 495
1478 4 484 482 483 496
1479 4 484 482 483 497
1480 4 484 482 485 501
1481 4 484 482 485 502
1482 4 484 482 485 503
1483 4 485 482 481 493
1484 4 485 482 481 494
1485 4 485 482 483 495
1486 4 485 482 483 496
1487 4 485 482 483 497
1488 4 485 482 484 498
1489 4 485 482 484 499
1490 4 485 482 484 500
1491 6 480 481 482 483
1492 7 480 481 482 483
1493 6 480 481 482 484
1494 7 480 481 482 484
1495 6 480 481 482 485
1496 7 480 481 482 485
1497 5 482 481 480 486
1498 3 418 424 425 443
1499 3 442 424 425 443
1500 5 417 418 419 420
1501 3 417 418 424 425
1502 3 419 418 424 425
1503 5 417 418 419 431
1504 5 417 418 419 432
1505 3 417 418 424 442
1506 3 419 418 417 430
1507 3 419 418 424 442
1508 3 424 418 417 430
1509 5 424 418 419 431
1510 5 424 418 419 432
1511 3 415 425 424 418
1512 3 415 425 424 442
1513 3 416 417 418 419
1514 3 416 417 418 424
1515 3 418 417 416 429
1516 4 1086 1087 1088 1100
1517 4 1086 1087 1088 1101
1518 4 1086 1087 1088 1102
1519 4 1086 1087 1089 1103
1520 4 1086 1087 1089 1104
1521 4 1086 1087 1089 1105
1522 4 1086 1087 1090 1106
1523 4 1086 1087 1090 1107
1524 4 1086 1087 1090 1108
1525 4 1088 1087 1086 1098
1526 4 1088 1087 1086 1099
1527 4 1088 1087 1089 1103
1528 4 1088 1087 1089 1104
1529 4 1088 1087 1089 1105
1530 4 1088 1087 1090 1106
1531 4 1088 1087 1090 1107
1532 4 1088 1087 1090 1108
1533 4 1089 1087 1086 1098
1534 4 1089 1087 1086 1099
1535 4 1089 1087 1088 1100
1536 4 1089 1087 1088 1101
1537 4 1089 1087 1088 1102
1538 4 1089 1087 1090 1106
1539 4 1089 1087 1090 1107
1540 4 1089 1087 1090 1108
1541 4 1090 1087 1086 1098
1542 4 1090 1087 1086 1099
1543 4 1090 1087 1088 1100
1544 4 1090 1087 1088 1101
1545 4 1090 1087 1088 1102
1546 4 1090 1087 1089 1103
1547 4 1090 1087 1089 1104
1548 4 1090 1087 1089 1105
1549 3 414 415 416 417
1550 3 414 415 425 424
1551 1 416 415 414 444
1552 3 416 415 425 424
1553 1 425 415 414 444
1554 3 414 415 416 429
1555 3 414 415 425 443
1556 9 416 415 414 428
1557 5 416 415 414 428
1558 3 416 415 425 443
1559 9 425 415 414 428
1560 5 425 415 414 428
1561 3 425 415 416 429
1562 3 415 416 417 418
1563 3 417 416 415 425
1564 3 415 416 417 430
1565 3 429 416 417 430
1566 5 1084 1085 1086 1087
1567 3 1084 1085 1091 1092
1568 3 1086 1085 1091 1092
1569 5 1084 1085 1086 1098
1570 5 1084 1085 1086 1099
1571 3 1084 1085 1091 1109
1572 3 1086 1085 1084 1097
1573 3 1086 1085 1091 1109
1574 3 1091 1085 1084 1097
1575 5 1091 1085 1086 1098
1576 5 1091 1085 1086 1099
1577 3 1085 1091 1092 1110
1578 3 1109 1091 1092 1110
1579 6 1085 1086 1087 1088
1580 7 1085 1086 1087 1088
1581 6 1085 1086 1087 1089
1582 7 1085 1086 1087 1089
1583 6 1085 1086 1087 1090
1584 7 1085 1086 1087 1090
1585 5 1087 1086 1085 1091
1586 1 413 414 415 416
1587 1 413 414 415 425
1588 2 413 414 444 445
1589 4 415 414 444 445
1590 8 413 414 444 457
1591 8 413 414 444 458
1592 4 415 414 413 426
1593 4 415 414 413 427
1594 4 415 414 444 457
1595 4 415 414 444 458
1596 8 428 414 444 445
1597 10 428 414 444 457
1598 10 428 414 444 458
1599 3 1083 1084 1085 1086
1600 3 1083 1084 1085 1091
1601 3 1085 1084 1083 1096
1602 4 1024 1025 1026 1038
1603 4 1024 1025 1026 1039
1604 4 1024 1025 1026 1040
1605 4 1024 1025 1027 1041
1606 4 1024 1025 1027 1042
1607 4 1024 1025 1027 1043
1608 4 1024 1025 1028 1044
1609 4 1024 1025 1028 1045
1610 4 1024 1025 1028 1046
1611 4 1026 1025 1024 1036
1612 4 1026 1025 1024 1037
1613 4 1026 1025 1027 1041
1614 4 1026 1025 1027 1042
1615 4 1026 1025 1027 1043
1616 4 1026 1025 1028 1044
1617 4 1026 1025 1028 1045
1618 4 1026 1025 1028 1046
1619 4 1027 1025 1024 1036
1620 4 1027 1025 1024 1037
1621 4 1027 1025 1026 1038
1622 4 1027 1025 1026 1039
1623 4 1027 1025 1026 1040
1624 4 1027 1025 1028 1044
1625 4 1027 1025 1028 1045
1626 4 1027 1025 1028 1046
1627 4 1028 1025 1024 1036
1628 4 1028 1025 1024 1037
1629 4 1028 1025 1026 1038
1630 4 1028 1025 1026 1039
1631 4 1028 1025 1026 1040
1632 4 1028 1025 1027 1041
1633 4 1028 1025 1027 1042
1634 4 1028 1025 1027 1043
1635 4 450 451 452 464
1636 4 450 451 452 465
1637 4 450 451 452 466
1638 4 450 451 453 467
1639 4 450 451 453 468
1640 4 450 451 453 469
1641 4 450 451 454 470
1642 4 450 451 454 471
1643 4 450 451 454 472
1644 4 452 451 450 462
1645 4 452 451 450 463
1646 4 452 451 453 467
1647 4 452 451 453 468
1648 4 452 451 453 469
1649 4 452 451 454 470
1650 4 452 451 454 471
1651 4 452 451 454 472
1652 4 453 451 450 462
1653 4 453 451 450 463
1654 4 453 451 452 464
1655 4 453 451 452 465
1656 4 453 451 452 466
1657 4 453 451 454 470
1658 4 453 451 454 471
1659 4 453 451 454 472
1660 4 454 451 450 462
1661 4 454 451 450 463
1662 4 454 451 452 464
1663 4 454 451 452 465
1664 4 454 451 452 466
1665 4 454 451 453 467
1666 4 454 451 453 468
1667 4 454 451 453 469
1668 3 1175 1185 1184 1178
1669 3 1175 1185 1184 1202
1670 3 1178 1184 1185 1203
1671 3 1202 1184 1185 1203
1672 3 1174 1175 1176 1177
1673 3 1174 1175 1185 1184
1674 1 1176 1175 1174 1204
1675 3 1176 1175 1185 1184
1676 1 1185 1175 1174 1204
1677 3 1174 1175 1176 1189
1678 3 1174 1175 1185 1203
1679 9 1176 1175 1174 1188
1680 5 1176 1175 1174 1188
1681 3 1176 1175 1185 1203
1682 9 1185 1175 1174 1188
1683 5 1185 1175 1174 1188
1684 3 1185 1175 1176 1189
1685 3 1237 1247 1246 1240
1686 3 1237 1247 1246 1265
1687 3 1240 1246 1247 1266
1688 3 1265 1246 1247 1266
1689 3 1238 1239 1240 1241
1690 3 1238 1239 1240 1246
1691 3 1240 1239 1238 1252
1692 5 1239 1240 1241 1242
1693 3 1239 1240 1246 1247
1694 3 1241 1240 1246 1247
1695 5 1239 1240 1241 1254
1696 5 1239 1240 1241 1255
1697 3 1239 1240 1246 1265
1698 3 1241 1240 1239 1253
1699 3 1241 1240 1246 1265
1700 3 1246 1240 1239 1253
1701 5 1246 1240 1241 1254
1702 5 1246 1240 1241 1255
1703 6 1240 1241 1242 1243
1704 7 1240 1241 1242 1243
1705 6 1240 1241 1242 1244
1706 7 1240 1241 1242 1244
1707 6 1240 1241 1242 1245
1708 7 1240 1241 1242 1245
1709 5 1242 1241 1240 1246
1710 4 1241 1242 1243 1256
1711 4 1241 1242 1243 1257
1712 4 1241 1242 1243 1258
1713 4 1241 1242 1244 1259
1714 4 1241 1242 1244 1260
1715 4 1241 1242 1244 1261
1716 4 1241 1242 1245 1262
1717 4 1241 1242 1245 1263
1718 4 1241 1242 1245 1264
1719 4 1243 1242 1241 1254
1720 4 1243 1242 1241 1255
1721 4 1243 1242 1244 1259
1722 4 1243 1242 1244 1260
1723 4 1243 1242 1244 1261
1724 4 1243 1242 1245 1262
1725 4 1243 1242 1245 1263
1726 4 1243 1242 1245 1264
1727 4 1244 1242 1241 1254
1728 4 1244 1242 1241 1255
1729 4 1244 1242 1243 1256
1730 4 1244 1242 1243 1257
1731 4 1244 1242 1243 1258
1732 4 1244 1242 1245 1262
1733 4 1244 1242 1245 1263
1734 4 1244 1242 1245 1264
1735 4 1245 1242 1241 1254
1736 4 1245 1242 1241 1255
1737 4 1245 1242 1243 1256
1738 4 1245 1242 1243 1257
1739 4 1245 1242 1243 1258
1740 4 1245 1242 1244 1259
1741 4 1245 1242 1244 1260
1742 4 1245 1242 1244 1261
1743 3 1021 1022 1023 1024
1744 3 1021 1022 1023 1029
1745 3 1023 1022 1021 1034
1746 3 989 990 991 992
1747 3 991 990 989 999
1748 3 989 990 991 1004
1749 3 1003 990 991 1004
1750 3 990 991 992 993
1751 3 990 991 992 998
1752 3 992 991 990 1003
1753 5 991 992 993 994
1754 3 991 992 998 999
1755 3 993 992 998 999
1756 5 991 992 993 1005
1757 5 991 992 993 1006
1758 3 991 992 998 1016
1759 3 993 992 991 1004
1760 3 993 992 998 1016
1761 3 998 992 991 1004
1762 5 998 992 993 1005
1763 5 998 992 993 1006
1764 6 992 993 994 995
1765 7 992 993 994 995
1766 6 992 993 994 996
1767 7 992 993 994 996
1768 6 992 993 994 997
1769 7 992 993 994 997
1770 5 994 993 992 998
1771 4 993 994 995 1007
1772 4 993 994 995 1008
1773 4 993 994 995 1009
1774 4 993 994 996 1010
1775 4 993 994 996 1011
1776 4 993 994 996 1012
1777 4 993 994 997 1013
1778 4 993 994 997 1014
1779 4 993 994 997 1015
1780 4 995 994 993 1005
1781 4 995 994 993 1006
1782 4 995 994 996 1010
1783 4 995 994 996 1011
1784 4 995 994 996 1012
1785 4 995 994 997 1013
1786 4 995 994 997 1014
1787 4 995 994 997 1015
1788 4 996 994 993 1005
1789 4 996 994 993 1006
1790 4 996 994 995 1007
1791 4 996 994 995 1008
1792 4 996 994 995 1009
1793 4 996 994 997 1013
1794 4 996 994 997 1014
1795 4 996 994 997 1015
1796 4 997 994 993 1005
1797 4 997 994 993 1006
1798 4 997 994 995 1007
1799 4 997 994 995 1008
1800 4 997 994 995 1009
1801 4 997 994 996 1010
1802 4 997 994 996 1011
1803 4 997 994 996 1012
1804 3 601 602 603 604
1805 3 603 602 601 611
1806 3 601 602 603 617
1807 3 616 602 603 617
1808 3 602 603 604 605
1809 3 602 603 604 610
1810 3 604 603 602 616
1811 6 1023 1024 1025 1026
1812 7 1023 1024 1025 1026
1813 6 1023 1024 1025 1027
1814 7 1023 1024 1025 1027
1815 6 1023 1024 1025 1028
1816 7 1023 1024 1025 1028
1817 5 1025 1024 1023 1029
1818 5 603 604 605 606
1819 3 603 604 610 611
1820 3 605 604 610 611
1821 5 603 604 605 618
1822 5 603 604 605 619
1823 3 603 604 610 629
1824 3 605 604 603 617
1825 3 605 604 610 629
1826 3 610 604 603 617
1827 5 610 604 605 618
1828 5 610 604 605 619
1829 3 604 610 611 630
1830 3 629 610 611 630
1831 6 604 605 606 607
1832 7 604 605 606 607
1833 6 604 605 606 608
1834 7 604 605 606 608
1835 6 604 605 606 609
1836 7 604 605 606 609
1837 5 606 605 604 610
1838 4 605 606 607 620
1839 4 605 606 607 621
1840 4 605 606 607 622
1841 4 605 606 608 623
1842 4 605 606 608 624
1843 4 605 606 608 625
1844 4 605 606 609 626
1845 4 605 606 609 627
1846 4 605 606 609 628
1847 4 607 606 605 618
1848 4 607 606 605 619
1849 4 607 606 608 623
1850 4 607 606 608 624
1851 4 607 606 608 625
1852 4 607 606 609 626
1853 4 607 606 609 627
1854 4 607 606 609 628
1855 4 608 606 605 618
1856 4 608 606 605 619
1857 4 608 606 607 620
1858 4 608 606 607 621
1859 4 608 606 607 622
1860 4 608 606 609 626
1861 4 608 606 609 627
1862 4 608 606 609 628
1863 4 609 606 605 618
1864 4 609 606 605 619
1865 4 609 606 607 620
1866 4 609 606 607 621
1867 4 609 606 607 622
1868 4 609 606 608 623
1869 4 609 606 608 624
1870 4 609 606 608 625
1871 4 643 644 645 658
1872 4 643 644 645 659
1873 4 643 644 645 660
1874 4 643 644 646 661
1875 4 643 644 646 662
1876 4 643 644 646 663
1877 4 643 644 647 664
1878 4 643 644 647 665
1879 4 643 644 647 666
1880 4 645 644 643 656
1881 4 645 644 643 657
1882 4 645 644 646 661
1883 4 645 644 646 662
1884 4 645 644 646 663
1885 4 645 644 647 664
1886 4 645 644 647 665
1887 4 645 644 647 666
1888 4 646 644 643 656
1889 4 646 644 643 657
1890 4 646 644 645 658
1891 4 646 644 645 659
1892 4 646 644 645 660
1893 4 646 644 647 664
1894 4 646 644 647 665
1895 4 646 644 647 666
1896 4 647 644 643 656
1897 4 647 644 643 657
1898 4 647 644 645 658
1899 4 647 644 645 659
1900 4 647 644 645 660
1901 4 647 644 646 661
1902 4 647 644 646 662
1903 4 647 644 646 663
1904 6 642 643 644 645
1905 7 642 643 644 645
1906 6 642 643 644 646
1907 7 642 643 644 646
1908 6 642 643 644 647
1909 7 642 643 644 647
1910 5 644 643 642 648
1911 6 1178 1179 1180 1181
1912 7 1178 1179 1180 1181
1913 6 1178 1179 1180 1182
1914 7 1178 1179 1180 1182
1915 6 1178 1179 1180 1183
1916 7 1178 1179 1180 1183
1917 5 1180 1179 1178 1184
1918 3 1176 1177 1178 1179
1919 3 1176 1177 1178 1184
1920 3 1178 1177 1176 1189
1921 5 1177 1178 1179 1180
1922 3 1177 1178 1184 1185
1923 3 1179 1178 1184 1185
1924 5 1177 1178 1179 1191
1925 5 1177 1178 1179 1192
1926 3 1177 1178 1184 1202
1927 3 1179 1178 1177 1190
1928 3 1179 1178 1184 1202
1929 3 1184 1178 1177 1190
1930 5 1184 1178 1179 1191
1931 5 1184 1178 1179 1192
1932 3 1175 1176 1177 1178
1933 3 1177 1176 1175 1185
1934 3 1175 1176 1177 1190
1935 3 1189 1176 1177 1190
1936 4 1148 1149 1150 1162
1937 4 1148 1149 1150 1163
1938 4 1148 1149 1150 1164
1939 4 1148 1149 1151 1165
1940 4 1148 1149 1151 1166
1941 4 1148 1149 1151 1167
1942 4 1148 1149 1152 1168
1943 4 1148 1149 1152 1169
1944 4 1148 1149 1152 1170
1945 4 1150 1149 1148 1160
1946 4 1150 1149 1148 1161
1947 4 1150 1149 1151 1165
1948 4 1150 1149 1151 1166
1949 4 1150 1149 1151 1167
1950 4 1150 1149 1152 1168
1951 4 1150 1149 1152 1169
1952 4 1150 1149 1152 1170
1953 4 1151 1149 1148 1160
1954 4 1151 1149 1148 1161
1955 4 1151 1149 1150 1162
1956 4 1151 1149 1150 1163
1957 4 1151 1149 1150 1164
1958 4 1151 1149 1152 1168
1959 4 1151 1149 1152 1169
1960 4 1151 1149 1152 1170
1961 4 1152 1149 1148 1160
1962 4 1152 1149 1148 1161
1963 4 1152 1149 1150 1162
1964 4 1152 1149 1150 1163
1965 4 1152 1149 1150 1164
1966 4 1152 1149 1151 1165
1967 4 1152 1149 1151 1166
1968 4 1152 1149 1151 1167
1969 4 1179 1180 1181 1193
1970 4 1179 1180 1181 1194
1971 4 1179 1180 1181 1195
1972 4 1179 1180 1182 1196
1973 4 1179 1180 1182 1197
1974 4 1179 1180 1182 1198
1975 4 1179 1180 1183 1199
1976 4 1179 1180 1183 1200
1977 4 1179 1180 1183 1201
1978 4 1181 1180 1179 1191
1979 4 1181 1180 1179 1192
1980 4 1181 1180 1182 1196
1981 4 1181 1180 1182 1197
1982 4 1181 1180 1182 1198
1983 4 1181 1180 1183 1199
1984 4 1181 1180 1183 1200
1985 4 1181 1180 1183 1201
1986 4 1182 1180 1179 1191
1987 4 1182 1180 1179 1192
1988 4 1182 1180 1181 1193
1989 4 1182 1180 1181 1194
1990 4 1182 1180 1181 1195
1991 4 1182 1180 1183 1199
1992 4 1182 1180 1183 1200
1993 4 1182 1180 1183 1201
1994 4 1183 1180 1179 1191
1995 4 1183 1180 1179 1192
1996 4 1183 1180 1181 1193
1997 4 1183 1180 1181 1194
1998 4 1183 1180 1181 1195
1999 4 1183 1180 1182 1196
2000 4 1183 1180 1182 1197
2001 4 1183 1180 1182 1198
2002 3 1082 1083 1084 1085
2003 3 1084 1083 1082 1092
2004 3 1082 1083 1084 1097
2005 3 1096 1083 1084 1097
2006 3 570 580 579 573
2007 3 570 580 579 597
2008 3 992 998 999 1017
2009 3 1016 998 999 1017
2010 1 599 600 601 602
2011 1 599 600 601 611
2012 8 599 600 614 634
2013 8 599 600 614 635
2014 8 599 600 614 636
2015 4 601 600 599 612
2016 4 601 600 599 613
2017 4 601 600 614 634
2018 4 601 600 614 635
2019 4 601 600 614 636
2020 10 615 600 614 634
2021 10 615 600 614 635
2022 10 615 600 614 636
2023 1 568 569 570 571
2024 1 568 569 570 580
2025 2 568 569 599 600
2026 4 570 569 599 600
2027 8 568 569 599 612
2028 8 568 569 599 613
2029 4 570 569 568 581
2030 4 570 569 568 582
2031 4 570 569 599 612
2032 4 570 569 599 613
2033 8 583 569 599 600
2034 10 583 569 599 612
2035 10 583 569 599 613
2036 4 569 599 600 601
2037 2 569 599 600 614
2038 8 569 599 600 615
2039 8 612 599 600 614
2040 10 612 599 600 615
2041 8 613 599 600 614
2042 10 613 599 600 615
2043 3 538 539 540 541
2044 3 538 539 549 548
2045 1 540 539 538 568
2046 3 540 539 549 548
2047 1 549 539 538 568
2048 3 538 539 540 553
2049 3 538 539 549 567
2050 9 540 539 538 552
2051 5 540 539 538 552
2052 3 540 539 549 567
2053 9 549 539 538 552
2054 5 549 539 538 552
2055 3 549 539 540 553
2056 3 539 549 548 542
2057 3 539 549 548 566
2058 1 1553 1554 1555 1556
2059 1 1553 1554 1555 1565
2060 8 1553 1554 1568 1588
2061 8 1553 1554 1568 1589
2062 8 1553 1554 1568 1590
2063 4 1555 1554 1553 1566
2064 4 1555 1554 1553 1567
2065 4 1555 1554 1568 1588
2066 4 1555 1554 1568 1589
2067 4 1555 1554 1568 1590
2068 10 1569 1554 1568 1588
2069 10 1569 1554 1568 1589
2070 10 1569 1554 1568 1590
2071 3 542 548 549 567
2072 3 566 548 549 567
2073 4 538 568 569 570
2074 2 538 568 569 599
2075 8 538 568 569 583
2076 10 581 568 569 583
2077 8 581 568 569 599
2078 10 582 568 569 583
2079 8 582 568 569 599
2080 3 569 570 571 572
2081 3 569 570 580 579
2082 1 571 570 569 599
2083 3 571 570 580 579
2084 1 580 570 569 599
2085 3 569 570 571 584
2086 3 569 570 580 598
2087 9 571 570 569 583
2088 5 571 570 569 583
2089 3 571 570 580 598
2090 9 580 570 569 583
2091 5 580 570 569 583
2092 3 580 570 571 584
2093 3 600 601 602 603
2094 3 600 601 611 610
2095 1 602 601 600 614
2096 3 602 601 611 610
2097 1 611 601 600 614
2098 3 600 601 602 616
2099 3 600 601 611 630
2100 9 602 601 600 615
2101 5 602 601 600 615
2102 3 602 601 611 630
2103 9 611 601 600 615
2104 5 611 601 600 615
2105 3 611 601 602 616
2106 3 957 958 959 960
2107 3 959 958 957 967
2108 3 957 958 959 973
2109 3 972 958 959 973
2110 3 960 966 967 986
2111 3 985 966 967 986
2112 3 958 959 960 961
2113 3 958 959 960 966
2114 3 960 959 958 972
2115 5 959 960 961 962
2116 3 959 960 966 967
2117 3 961 960 966 967
2118 5 959 960 961 974
2119 5 959 960 961 975
2120 3 959 960 966 985
2121 3 961 960 959 973
2122 3 961 960 966 985
2123 3 966 960 959 973
2124 5 966 960 961 974
2125 5 966 960 961 975
2126 6 960 961 962 963
2127 7 960 961 962 963
2128 6 960 961 962 964
2129 7 960 961 962 964
2130 6 960 961 962 965
2131 7 960 961 962 965
2132 5 962 961 960 966
2133 3 571 572 573 574
2134 3 571 572 573 579
2135 3 573 572 571 584
2136 3 601 611 610 604
2137 3 601 611 610 629
2138 3 570 571 572 573
2139 3 572 571 570 580
2140 3 570 571 572 585
2141 3 584 571 572 585
2142 4 961 962 963 976
2143 4 961 962 963 977
2144 4 961 962 963 978
2145 4 961 962 964 979
2146 4 961 962 964 980
2147 4 961 962 964 981
2148 4 961 962 965 982
2149 4 961 962 965 983
2150 4 961 962 965 984
2151 4 963 962 961 974
2152 4 963 962 961 975
2153 4 963 962 964 979
2154 4 963 962 964 980
2155 4 963 962 964 981
2156 4 963 962 965 982
2157 4 963 962 965 983
2158 4 963 962 965 984
2159 4 964 962 961 974
2160 4 964 962 961 975
2161 4 964 962 963 976
2162 4 964 962 963 977
2163 4 964 962 963 978
2164 4 964 962 965 982
2165 4 964 962 965 983
2166 4 964 962 965 984
2167 4 965 962 961 974
2168 4 965 962 961 975
2169 4 965 962 963 976
2170 4 965 962 963 977
2171 4 965 962 963 978
2172 4 965 962 964 979
2173 4 965 962 964 980
2174 4 965 962 964 981
2175 4 543 544 545 557
2176 4 543 544 545 558
2177 4 543 544 545 559
2178 4 543 544 546 560
2179 4 543 544 546 561
2180 4 543 544 546 562
2181 4 543 544 547 563
2182 4 543 544 547 564
2183 4 543 544 547 565
2184 4 545 544 543 555
2185 4 545 544 543 556
2186 4 545 544 546 560
2187 4 545 544 546 561
2188 4 545 544 546 562
2189 4 545 544 547 563
2190 4 545 544 547 564
2191 4 545 544 547 565
2192 4 546 544 543 555
2193 4 546 544 543 556
2194 4 546 544 545 557
2195 4 546 544 545 558
2196 4 546 544 545 559
2197 4 546 544 547 563
2198 4 546 544 547 564
2199 4 546 544 547 565
2200 4 547 544 543 555
2201 4 547 544 543 556
2202 4 547 544 545 557
2203 4 547 544 545 558
2204 4 547 544 545 559
2205 4 547 544 546 560
2206 4 547 544 546 561
2207 4 547 544 546 562
2208 4 163 164 165 177
2209 4 163 164 165 178
2210 4 163 164 165 179
2211 4 163 164 166 180
2212 4 163 164 166 181
2213 4 163 164 166 182
2214 4 163 164 167 183
2215 4 163 164 167 184
2216 4 163 164 167 185
2217 4 165 164 163 175
2218 4 165 164 163 176
2219 4 165 164 166 180
2220 4 165 164 166 181
2221 4 165 164 166 182
2222 4 165 164 167 183
2223 4 165 164 167 184
2224 4 165 164 167 185
2225 4 166 164 163 175
2226 4 166 164 163 176
2227 4 166 164 165 177
2228 4 166 164 165 178
2229 4 166 164 165 179
2230 4 166 164 167 183
2231 4 166 164 167 184
2232 4 166 164 167 185
2233 4 167 164 163 175
2234 4 167 164 163 176
2235 4 167 164 165 177
2236 4 167 164 165 178
2237 4 167 164 165 179
2238 4 167 164 166 180
2239 4 167 164 166 181
2240 4 167 164 166 182
2241 5 541 542 543 544
2242 3 541 542 548 549
2243 3 543 542 548 549
2244 5 541 542 543 555
2245 5 541 542 543 556
2246 3 541 542 548 566
2247 3 543 542 541 554
2248 3 543 542 548 566
2249 3 548 542 541 554
2250 5 548 542 543 555
2251 5 548 542 543 556
2252 1 537 538 539 540
2253 1 537 538 539 549
2254 2 537 538 568 569
2255 4 539 538 568 569
2256 8 537 538 568 581
2257 8 537 538 568 582
2258 4 539 538 537 550
2259 4 539 538 537 551
2260 4 539 538 568 581
2261 4 539 538 568 582
2262 8 552 538 568 569
2263 10 552 538 568 581
2264 10 552 538 568 582
2265 3 539 540 541 542
2266 3 541 540 539 549
2267 3 539 540 541 554
2268 3 553 540 541 554
2269 3 540 541 542 543
2270 3 540 541 542 548
2271 3 542 541 540 553
2272 3 573 579 580 598
2273 3 597 579 580 598
2274 6 573 574 575 576
2275 7 573 574 575 576
2276 6 573 574 575 577
2277 7 573 574 575 577
2278 6 573 574 575 578
2279 7 573 574 575 578
2280 5 575 574 573 579
2281 5 572 573 574 575
2282 3 572 573 579 580
2283 3 574 573 579 580
2284 5 572 573 574 586
2285 5 572 573 574 587
2286 3 572 573 579 597
2287 3 574 573 572 585
2288 3 574 573 579 597
2289 3 579 573 572 585
2290 5 579 573 574 586
2291 5 579 573 574 587
2292 6 286 287 288 289
2293 7 286 287 288 289
2294 6 286 287 288 290
2295 7 286 287 288 290
2296 6 286 287 288 291
2297 7 286 287 288 291
2298 5 288 287 286 292
2299 4 1373 1374 1375 1387
2300 4 1373 1374 1375 1388
2301 4 1373 1374 1375 1389
2302 4 1373 1374 1376 1390
2303 4 1373 1374 1376 1391
2304 4 1373 1374 1376 1392
2305 4 1373 1374 1377 1393
2306 4 1373 1374 1377 1394
2307 4 1373 1374 1377 1395
2308 4 1375 1374 1373 1385
2309 4 1375 1374 1373 1386
2310 4 1375 1374 1376 1390
2311 4 1375 1374 1376 1391
2312 4 1375 1374 1376 1392
2313 4 1375 1374 1377 1393
2314 4 1375 1374 1377 1394
2315 4 1375 1374 1377 1395
2316 4 1376 1374 1373 1385
2317 4 1376 1374 1373 1386
2318 4 1376 1374 1375 1387
2319 4 1376 1374 1375 1388
2320 4 1376 1374 1375 1389
2321 4 1376 1374 1377 1393
2322 4 1376 1374 1377 1394
2323 4 1376 1374 1377 1395
2324 4 1377 1374 1373 1385
2325 4 1377 1374 1373 1386
2326 4 1377 1374 1375 1387
2327 4 1377 1374 1375 1388
2328 4 1377 1374 1375 1389
2329 4 1377 1374 1376 1390
2330 4 1377 1374 1376 1391
2331 4 1377 1374 1376 1392
2332 6 542 543 544 545
2333 7 542 543 544 545
2334 6 542 543 544 546
2335 7 542 543 544 546
2336 6 542 543 544 547
2337 7 542 543 544 547
2338 5 544 543 542 548
2339 4 476 506 507 508
2340 2 476 506 507 537
2341 8 476 506 507 521
2342 10 519 506 507 521
2343 8 519 506 507 537
2344 10 520 506 507 521
2345 8 520 506 507 537
2346 1 506 507 508 509
2347 1 506 507 508 518
2348 2 506 507 537 538
2349 4 508 507 537 538
2350 8 506 507 537 550
2351 8 506 507 537 551
2352 4 508 507 506 519
2353 4 508 507 506 520
2354 4 508 507 537 550
2355 4 508 507 537 551
2356 8 521 507 537 538
2357 10 521 507 537 550
2358 10 521 507 537 551
2359 3 508 518 517 511
2360 3 508 518 517 535
2361 3 507 508 509 510
2362 3 507 508 518 517
2363 1 509 508 507 537
2364 3 509 508 518 517
2365 1 518 508 507 537
2366 3 507 508 509 522
2367 3 507 508 518 536
2368 9 509 508 507 521
2369 5 509 508 507 521
2370 3 509 508 518 536
2371 9 518 508 507 521
2372 5 518 508 507 521
2373 3 518 508 509 522
2374 3 508 509 510 511
2375 3 510 509 508 518
2376 3 508 509 510 523
2377 3 522 509 510 523
2378 3 224 230 231 249
2379 3 248 230 231 249
2380 3 511 517 518 536
2381 3 535 517 518 536
2382 3 509 510 511 512
2383 3 509 510 511 517
2384 3 511 510 509 522
2385 5 510 511 512 513
2386 3 510 511 517 518
2387 3 512 511 517 518
2388 5 510 511 512 524
2389 5 510 511 512 525
2390 3 510 511 517 535
2391 3 512 511 510 523
2392 3 512 511 517 535
2393 3 517 511 510 523
2394 5 517 511 512 524
2395 5 517 511 512 525
2396 4 225 226 227 239
2397 4 225 226 227 240
2398 4 225 226 227 241
2399 4 225 226 228 242
2400 4 225 226 228 243
2401 4 225 226 228 244
2402 4 225 226 229 245
2403 4 225 226 229 246
2404 4 225 226 229 247
2405 4 227 226 225 237
2406 4 227 226 225 238
2407 4 227 226 228 242
2408 4 227 226 228 243
2409 4 227 226 228 244
2410 4 227 226 229 245
2411 4 227 226 229 246
2412 4 227 226 229 247
2413 4 228 226 225 237
2414 4 228 226 225 238
2415 4 228 226 227 239
2416 4 228 226 227 240
2417 4 228 226 227 241
2418 4 228 226 229 245
2419 4 228 226 229 246
2420 4 228 226 229 247
2421 4 229 226 225 237
2422 4 229 226 225 238
2423 4 229 226 227 239
2424 4 229 226 227 240
2425 4 229 226 227 241
2426 4 229 226 228 242
2427 4 229 226 228 243
2428 4 229 226 228 244
2429 6 511 512 513 514
2430 7 511 512 513 514
2431 6 511 512 513 515
2432 7 511 512 513 515
2433 6 511 512 513 516
2434 7 511 512 513 516
2435 5 513 512 511 517
2436 5 223 224 225 226
2437 3 223 224 230 231
2438 3 225 224 230 231
2439 5 223 224 225 237
2440 5 223 224 225 238
2441 3 223 224 230 248
2442 3 225 224 223 236
2443 3 225 224 230 248
2444 3 230 224 223 236
2445 5 230 224 225 237
2446 5 230 224 225 238
2447 6 224 225 226 227
2448 7 224 225 226 227
2449 6 224 225 226 228
2450 7 224 225 226 228
2451 6 224 225 226 229
2452 7 224 225 226 229
2453 5 226 225 224 230
2454 6 829 830 831 832
2455 7 829 830 831 832
2456 6 829 830 831 833
2457 7 829 830 831 833
2458 6 829 830 831 834
2459 7 829 830 831 834
2460 5 831 830 829 835
2461 3 827 828 829 830
2462 3 827 828 829 835
2463 3 829 828 827 840
2464 4 7 8 9 22
2465 4 7 8 9 23
2466 4 7 8 9 24
2467 4 7 8 10 25
2468 4 7 8 10 26
2469 4 7 8 10 27
2470 4 7 8 11 28
2471 4 7 8 11 29
2472 4 7 8 11 30
2473 4 9 8 7 20
2474 4 9 8 7 21
2475 4 9 8 10 25
2476 4 9 8 10 26
2477 4 9 8 10 27
2478 4 9 8 11 28
2479 4 9 8 11 29
2480 4 9 8 11 30
2481 4 10 8 7 20
2482 4 10 8 7 21
2483 4 10 8 9 22
2484 4 10 8 9 23
2485 4 10 8 9 24
2486 4 10 8 11 28
2487 4 10 8 11 29
2488 4 10 8 11 30
2489 4 11 8 7 20
2490 4 11 8 7 21
2491 4 11 8 9 22
2492 4 11 8 9 23
2493 4 11 8 9 24
2494 4 11 8 10 25
2495 4 11 8 10 26
2496 4 11 8 10 27
2497 4 383 413 414 415
2498 2 383 413 414 444
2499 8 383 413 414 428
2500 10 426 413 414 428
2501 8 426 413 414 444
2502 10 427 413 414 428
2503 8 427 413 414 444
2504 4 352 382 383 384
2505 2 352 382 383 413
2506 8 352 382 383 397
2507 10 395 382 383 397
2508 8 395 382 383 413
2509 10 396 382 383 397
2510 8 396 382 383 413
2511 3 352 353 354 355
2512 3 352 353 363 362
2513 1 354 353 352 382
2514 3 354 353 363 362
2515 1 363 353 352 382
2516 3 352 353 354 367
2517 3 352 353 363 381
2518 9 354 353 352 366
2519 5 354 353 352 366
2520 3 354 353 363 381
2521 9 363 353 352 366
2522 5 363 353 352 366
2523 3 363 353 354 367
2524 3 353 354 355 356
2525 3 355 354 353 363
2526 3 353 354 355 368
2527 3 367 354 355 368
2528 3 353 363 362 356
2529 3 353 363 362 380
2530 1 351 352 353 354
2531 1 351 352 353 363
2532 2 351 352 382 383
2533 4 353 352 382 383
2534 8 351 352 382 395
2535 8 351 352 382 396
2536 4 353 352 351 364
2537 4 353 352 351 365
2538 4 353 352 382 395
2539 4 353 352 382 396
2540 8 366 352 382 383
2541 10 366 352 382 395
2542 10 366 352 382 396
2543 3 354 355 356 357
2544 3 354 355 356 362
2545 3 356 355 354 367
2546 4 320 351 352 353
2547 2 320 351 352 382
2548 8 320 351 352 366
2549 10 364 351 352 366
2550 8 364 351 352 382
2551 10 365 351 352 366
2552 8 365 351 352 382
2553 3 356 362 363 381
2554 3 380 362 363 381
2555 5 355 356 357 358
2556 3 355 356 362 363
2557 3 357 356 362 363
2558 5 355 356 357 369
2559 5 355 356 357 370
2560 3 355 356 362 380
2561 3 357 356 355 368
2562 3 357 356 362 380
2563 3 362 356 355 368
2564 5 362 356 357 369
2565 5 362 356 357 370
2566 3 320 321 322 323
2567 3 320 321 331 330
2568 1 322 321 320 351
2569 3 322 321 331 330
2570 1 331 321 320 351
2571 3 320 321 322 336
2572 3 320 321 331 350
2573 9 322 321 320 335
2574 3 322 321 331 350
2575 9 331 321 320 335
2576 5 331 321 320 335
2577 3 331 321 322 336
2578 3 321 331 330 324
2579 3 321 331 330 349
2580 3 321 322 323 324
2581 3 323 322 321 331
2582 3 321 322 323 337
2583 3 336 322 323 337
2584 1 319 320 321 322
2585 1 319 320 321 331
2586 2 319 320 351 352
2587 4 321 320 351 352
2588 8 319 320 351 364
2589 8 319 320 351 365
2590 4 321 320 351 364
2591 4 321 320 351 365
2592 8 335 320 351 352
2593 10 335 320 351 364
2594 10 335 320 351 365
2595 4 830 831 832 844
2596 4 830 831 832 845
2597 4 830 831 832 846
2598 4 830 831 833 847
2599 4 830 831 833 848
2600 4 830 831 833 849
2601 4 830 831 834 850
2602 4 830 831 834 851
2603 4 830 831 834 852
2604 4 832 831 830 842
2605 4 832 831 830 843
2606 4 832 831 833 847
2607 4 832 831 833 848
2608 4 832 831 833 849
2609 4 832 831 834 850
2610 4 832 831 834 851
2611 4 832 831 834 852
2612 4 833 831 830 842
2613 4 833 831 830 843
2614 4 833 831 832 844
2615 4 833 831 832 845
2616 4 833 831 832 846
2617 4 833 831 834 850
2618 4 833 831 834 851
2619 4 833 831 834 852
2620 4 834 831 830 842
2621 4 834 831 830 843
2622 4 834 831 832 844
2623 4 834 831 832 845
2624 4 834 831 832 846
2625 4 834 831 833 847
2626 4 834 831 833 848
2627 4 834 831 833 849
2628 1 382 383 384 385
2629 1 382 383 384 394
2630 2 382 383 413 414
2631 4 384 383 413 414
2632 8 382 383 413 426
2633 8 382 383 413 427
2634 4 384 383 382 395
2635 4 384 383 382 396
2636 4 384 383 413 426
2637 4 384 383 413 427
2638 8 397 383 413 414
2639 10 397 383 413 426
2640 10 397 383 413 427
2641 3 383 384 385 386
2642 3 383 384 394 393
2643 1 385 384 383 413
2644 3 385 384 394 393
2645 1 394 384 383 413
2646 3 383 384 385 398
2647 3 383 384 394 412
2648 9 385 384 383 397
2649 5 385 384 383 397
2650 3 385 384 394 412
2651 9 394 384 383 397
2652 5 394 384 383 397
2653 3 394 384 385 398
2654 3 384 385 386 387
2655 3 386 385 384 394
2656 3 384 385 386 399
2657 3 398 385 386 399
2658 3 384 394 393 387
2659 3 384 394 393 411
2660 3 387 393 394 412
2661 3 411 393 394 412
2662 3 385 386 387 388
2663 3 385 386 387 393
2664 3 387 386 385 398
2665 5 386 387 388 389
2666 3 386 387 393 394
2667 3 388 387 393 394
2668 5 386 387 388 400
2669 5 386 387 388 401
2670 3 386 387 393 411
2671 3 388 387 386 399
2672 3 388 387 393 411
2673 3 393 387 386 399
2674 5 393 387 388 400
2675 5 393 387 388 401
2676 6 387 388 389 390
2677 7 387 388 389 390
2678 6 387 388 389 391
2679 7 387 388 389 391
2680 6 387 388 389 392
2681 7 387 388 389 392
2682 5 389 388 387 393
2683 4 388 389 390 402
2684 4 388 389 390 403
2685 4 388 389 390 404
2686 4 388 389 391 405
2687 4 388 389 391 406
2688 4 388 389 391 407
2689 4 388 389 392 408
2690 4 388 389 392 409
2691 4 388 389 392 410
2692 4 390 389 388 400
2693 4 390 389 388 401
2694 4 390 389 391 405
2695 4 390 389 391 406
2696 4 390 389 391 407
2697 4 390 389 392 408
2698 4 390 389 392 409
2699 4 390 389 392 410
2700 4 391 389 388 400
2701 4 391 389 388 401
2702 4 391 389 390 402
2703 4 391 389 390 403
2704 4 391 389 390 404
2705 4 391 389 392 408
2706 4 391 389 392 409
2707 4 391 389 392 410
2708 4 392 389 388 400
2709 4 392 389 388 401
2710 4 392 389 390 402
2711 4 392 389 390 403
2712 4 392 389 390 404
2713 4 392 389 391 405
2714 4 392 389 391 406
2715 4 392 389 391 407
2716 3 4 5 6 7
2717 3 4 5 6 12
2718 3 6 5 4 18
2719 4 357 358 359 371
2720 4 357 358 359 372
2721 4 357 358 359 373
2722 4 357 358 360 374
2723 4 357 358 360 375
2724 4 357 358 360 376
2725 4 357 358 361 377
2726 4 357 358 361 378
2727 4 357 358 361 379
2728 4 359 358 357 369
2729 4 359 358 357 370
2730 4 359 358 360 374
2731 4 359 358 360 375
2732 4 359 358 360 376
2733 4 359 358 361 377
2734 4 359 358 361 378
2735 4 359 358 361 379
2736 4 360 358 357 369
2737 4 360 358 357 370
2738 4 360 358 359 371
2739 4 360 358 359 372
2740 4 360 358 359 373
2741 4 360 358 361 377
2742 4 360 358 361 378
2743 4 360 358 361 379
2744 4 361 358 357 369
2745 4 361 358 357 370
2746 4 361 358 359 371
2747 4 361 358 359 372
2748 4 361 358 359 373
2749 4 361 358 360 374
2750 4 361 358 360 375
2751 4 361 358 360 376
2752 3 3 13 12 6
2753 3 3 13 12 31
2754 3 2 3 4 5
2755 3 2 3 13 12
2756 1 4 3 2 33
2757 3 4 3 13 12
2758 1 13 3 2 33
2759 3 2 3 4 18
2760 3 2 3 13 32
2761 9 4 3 2 17
2762 3 4 3 13 32
2763 9 13 3 2 17
2764 5 13 3 2 17
2765 3 13 3 4 18
2766 3 6 12 13 32
2767 3 31 12 13 32
2768 3 3 4 5 6
2769 3 5 4 3 13
2770 3 3 4 5 19
2771 3 18 4 5 19
2772 5 5 6 7 8
2773 3 5 6 12 13
2774 3 7 6 12 13
2775 5 5 6 7 20
2776 5 5 6 7 21
2777 3 5 6 12 31
2778 3 7 6 5 19
2779 3 7 6 12 31
2780 3 12 6 5 19
2781 5 12 6 7 20
2782 5 12 6 7 21
2783 6 6 7 8 9
2784 7 6 7 8 9
2785 6 6 7 8 10
2786 7 6 7 8 10
2787 6 6 7 8 11
2788 7 6 7 8 11
2789 5 8 7 6 12
2790 6 356 357 358 359
2791 7 356 357 358 359
2792 6 356 357 358 360
2793 7 356 357 358 360
2794 6 356 357 358 361
2795 7 356 357 358 361
2796 5 358 357 356 362
2797 3 324 330 331 350
2798 3 349 330 331 350
2799 5 323 324 325 326
2800 3 323 324 330 331
2801 3 325 324 330 331
2802 5 323 324 325 338
2803 5 323 324 325 339
2804 3 323 324 330 349
2805 3 325 324 323 337
2806 3 325 324 330 349
2807 3 330 324 323 337
2808 5 330 324 325 338
2809 5 330 324 325 339
2810 4 256 257 258 270
2811 4 256 257 258 271
2812 4 256 257 258 272
2813 4 256 257 259 273
2814 4 256 257 259 274
2815 4 256 257 259 275
2816 4 256 257 260 276
2817 4 256 257 260 277
2818 4 256 257 260 278
2819 4 258 257 256 268
2820 4 258 257 256 269
2821 4 258 257 259 273
2822 4 258 257 259 274
2823 4 258 257 259 275
2824 4 258 257 260 276
2825 4 258 257 260 277
2826 4 258 257 260 278
2827 4 259 257 256 268
2828 4 259 257 256 269
2829 4 259 257 258 270
2830 4 259 257 258 271
2831 4 259 257 258 272
2832 4 259 257 260 276
2833 4 259 257 260 277
2834 4 259 257 260 278
2835 4 260 257 256 268
2836 4 260 257 256 269
2837 4 260 257 258 270
2838 4 260 257 258 271
2839 4 260 257 258 272
2840 4 260 257 259 273
2841 4 260 257 259 274
2842 4 260 257 259 275
2843 6 255 256 257 258
2844 7 255 256 257 258
2845 6 255 256 257 259
2846 7 255 256 257 259
2847 6 255 256 257 260
2848 7 255 256 257 260
2849 5 257 256 255 261
2850 5 254 255 256 257
2851 3 254 255 261 262
2852 3 256 255 261 262
2853 5 254 255 256 268
2854 5 254 255 256 269
2855 3 254 255 261 279
2856 3 256 255 254 267
2857 3 256 255 261 279
2858 3 261 255 254 267
2859 5 261 255 256 268
2860 5 261 255 256 269
2861 3 255 261 262 280
2862 3 279 261 262 280
2863 4 127 157 158 159
2864 2 127 157 158 188
2865 8 127 157 158 172
2866 10 170 157 158 172
2867 8 170 157 158 188
2868 10 171 157 158 172
2869 8 171 157 158 188
2870 3 322 323 324 325
2871 3 322 323 324 330
2872 3 324 323 322 336
2873 3 253 254 255 256
2874 3 253 254 255 261
2875 3 255 254 253 266
2876 4 14 1 2 3
2877 2 14 1 2 33
2878 8 2 1 14 313
2879 8 2 1 14 314
2880 8 2 1 14 315
2881 4 15 1 2 3
2882 4 16 1 2 3
2883 8 14 1 2 17
2884 10 15 1 2 17
2885 8 15 1 2 33
2886 10 15 1 14 313
2887 10 15 1 14 314
2888 10 15 1 14 315
2889 10 16 1 2 17
2890 8 16 1 2 33
2891 10 16 1 14 313
2892 10 16 1 14 314
2893 10 16 1 14 315
2894 6 324 325 326 327
2895 7 324 325 326 327
2896 6 324 325 326 328
2897 7 324 325 326 328
2898 6 324 325 326 329
2899 7 324 325 326 329
2900 5 326 325 324 330
2901 1 1 2 3 4
2902 1 1 2 3 13
2903 2 1 2 33 34
2904 4 3 2 33 34
2905 8 1 2 33 46
2906 8 1 2 33 47
2907 4 3 2 33 46
2908 4 3 2 33 47
2909 8 17 2 33 34
2910 10 17 2 33 46
2911 10 17 2 33 47
2912 4 34 64 65 66
2913 2 34 64 65 95
2914 8 34 64 65 79
2915 10 77 64 65 79
2916 8 77 64 65 95
2917 10 78 64 65 79
2918 8 78 64 65 95
2919 4 2 33 34 35
2920 2 2 33 34 64
2921 8 2 33 34 48
2922 10 46 33 34 48
2923 8 46 33 34 64
2924 10 47 33 34 48
2925 8 47 33 34 64
2926 1 33 34 35 36
2927 1 33 34 35 45
2928 2 33 34 64 65
2929 4 35 34 64 65
2930 8 33 34 64 77
2931 8 33 34 64 78
2932 4 35 34 33 46
2933 4 35 34 33 47
2934 4 35 34 64 77
2935 4 35 34 64 78
2936 8 48 34 64 65
2937 10 48 34 64 77
2938 10 48 34 64 78
2939 1 64 65 66 67
2940 1 64 65 66 76
2941 2 64 65 95 96
2942 4 66 65 95 96
2943 8 64 65 95 108
2944 8 64 65 95 109
2945 4 66 65 64 77
2946 4 66 65 64 78
2947 4 66 65 95 108
2948 4 66 65 95 109
2949 8 79 65 95 96
2950 10 79 65 95 108
2951 10 79 65 95 109
2952 4 65 95 96 97
2953 2 65 95 96 126
2954 8 65 95 96 110
2955 10 108 95 96 110
2956 8 108 95 96 126
2957 10 109 95 96 110
2958 8 109 95 96 126
2959 3 65 66 67 68
2960 3 65 66 76 75
2961 1 67 66 65 95
2962 3 67 66 76 75
2963 1 76 66 65 95
2964 3 65 66 67 80
2965 3 65 66 76 94
2966 9 67 66 65 79
2967 5 67 66 65 79
2968 3 67 66 76 94
2969 9 76 66 65 79
2970 5 76 66 65 79
2971 3 76 66 67 80
2972 4 325 326 327 340
2973 4 325 326 327 341
2974 4 325 326 327 342
2975 4 325 326 328 343
2976 4 325 326 328 344
2977 4 325 326 328 345
2978 4 325 326 329 346
2979 4 325 326 329 347
2980 4 325 326 329 348
2981 4 327 326 325 338
2982 4 327 326 325 339
2983 4 327 326 328 343
2984 4 327 326 328 344
2985 4 327 326 328 345
2986 4 327 326 329 346
2987 4 327 326 329 347
2988 4 327 326 329 348
2989 4 328 326 325 338
2990 4 328 326 325 339
2991 4 328 326 327 340
2992 4 328 326 327 341
2993 4 328 326 327 342
2994 4 328 326 329 346
2995 4 328 326 329 347
2996 4 328 326 329 348
2997 4 329 326 325 338
2998 4 329 326 325 339
2999 4 329 326 327 340
3000 4 329 326 327 341
3001 4 329 326 327 342
3002 4 329 326 328 343
3003 4 329 326 328 344
3004 4 329 326 328 345
3005 4 189 219 220 221
3006 2 189 219 220 250
3007 8 189 219 220 234
3008 10 232 219 220 234
3009 8 232 219 220 250
3010 10 233 219 220 234
3011 8 233 219 220 250
3012 3 189 190 191 192
3013 3 189 190 200 199
3014 1 191 190 189 219
3015 3 191 190 200 199
3016 1 200 190 189 219
3017 3 189 190 191 204
3018 3 189 190 200 218
3019 9 191 190 189 203
3020 5 191 190 189 203
3021 3 191 190 200 218
3022 9 200 190 189 203
3023 5 200 190 189 203
3024 3 200 190 191 204
3025 4 158 188 189 190
3026 2 158 188 189 219
3027 8 158 188 189 203
3028 10 201 188 189 203
3029 8 201 188 189 219
3030 10 202 188 189 203
3031 8 202 188 189 219
3032 3 190 200 199 193
3033 3 190 200 199 217
3034 1 219 220 221 222
3035 1 219 220 221 231
3036 2 219 220 250 251
3037 4 221 220 250 251
3038 8 219 220 250 263
3039 8 219 220 250 264
3040 4 221 220 219 232
3041 4 221 220 219 233
3042 4 221 220 250 263
3043 4 221 220 250 264
3044 8 234 220 250 251
3045 10 234 220 250 263
3046 10 234 220 250 264
3047 1 188 189 190 191
3048 1 188 189 190 200
3049 2 188 189 219 220
3050 4 190 189 219 220
3051 8 188 189 219 232
3052 8 188 189 219 233
3053 4 190 189 188 201
3054 4 190 189 188 202
3055 4 190 189 219 232
3056 4 190 189 219 233
3057 8 203 189 219 220
3058 10 203 189 219 232
3059 10 203 189 219 233
3060 3 190 191 192 193
3061 3 192 191 190 200
3062 3 190 191 192 205
3063 3 204 191 192 205
3064 1 157 158 159 160
3065 1 157 158 159 169
3066 2 157 158 188 189
3067 4 159 158 188 189
3068 8 157 158 188 201
3069 8 157 158 188 202
3070 4 159 158 157 170
3071 4 159 158 157 171
3072 4 159 158 188 201
3073 4 159 158 188 202
3074 8 172 158 188 189
3075 10 172 158 188 201
3076 10 172 158 188 202
3077 3 220 221 222 223
3078 3 220 221 231 230
3079 1 222 221 220 250
3080 3 222 221 231 230
3081 1 231 221 220 250
3082 3 220 221 222 235
3083 3 220 221 231 249
3084 9 222 221 220 234
3085 5 222 221 220 234
3086 3 222 221 231 249
3087 9 231 221 220 234
3088 5 231 221 220 234
3089 3 231 221 222 235
3090 3 159 160 161 162
3091 3 161 160 159 169
3092 3 159 160 161 174
3093 3 173 160 161 174
3094 3 193 199 200 218
3095 3 217 199 200 218
3096 3 158 159 160 161
3097 3 158 159 169 168
3098 1 160 159 158 188
3099 3 160 159 169 168
3100 1 169 159 158 188
3101 3 158 159 160 173
3102 3 158 159 169 187
3103 9 160 159 158 172
3104 5 160 159 158 172
3105 3 160 159 169 187
3106 9 169 159 158 172
3107 5 169 159 158 172
3108 3 169 159 160 173
3109 3 191 192 193 194
3110 3 191 192 193 199
3111 3 193 192 191 204
3112 3 221 222 223 224
3113 3 223 222 221 231
3114 3 221 222 223 236
3115 3 235 222 223 236
3116 3 252 262 261 255
3117 3 252 262 261 279
3118 4 220 250 251 252
3119 2 220 250 251 281
3120 8 220 250 251 265
3121 10 263 250 251 265
3122 8 263 250 251 281
3123 10 264 250 251 265
3124 8 264 250 251 281
3125 3 252 253 254 255
3126 3 254 253 252 262
3127 3 252 253 254 267
3128 3 266 253 254 267
3129 3 251 252 253 254
3130 3 251 252 262 261
3131 1 253 252 251 281
3132 3 253 252 262 261
3133 1 262 252 251 281
3134 3 251 252 253 266
3135 3 251 252 262 280
3136 9 253 252 251 265
3137 5 253 252 251 265
3138 3 253 252 262 280
3139 9 262 252 251 265
3140 5 262 252 251 265
3141 3 262 252 253 266
3142 3 282 283 284 285
3143 3 282 283 293 292
3144 1 284 283 282 296
3145 3 284 283 293 292
3146 1 293 283 282 296
3147 3 282 283 284 298
3148 3 282 283 293 312
3149 9 284 283 282 297
3150 5 284 283 282 297
3151 3 284 283 293 312
3152 9 293 283 282 297
3153 5 293 283 282 297
3154 3 293 283 284 298
3155 4 251 281 282 283
3156 2 251 281 282 296
3157 8 251 281 282 297
3158 8 294 281 282 296
3159 10 294 281 282 297
3160 8 295 281 282 296
3161 10 295 281 282 297
3162 1 281 282 283 284
3163 1 281 282 283 293
3164 8 281 282 296 316
3165 8 281 282 296 317
3166 8 281 282 296 318
3167 4 283 282 281 294
3168 4 283 282 281 295
3169 4 283 282 296 316
3170 4 283 282 296 317
3171 4 283 282 296 318
3172 10 297 282 296 316
3173 10 297 282 296 317
3174 10 297 282 296 318
3175 3 283 293 292 286
3176 3 283 293 292 311
3177 1 250 251 252 253
3178 1 250 251 252 262
3179 2 250 251 281 282
3180 4 252 251 281 282
3181 8 250 251 281 294
3182 8 250 251 281 295
3183 4 252 251 250 263
3184 4 252 251 250 264
3185 4 252 251 281 294
3186 4 252 251 281 295
3187 8 265 251 281 282
3188 10 265 251 281 294
3189 10 265 251 281 295
3190 3 283 284 285 286
3191 3 285 284 283 293
3192 3 283 284 285 299
3193 3 298 284 285 299
3194 5 285 286 287 288
3195 3 285 286 292 293
3196 3 287 286 292 293
3197 5 285 286 287 300
3198 5 285 286 287 301
3199 3 285 286 292 311
3200 3 287 286 285 299
3201 3 287 286 292 311
3202 3 292 286 285 299
3203 5 292 286 287 300
3204 5 292 286 287 301
3205 3 284 285 286 287
3206 3 284 285 286 292
3207 3 286 285 284 298
3208 4 70 71 72 84
3209 4 70 71 72 85
3210 4 70 71 72 86
3211 4 70 71 73 87
3212 4 70 71 73 88
3213 4 70 71 73 89
3214 4 70 71 74 90
3215 4 70 71 74 91
3216 4 70 71 74 92
3217 4 72 71 70 82
3218 4 72 71 70 83
3219 4 72 71 73 87
3220 4 72 71 73 88
3221 4 72 71 73 89
3222 4 72 71 74 90
3223 4 72 71 74 91
3224 4 72 71 74 92
3225 4 73 71 70 82
3226 4 73 71 70 83
3227 4 73 71 72 84
3228 4 73 71 72 85
3229 4 73 71 72 86
3230 4 73 71 74 90
3231 4 73 71 74 91
3232 4 73 71 74 92
3233 4 74 71 70 82
3234 4 74 71 70 83
3235 4 74 71 72 84
3236 4 74 71 72 85
3237 4 74 71 72 86
3238 4 74 71 73 87
3239 4 74 71 73 88
3240 4 74 71 73 89
3241 6 69 70 71 72
3242 7 69 70 71 72
3243 6 69 70 71 73
3244 7 69 70 71 73
3245 6 69 70 71 74
3246 7 69 70 71 74
3247 5 71 70 69 75
3248 6 162 163 164 165
3249 7 162 163 164 165
3250 6 162 163 164 166
3251 7 162 163 164 166
3252 6 162 163 164 167
3253 7 162 163 164 167
3254 5 164 163 162 168
3255 5 161 162 163 164
3256 3 161 162 168 169
3257 3 163 162 168 169
3258 5 161 162 163 175
3259 5 161 162 163 176
3260 3 161 162 168 186
3261 3 163 162 161 174
3262 3 163 162 168 186
3263 3 168 162 161 174
3264 5 168 162 163 175
3265 5 168 162 163 176
3266 3 162 168 169 187
3267 3 186 168 169 187
3268 3 69 75 76 94
3269 3 93 75 76 94
3270 3 66 76 75 69
3271 3 66 76 75 93
3272 5 68 69 70 71
3273 3 68 69 75 76
3274 3 70 69 75 76
3275 5 68 69 70 82
3276 5 68 69 70 83
3277 3 68 69 75 93
3278 3 70 69 68 81
3279 3 70 69 75 93
3280 3 75 69 68 81
3281 5 75 69 70 82
3282 5 75 69 70 83
3283 6 193 194 195 196
3284 7 193 194 195 196
3285 6 193 194 195 197
3286 7 193 194 195 197
3287 6 193 194 195 198
3288 7 193 194 195 198
3289 5 195 194 193 199
3290 3 67 68 69 70
3291 3 67 68 69 75
3292 3 69 68 67 80
3293 3 159 169 168 162
3294 3 159 169 168 186
3295 3 160 161 162 163
3296 3 160 161 162 168
3297 3 162 161 160 173
3298 5 192 193 194 195
3299 3 192 193 199 200
3300 3 194 193 199 200
3301 5 192 193 194 206
3302 5 192 193 194 207
3303 3 192 193 199 217
3304 3 194 193 192 205
3305 3 194 193 199 217
3306 3 199 193 192 205
3307 5 199 193 194 206
3308 5 199 193 194 207
3309 4 507 537 538 539
3310 2 507 537 538 568
3311 8 507 537 538 552
3312 10 550 537 538 552
3313 8 550 537 538 568
3314 10 551 537 538 552
3315 8 551 537 538 568
3316 3 221 231 230 224
3317 3 221 231 230 248
3318 3 286 292 293 312
3319 3 311 292 293 312
3320 4 287 288 289 302
3321 4 287 288 289 303
3322 4 287 288 289 304
3323 4 287 288 290 305
3324 4 287 288 290 306
3325 4 287 288 290 307
3326 4 287 288 291 308
3327 4 287 288 291 309
3328 4 287 288 291 310
3329 4 289 288 287 300
3330 4 289 288 287 301
3331 4 289 288 290 305
3332 4 289 288 290 306
3333 4 289 288 290 307
3334 4 289 288 291 308
3335 4 289 288 291 309
3336 4 289 288 291 310
3337 4 290 288 287 300
3338 4 290 288 287 301
3339 4 290 288 289 302
3340 4 290 288 289 303
3341 4 290 288 289 304
3342 4 290 288 291 308
3343 4 290 288 291 309
3344 4 290 288 291 310
3345 4 291 288 287 300
3346 4 291 288 287 301
3347 4 291 288 289 302
3348 4 291 288 289 303
3349 4 291 288 289 304
3350 4 291 288 290 305
3351 4 291 288 290 306
3352 4 291 288 290 307
3353 4 194 195 196 208
3354 4 194 195 196 209
3355 4 194 195 196 210
3356 4 194 195 197 211
3357 4 194 195 197 212
3358 4 194 195 197 213
3359 4 194 195 198 214
3360 4 194 195 198 215
3361 4 194 195 198 216
3362 4 196 195 194 206
3363 4 196 195 194 207
3364 4 196 195 197 211
3365 4 196 195 197 212
3366 4 196 195 197 213
3367 4 196 195 198 214
3368 4 196 195 198 215
3369 4 196 195 198 216
3370 4 197 195 194 206
3371 4 197 195 194 207
3372 4 197 195 196 208
3373 4 197 195 196 209
3374 4 197 195 196 210
3375 4 197 195 198 214
3376 4 197 195 198 215
3377 4 197 195 198 216
3378 4 198 195 194 206
3379 4 198 195 194 207
3380 4 198 195 196 208
3381 4 198 195 196 209
3382 4 198 195 196 210
3383 4 198 195 197 211
3384 4 198 195 197 212
3385 4 198 195 197 213
3386 3 887 888 889 890
3387 3 887 888 898 897
3388 1 889 888 887 917
3389 3 889 888 898 897
3390 1 898 888 887 917
3391 3 887 888 889 902
3392 3 887 888 898 916
3393 9 889 888 887 901
3394 5 889 888 887 901
3395 3 889 888 898 916
3396 9 898 888 887 901
3397 5 898 888 887 901
3398 3 898 888 889 902
3399 4 856 886 887 888
3400 2 856 886 887 917
3401 8 856 886 887 901
3402 10 899 886 887 901
3403 8 899 886 887 917
3404 10 900 886 887 901
3405 8 900 886 887 917
3406 4 887 917 918 919
3407 2 887 917 918 932
3408 8 887 917 918 933
3409 8 930 917 918 932
3410 10 930 917 918 933
3411 8 931 917 918 932
3412 10 931 917 918 933
3413 1 917 918 919 920
3414 1 917 918 919 929
3415 8 917 918 932 952
3416 8 917 918 932 953
3417 8 917 918 932 954
3418 4 919 918 917 930
3419 4 919 918 917 931
3420 4 919 918 932 952
3421 4 919 918 932 953
3422 4 919 918 932 954
3423 10 933 918 932 952
3424 10 933 918 932 953
3425 10 933 918 932 954
3426 1 886 887 888 889
3427 1 886 887 888 898
3428 2 886 887 917 918
3429 4 888 887 917 918
3430 8 886 887 917 930
3431 8 886 887 917 931
3432 4 888 887 886 899
3433 4 888 887 886 900
3434 4 888 887 917 930
3435 4 888 887 917 931
3436 8 901 887 917 918
3437 10 901 887 917 930
3438 10 901 887 917 931
3439 3 918 919 920 921
3440 3 918 919 929 928
3441 1 920 919 918 932
3442 3 920 919 929 928
3443 1 929 919 918 932
3444 3 918 919 920 934
3445 3 918 919 929 948
3446 9 920 919 918 933
3447 5 920 919 918 933
3448 3 920 919 929 948
3449 9 929 919 918 933
3450 5 929 919 918 933
3451 3 929 919 920 934
3452 3 888 889 890 891
3453 3 890 889 888 898
3454 3 888 889 890 903
3455 3 902 889 890 903
3456 1 824 825 826 827
3457 1 824 825 826 836
3458 2 824 825 855 856
3459 4 826 825 855 856
3460 8 824 825 855 868
3461 8 824 825 855 869
3462 4 826 825 824 837
3463 4 826 825 824 838
3464 4 826 825 855 868
3465 4 826 825 855 869
3466 8 839 825 855 856
3467 10 839 825 855 868
3468 10 839 825 855 869
3469 3 826 827 828 829
3470 3 828 827 826 836
3471 3 826 827 828 841
3472 3 840 827 828 841
3473 3 825 826 827 828
3474 3 825 826 836 835
3475 1 827 826 825 855
3476 3 827 826 836 835
3477 1 836 826 825 855
3478 3 825 826 827 840
3479 3 825 826 836 854
3480 9 827 826 825 839
3481 5 827 826 825 839
3482 3 827 826 836 854
3483 9 836 826 825 839
3484 5 836 826 825 839
3485 3 836 826 827 840
3486 5 828 829 830 831
3487 3 828 829 835 836
3488 3 830 829 835 836
3489 5 828 829 830 842
3490 5 828 829 830 843
3491 3 828 829 835 853
3492 3 830 829 828 841
3493 3 830 829 835 853
3494 3 835 829 828 841
3495 5 835 829 830 842
3496 5 835 829 830 843
3497 3 829 835 836 854
3498 3 853 835 836 854
3499 3 826 836 835 829
3500 3 826 836 835 853
3501 4 825 855 856 857
3502 2 825 855 856 886
3503 8 825 855 856 870
3504 10 868 855 856 870
3505 8 868 855 856 886
3506 10 869 855 856 870
3507 8 869 855 856 886
3508 1 855 856 857 858
3509 1 855 856 857 867
3510 2 855 856 886 887
3511 4 857 856 886 887
3512 8 855 856 886 899
3513 8 855 856 886 900
3514 4 857 856 855 868
3515 4 857 856 855 869
3516 4 857 856 886 899
3517 4 857 856 886 900
3518 8 870 856 886 887
3519 10 870 856 886 899
3520 10 870 856 886 900
3521 3 856 857 858 859
3522 3 856 857 867 866
3523 1 858 857 856 886
3524 3 858 857 867 866
3525 1 867 857 856 886
3526 3 856 857 858 871
3527 3 856 857 867 885
3528 9 858 857 856 870
3529 5 858 857 856 870
3530 3 858 857 867 885
3531 9 867 857 856 870
3532 5 867 857 856 870
3533 3 867 857 858 871
3534 6 1310 1311 1312 1313
3535 7 1310 1311 1312 1313
3536 6 1310 1311 1312 1314
3537 7 1310 1311 1312 1314
3538 6 1310 1311 1312 1315
3539 7 1310 1311 1312 1315
3540 5 1312 1311 1310 1316
3541 5 1309 1310 1311 1312
3542 3 1309 1310 1316 1317
3543 3 1311 1310 1316 1317
3544 5 1309 1310 1311 1323
3545 5 1309 1310 1311 1324
3546 3 1309 1310 1316 1334
3547 3 1311 1310 1309 1322
3548 3 1311 1310 1316 1334
3549 3 1316 1310 1309 1322
3550 5 1316 1310 1311 1323
3551 5 1316 1310 1311 1324
3552 3 1310 1316 1317 1335
3553 3 1334 1316 1317 1335
3554 3 1307 1317 1316 1310
3555 3 1307 1317 1316 1334
3556 3 1308 1309 1310 1311
3557 3 1308 1309 1310 1316
3558 3 1310 1309 1308 1321
3559 3 1306 1307 1308 1309
3560 3 1306 1307 1317 1316
3561 1 1308 1307 1306 1336
3562 3 1308 1307 1317 1316
3563 1 1317 1307 1306 1336
3564 3 1306 1307 1308 1321
3565 3 1306 1307 1317 1335
3566 9 1308 1307 1306 1320
3567 5 1308 1307 1306 1320
3568 3 1308 1307 1317 1335
3569 9 1317 1307 1306 1320
3570 5 1317 1307 1306 1320
3571 3 1317 1307 1308 1321
3572 3 1307 1308 1309 1310
3573 3 1309 1308 1307 1317
3574 3 1307 1308 1309 1322
3575 3 1321 1308 1309 1322
3576 1 1305 1306 1307 1308
3577 1 1305 1306 1307 1317
3578 2 1305 1306 1336 1337
3579 4 1307 1306 1336 1337
3580 8 1305 1306 1336 1349
3581 8 1305 1306 1336 1350
3582 4 1307 1306 1305 1318
3583 4 1307 1306 1305 1319
3584 4 1307 1306 1336 1349
3585 4 1307 1306 1336 1350
3586 8 1320 1306 1336 1337
3587 10 1320 1306 1336 1349
3588 10 1320 1306 1336 1350
3589 4 1311 1312 1313 1325
3590 4 1311 1312 1313 1326
3591 4 1311 1312 1313 1327
3592 4 1311 1312 1314 1328
3593 4 1311 1312 1314 1329
3594 4 1311 1312 1314 1330
3595 4 1311 1312 1315 1331
3596 4 1311 1312 1315 1332
3597 4 1311 1312 1315 1333
3598 4 1313 1312 1311 1323
3599 4 1313 1312 1311 1324
3600 4 1313 1312 1314 1328
3601 4 1313 1312 1314 1329
3602 4 1313 1312 1314 1330
3603 4 1313 1312 1315 1331
3604 4 1313 1312 1315 1332
3605 4 1313 1312 1315 1333
3606 4 1314 1312 1311 1323
3607 4 1314 1312 1311 1324
3608 4 1314 1312 1313 1325
3609 4 1314 1312 1313 1326
3610 4 1314 1312 1313 1327
3611 4 1314 1312 1315 1331
3612 4 1314 1312 1315 1332
3613 4 1314 1312 1315 1333
3614 4 1315 1312 1311 1323
3615 4 1315 1312 1311 1324
3616 4 1315 1312 1313 1325
3617 4 1315 1312 1313 1326
3618 4 1315 1312 1313 1327
3619 4 1315 1312 1314 1328
3620 4 1315 1312 1314 1329
3621 4 1315 1312 1314 1330
3622 4 1404 1405 1406 1418
3623 4 1404 1405 1406 1419
3624 4 1404 1405 1406 1420
3625 4 1404 1405 1407 1421
3626 4 1404 1405 1407 1422
3627 4 1404 1405 1407 1423
3628 4 1404 1405 1408 1424
3629 4 1404 1405 1408 1425
3630 4 1404 1405 1408 1426
3631 4 1406 1405 1404 1416
3632 4 1406 1405 1404 1417
3633 4 1406 1405 1407 1421
3634 4 1406 1405 1407 1422
3635 4 1406 1405 1407 1423
3636 4 1406 1405 1408 1424
3637 4 1406 1405 1408 1425
3638 4 1406 1405 1408 1426
3639 4 1407 1405 1404 1416
3640 4 1407 1405 1404 1417
3641 4 1407 1405 1406 1418
3642 4 1407 1405 1406 1419
3643 4 1407 1405 1406 1420
3644 4 1407 1405 1408 1424
3645 4 1407 1405 1408 1425
3646 4 1407 1405 1408 1426
3647 4 1408 1405 1404 1416
3648 4 1408 1405 1404 1417
3649 4 1408 1405 1406 1418
3650 4 1408 1405 1406 1419
3651 4 1408 1405 1406 1420
3652 4 1408 1405 1407 1421
3653 4 1408 1405 1407 1422
3654 4 1408 1405 1407 1423
3655 6 1403 1404 1405 1406
3656 7 1403 1404 1405 1406
3657 6 1403 1404 1405 1407
3658 7 1403 1404 1405 1407
3659 6 1403 1404 1405 1408
3660 7 1403 1404 1405 1408
3661 5 1405 1404 1403 1409
3662 5 1402 1403 1404 1405
3663 3 1402 1403 1409 1410
3664 3 1404 1403 1409 1410
3665 5 1402 1403 1404 1416
3666 5 1402 1403 1404 1417
3667 3 1402 1403 1409 1427
3668 3 1404 1403 1402 1415
3669 3 1404 1403 1409 1427
3670 3 1409 1403 1402 1415
3671 5 1409 1403 1404 1416
3672 5 1409 1403 1404 1417
3673 3 1401 1402 1403 1404
3674 3 1401 1402 1403 1409
3675 3 1403 1402 1401 1414
3676 4 512 513 514 526
3677 4 512 513 514 527
3678 4 512 513 514 528
3679 4 512 513 515 529
3680 4 512 513 515 530
3681 4 512 513 515 531
3682 4 512 513 516 532
3683 4 512 513 516 533
3684 4 512 513 516 534
3685 4 514 513 512 524
3686 4 514 513 512 525
3687 4 514 513 515 529
3688 4 514 513 515 530
3689 4 514 513 515 531
3690 4 514 513 516 532
3691 4 514 513 516 533
3692 4 514 513 516 534
3693 4 515 513 512 524
3694 4 515 513 512 525
3695 4 515 513 514 526
3696 4 515 513 514 527
3697 4 515 513 514 528
3698 4 515 513 516 532
3699 4 515 513 516 533
3700 4 515 513 516 534
3701 4 516 513 512 524
3702 4 516 513 512 525
3703 4 516 513 514 526
3704 4 516 513 514 527
3705 4 516 513 514 528
3706 4 516 513 515 529
3707 4 516 513 515 530
3708 4 516 513 515 531
3709 3 1400 1401 1402 1403
3710 3 1402 1401 1400 1410
3711 3 1400 1401 1402 1415
3712 3 1414 1401 1402 1415
3713 3 1399 1400 1401 1402
3714 3 1399 1400 1410 1409
3715 1 1401 1400 1399 1429
3716 3 1401 1400 1410 1409
3717 1 1410 1400 1399 1429
3718 3 1399 1400 1401 1414
3719 3 1399 1400 1410 1428
3720 9 1401 1400 1399 1413
3721 5 1401 1400 1399 1413
3722 3 1401 1400 1410 1428
3723 9 1410 1400 1399 1413
3724 5 1410 1400 1399 1413
3725 3 1410 1400 1401 1414
3726 3 1403 1409 1410 1428
3727 3 1427 1409 1410 1428
3728 3 1400 1410 1409 1403
3729 3 1400 1410 1409 1427
3730 4 332 319 320 321
3731 2 332 319 320 351
3732 8 320 319 332 631
3733 8 320 319 332 632
3734 8 320 319 332 633
3735 4 333 319 320 321
3736 4 334 319 320 321
3737 8 332 319 320 335
3738 10 333 319 320 335
3739 8 333 319 320 351
3740 10 333 319 332 631
3741 10 333 319 332 632
3742 10 333 319 332 633
3743 10 334 319 320 335
3744 8 334 319 320 351
3745 10 334 319 332 631
3746 10 334 319 332 632
3747 10 334 319 332 633
3748 6 1054 1055 1056 1057
3749 7 1054 1055 1056 1057
3750 6 1054 1055 1056 1058
3751 7 1054 1055 1056 1058
3752 6 1054 1055 1056 1059
3753 7 1054 1055 1056 1059
3754 5 1056 1055 1054 1060
3755 3 919 929 928 922
3756 3 919 929 928 947
3757 3 888 898 897 891
3758 3 888 898 897 915
3759 3 922 928 929 948
3760 3 947 928 929 948
3761 3 891 897 898 916
3762 3 915 897 898 916
3763 3 889 890 891 892
3764 3 889 890 891 897
3765 3 891 890 889 902
3766 5 890 891 892 893
3767 3 890 891 897 898
3768 3 892 891 897 898
3769 5 890 891 892 904
3770 5 890 891 892 905
3771 3 890 891 897 915
3772 3 892 891 890 903
3773 3 892 891 897 915
3774 3 897 891 890 903
3775 5 897 891 892 904
3776 5 897 891 892 905
3777 6 891 892 893 894
3778 7 891 892 893 894
3779 6 891 892 893 895
3780 7 891 892 893 895
3781 6 891 892 893 896
3782 7 891 892 893 896
3783 5 893 892 891 897
3784 4 892 893 894 906
3785 4 892 893 894 907
3786 4 892 893 894 908
3787 4 892 893 895 909
3788 4 892 893 895 910
3789 4 892 893 895 911
3790 4 892 893 896 912
3791 4 892 893 896 913
3792 4 892 893 896 914
3793 4 894 893 892 904
3794 4 894 893 892 905
3795 4 894 893 895 909
3796 4 894 893 895 910
3797 4 894 893 895 911
3798 4 894 893 896 912
3799 4 894 893 896 913
3800 4 894 893 896 914
3801 4 895 893 892 904
3802 4 895 893 892 905
3803 4 895 893 894 906
3804 4 895 893 894 907
3805 4 895 893 894 908
3806 4 895 893 896 912
3807 4 895 893 896 913
3808 4 895 893 896 914
3809 4 896 893 892 904
3810 4 896 893 892 905
3811 4 896 893 894 906
3812 4 896 893 894 907
3813 4 896 893 894 908
3814 4 896 893 895 909
3815 4 896 893 895 910
3816 4 896 893 895 911
3817 4 1286 1273 1274 1275
3818 2 1286 1273 1274 1305
3819 8 1274 1273 1286 1585
3820 8 1274 1273 1286 1586
3821 8 1274 1273 1286 1587
3822 4 1287 1273 1274 1275
3823 4 1288 1273 1274 1275
3824 8 1286 1273 1274 1289
3825 10 1287 1273 1274 1289
3826 8 1287 1273 1274 1305
3827 10 1287 1273 1286 1585
3828 10 1287 1273 1286 1586
3829 10 1287 1273 1286 1587
3830 10 1288 1273 1274 1289
3831 8 1288 1273 1274 1305
3832 10 1288 1273 1286 1585
3833 10 1288 1273 1286 1586
3834 10 1288 1273 1286 1587
3835 4 1274 1305 1306 1307
3836 2 1274 1305 1306 1336
3837 8 1274 1305 1306 1320
3838 10 1318 1305 1306 1320
3839 8 1318 1305 1306 1336
3840 10 1319 1305 1306 1320
3841 8 1319 1305 1306 1336
3842 1 1273 1274 1275 1276
3843 1 1273 1274 1275 1285
3844 2 1273 1274 1305 1306
3845 4 1275 1274 1305 1306
3846 8 1273 1274 1305 1318
3847 8 1273 1274 1305 1319
3848 4 1275 1274 1305 1318
3849 4 1275 1274 1305 1319
3850 8 1289 1274 1305 1306
3851 10 1289 1274 1305 1318
3852 10 1289 1274 1305 1319
3853 5 37 38 39 40
3854 3 37 38 44 45
3855 3 39 38 44 45
3856 5 37 38 39 51
3857 5 37 38 39 52
3858 3 37 38 44 62
3859 3 39 38 37 50
3860 3 39 38 44 62
3861 3 44 38 37 50
3862 5 44 38 39 51
3863 5 44 38 39 52
3864 4 39 40 41 53
3865 4 39 40 41 54
3866 4 39 40 41 55
3867 4 39 40 42 56
3868 4 39 40 42 57
3869 4 39 40 42 58
3870 4 39 40 43 59
3871 4 39 40 43 60
3872 4 39 40 43 61
3873 4 41 40 39 51
3874 4 41 40 39 52
3875 4 41 40 42 56
3876 4 41 40 42 57
3877 4 41 40 42 58
3878 4 41 40 43 59
3879 4 41 40 43 60
3880 4 41 40 43 61
3881 4 42 40 39 51
3882 4 42 40 39 52
3883 4 42 40 41 53
3884 4 42 40 41 54
3885 4 42 40 41 55
3886 4 42 40 43 59
3887 4 42 40 43 60
3888 4 42 40 43 61
3889 4 43 40 39 51
3890 4 43 40 39 52
3891 4 43 40 41 53
3892 4 43 40 41 54
3893 4 43 40 41 55
3894 4 43 40 42 56
3895 4 43 40 42 57
3896 4 43 40 42 58
3897 6 38 39 40 41
3898 7 38 39 40 41
3899 6 38 39 40 42
3900 7 38 39 40 42
3901 6 38 39 40 43
3902 7 38 39 40 43
3903 5 40 39 38 44
3904 3 36 37 38 39
3905 3 36 37 38 44
3906 3 38 37 36 49
3907 4 1117 1118 1119 1131
3908 4 1117 1118 1119 1132
3909 4 1117 1118 1119 1133
3910 4 1117 1118 1120 1134
3911 4 1117 1118 1120 1135
3912 4 1117 1118 1120 1136
3913 4 1117 1118 1121 1137
3914 4 1117 1118 1121 1138
3915 4 1117 1118 1121 1139
3916 4 1119 1118 1117 1129
3917 4 1119 1118 1117 1130
3918 4 1119 1118 1120 1134
3919 4 1119 1118 1120 1135
3920 4 1119 1118 1120 1136
3921 4 1119 1118 1121 1137
3922 4 1119 1118 1121 1138
3923 4 1119 1118 1121 1139
3924 4 1120 1118 1117 1129
3925 4 1120 1118 1117 1130
3926 4 1120 1118 1119 1131
3927 4 1120 1118 1119 1132
3928 4 1120 1118 1119 1133
3929 4 1120 1118 1121 1137
3930 4 1120 1118 1121 1138
3931 4 1120 1118 1121 1139
3932 4 1121 1118 1117 1129
3933 4 1121 1118 1117 1130
3934 4 1121 1118 1119 1131
3935 4 1121 1118 1119 1132
3936 4 1121 1118 1119 1133
3937 4 1121 1118 1120 1134
3938 4 1121 1118 1120 1135
3939 4 1121 1118 1120 1136
3940 3 129 130 131 132
3941 3 129 130 131 137
3942 3 131 130 129 142
3943 5 130 131 132 133
3944 3 130 131 137 138
3945 3 132 131 137 138
3946 5 130 131 132 144
3947 5 130 131 132 145
3948 3 130 131 137 155
3949 3 132 131 130 143
3950 3 132 131 137 155
3951 3 137 131 130 143
3952 5 137 131 132 144
3953 5 137 131 132 145
3954 3 131 137 138 156
3955 3 155 137 138 156
3956 3 128 138 137 131
3957 3 128 138 137 155
3958 3 128 129 130 131
3959 3 130 129 128 138
3960 3 128 129 130 143
3961 3 142 129 130 143
3962 3 127 128 129 130
3963 3 127 128 138 137
3964 1 129 128 127 157
3965 3 129 128 138 137
3966 1 138 128 127 157
3967 3 127 128 129 142
3968 3 127 128 138 156
3969 9 129 128 127 141
3970 5 129 128 127 141
3971 3 129 128 138 156
3972 9 138 128 127 141
3973 5 138 128 127 141
3974 3 138 128 129 142
3975 4 1055 1056 1057 1069
3976 4 1055 1056 1057 1070
3977 4 1055 1056 1057 1071
3978 4 1055 1056 1058 1072
3979 4 1055 1056 1058 1073
3980 4 1055 1056 1058 1074
3981 4 1055 1056 1059 1075
3982 4 1055 1056 1059 1076
3983 4 1055 1056 1059 1077
3984 4 1057 1056 1055 1067
3985 4 1057 1056 1055 1068
3986 4 1057 1056 1058 1072
3987 4 1057 1056 1058 1073
3988 4 1057 1056 1058 1074
3989 4 1057 1056 1059 1075
3990 4 1057 1056 1059 1076
3991 4 1057 1056 1059 1077
3992 4 1058 1056 1055 1067
3993 4 1058 1056 1055 1068
3994 4 1058 1056 1057 1069
3995 4 1058 1056 1057 1070
3996 4 1058 1056 1057 1071
3997 4 1058 1056 1059 1075
3998 4 1058 1056 1059 1076
3999 4 1058 1056 1059 1077
4000 4 1059 1056 1055 1067
4001 4 1059 1056 1055 1068
4002 4 1059 1056 1057 1069
4003 4 1059 1056 1057 1070
4004 4 1059 1056 1057 1071
4005 4 1059 1056 1058 1072
4006 4 1059 1056 1058 1073
4007 4 1059 1056 1058 1074
4008 1 126 127 128 129
4009 1 126 127 128 138
4010 2 126 127 157 158
4011 4 128 127 157 158
4012 8 126 127 157 170
4013 8 126 127 157 171
4014 4 128 127 126 139
4015 4 128 127 126 140
4016 4 128 127 157 170
4017 4 128 127 157 171
4018 8 141 127 157 158
4019 10 141 127 157 170
4020 10 141 127 157 171
4021 4 96 126 127 128
4022 2 96 126 127 157
4023 8 96 126 127 141
4024 10 139 126 127 141
4025 8 139 126 127 157
4026 10 140 126 127 141
4027 8 140 126 127 157
4028 4 737 738 739 751
4029 4 737 738 739 752
4030 4 737 738 739 753
4031 4 737 738 740 754
4032 4 737 738 740 755
4033 4 737 738 740 756
4034 4 737 738 741 757
4035 4 737 738 741 758
4036 4 737 738 741 759
4037 4 739 738 737 749
4038 4 739 738 737 750
4039 4 739 738 740 754
4040 4 739 738 740 755
4041 4 739 738 740 756
4042 4 739 738 741 757
4043 4 739 738 741 758
4044 4 739 738 741 759
4045 4 740 738 737 749
4046 4 740 738 737 750
4047 4 740 738 739 751
4048 4 740 738 739 752
4049 4 740 738 739 753
4050 4 740 738 741 757
4051 4 740 738 741 758
4052 4 740 738 741 759
4053 4 741 738 737 749
4054 4 741 738 737 750
4055 4 741 738 739 751
4056 4 741 738 739 752
4057 4 741 738 739 753
4058 4 741 738 740 754
4059 4 741 738 740 755
4060 4 741 738 740 756
4061 5 1053 1054 1055 1056
4062 3 1053 1054 1060 1061
4063 3 1055 1054 1060 1061
4064 5 1053 1054 1055 1067
4065 5 1053 1054 1055 1068
4066 3 1053 1054 1060 1078
4067 3 1055 1054 1053 1066
4068 3 1055 1054 1060 1078
4069 3 1060 1054 1053 1066
4070 5 1060 1054 1055 1067
4071 5 1060 1054 1055 1068
4072 6 131 132 133 134
4073 7 131 132 133 134
4074 6 131 132 133 135
4075 7 131 132 133 135
4076 6 131 132 133 136
4077 7 131 132 133 136
4078 5 133 132 131 137
4079 4 132 133 134 146
4080 4 132 133 134 147
4081 4 132 133 134 148
4082 4 132 133 135 149
4083 4 132 133 135 150
4084 4 132 133 135 151
4085 4 132 133 136 152
4086 4 132 133 136 153
4087 4 132 133 136 154
4088 4 134 133 132 144
4089 4 134 133 132 145
4090 4 134 133 135 149
4091 4 134 133 135 150
4092 4 134 133 135 151
4093 4 134 133 136 152
4094 4 134 133 136 153
4095 4 134 133 136 154
4096 4 135 133 132 144
4097 4 135 133 132 145
4098 4 135 133 134 146
4099 4 135 133 134 147
4100 4 135 133 134 148
4101 4 135 133 136 152
4102 4 135 133 136 153
4103 4 135 133 136 154
4104 4 136 133 132 144
4105 4 136 133 132 145
4106 4 136 133 134 146
4107 4 136 133 134 147
4108 4 136 133 134 148
4109 4 136 133 135 149
4110 4 136 133 135 150
4111 4 136 133 135 151
4112 3 734 735 736 737
4113 3 734 735 736 742
4114 3 736 735 734 747
4115 3 733 734 735 736
4116 3 735 734 733 743
4117 3 733 734 735 748
4118 3 747 734 735 748
4119 3 38 44 45 63
4120 3 62 44 45 63
4121 3 35 36 37 38
4122 3 37 36 35 45
4123 3 35 36 37 50
4124 3 49 36 37 50
4125 3 34 35 36 37
4126 3 34 35 45 44
4127 1 36 35 34 64
4128 3 36 35 45 44
4129 1 45 35 34 64
4130 3 34 35 36 49
4131 3 34 35 45 63
4132 9 36 35 34 48
4133 5 36 35 34 48
4134 3 36 35 45 63
4135 9 45 35 34 48
4136 5 45 35 34 48
4137 3 45 35 36 49
4138 3 35 45 44 38
4139 3 35 45 44 62
4140 3 66 67 68 69
4141 3 68 67 66 76
4142 3 66 67 68 81
4143 3 80 67 68 81
4144 4 1497 1498 1499 1511
4145 4 1497 1498 1499 1512
4146 4 1497 1498 1499 1513
4147 4 1497 1498 1500 1514
4148 4 1497 1498 1500 1515
4149 4 1497 1498 1500 1516
4150 4 1497 1498 1501 1517
4151 4 1497 1498 1501 1518
4152 4 1497 1498 1501 1519
4153 4 1499 1498 1497 1509
4154 4 1499 1498 1497 1510
4155 4 1499 1498 1500 1514
4156 4 1499 1498 1500 1515
4157 4 1499 1498 1500 1516
4158 4 1499 1498 1501 1517
4159 4 1499 1498 1501 1518
4160 4 1499 1498 1501 1519
4161 4 1500 1498 1497 1509
4162 4 1500 1498 1497 1510
4163 4 1500 1498 1499 1511
4164 4 1500 1498 1499 1512
4165 4 1500 1498 1499 1513
4166 4 1500 1498 1501 1517
4167 4 1500 1498 1501 1518
4168 4 1500 1498 1501 1519
4169 4 1501 1498 1497 1509
4170 4 1501 1498 1497 1510
4171 4 1501 1498 1499 1511
4172 4 1501 1498 1499 1512
4173 4 1501 1498 1499 1513
4174 4 1501 1498 1500 1514
4175 4 1501 1498 1500 1515
4176 4 1501 1498 1500 1516
4177 1 95 96 97 98
4178 1 95 96 97 107
4179 2 95 96 126 127
4180 4 97 96 126 127
4181 8 95 96 126 139
4182 8 95 96 126 140
4183 4 97 96 95 108
4184 4 97 96 95 109
4185 4 97 96 126 139
4186 4 97 96 126 140
4187 8 110 96 126 127
4188 10 110 96 126 139
4189 10 110 96 126 140
4190 3 796 797 798 799
4191 3 796 797 798 804
4192 3 798 797 796 809
4193 6 798 799 800 801
4194 7 798 799 800 801
4195 6 798 799 800 802
4196 7 798 799 800 802
4197 6 798 799 800 803
4198 7 798 799 800 803
4199 5 800 799 798 804
4200 5 797 798 799 800
4201 3 797 798 804 805
4202 3 799 798 804 805
4203 5 797 798 799 811
4204 5 797 798 799 812
4205 3 797 798 804 822
4206 3 799 798 797 810
4207 3 799 798 804 822
4208 3 804 798 797 810
4209 5 804 798 799 811
4210 5 804 798 799 812
4211 3 798 804 805 823
4212 3 822 804 805 823
4213 4 799 800 801 813
4214 4 799 800 801 814
4215 4 799 800 801 815
4216 4 799 800 802 816
4217 4 799 800 802 817
4218 4 799 800 802 818
4219 4 799 800 803 819
4220 4 799 800 803 820
4221 4 799 800 803 821
4222 4 801 800 799 811
4223 4 801 800 799 812
4224 4 801 800 802 816
4225 4 801 800 802 817
4226 4 801 800 802 818
4227 4 801 800 803 819
4228 4 801 800 803 820
4229 4 801 800 803 821
4230 4 802 800 799 811
4231 4 802 800 799 812
4232 4 802 800 801 813
4233 4 802 800 801 814
4234 4 802 800 801 815
4235 4 802 800 803 819
4236 4 802 800 803 820
4237 4 802 800 803 821
4238 4 803 800 799 811
4239 4 803 800 799 812
4240 4 803 800 801 813
4241 4 803 800 801 814
4242 4 803 800 801 815
4243 4 803 800 802 816
4244 4 803 800 802 817
4245 4 803 800 802 818
4246 3 795 805 804 798
4247 3 795 805 804 822
4248 3 795 796 797 798
4249 3 797 796 795 805
4250 3 795 796 797 810
4251 3 809 796 797 810
4252 3 794 795 796 797
4253 3 794 795 805 804
4254 1 796 795 794 824
4255 3 796 795 805 804
4256 1 805 795 794 824
4257 3 794 795 796 809
4258 3 794 795 805 823
4259 9 796 795 794 808
4260 5 796 795 794 808
4261 3 796 795 805 823
4262 9 805 795 794 808
4263 5 805 795 794 808
4264 3 805 795 796 809
4265 1 793 794 795 796
4266 1 793 794 795 805
4267 2 793 794 824 825
4268 4 795 794 824 825
4269 8 793 794 824 837
4270 8 793 794 824 838
4271 4 795 794 793 806
4272 4 795 794 793 807
4273 4 795 794 824 837
4274 4 795 794 824 838
4275 8 808 794 824 825
4276 10 808 794 824 837
4277 10 808 794 824 838
4278 4 763 793 794 795
4279 2 763 793 794 824
4280 8 763 793 794 808
4281 10 806 793 794 808
4282 8 806 793 794 824
4283 10 807 793 794 808
4284 8 807 793 794 824
4285 4 732 762 763 764
4286 2 732 762 763 793
4287 8 732 762 763 777
4288 10 775 762 763 777
4289 8 775 762 763 793
4290 10 776 762 763 777
4291 8 776 762 763 793
4292 1 762 763 764 765
4293 1 762 763 764 774
4294 2 762 763 793 794
4295 4 764 763 793 794
4296 8 762 763 793 806
4297 8 762 763 793 807
4298 4 764 763 762 775
4299 4 764 763 762 776
4300 4 764 763 793 806
4301 4 764 763 793 807
4302 8 777 763 793 794
4303 10 777 763 793 806
4304 10 777 763 793 807
4305 3 732 733 734 735
4306 3 732 733 743 742
4307 1 734 733 732 762
4308 3 734 733 743 742
4309 1 743 733 732 762
4310 3 732 733 734 747
4311 3 732 733 743 761
4312 9 734 733 732 746
4313 5 734 733 732 746
4314 3 734 733 743 761
4315 9 743 733 732 746
4316 5 743 733 732 746
4317 3 743 733 734 747
4318 3 763 764 765 766
4319 3 763 764 774 773
4320 1 765 764 763 793
4321 3 765 764 774 773
4322 1 774 764 763 793
4323 3 763 764 765 778
4324 3 763 764 774 792
4325 9 765 764 763 777
4326 5 765 764 763 777
4327 3 765 764 774 792
4328 9 774 764 763 777
4329 5 774 764 763 777
4330 3 774 764 765 778
4331 1 731 732 733 734
4332 1 731 732 733 743
4333 2 731 732 762 763
4334 4 733 732 762 763
4335 8 731 732 762 775
4336 8 731 732 762 776
4337 4 733 732 731 744
4338 4 733 732 731 745
4339 4 733 732 762 775
4340 4 733 732 762 776
4341 8 746 732 762 763
4342 10 746 732 762 775
4343 10 746 732 762 776
4344 3 764 765 766 767
4345 3 766 765 764 774
4346 3 764 765 766 779
4347 3 778 765 766 779
4348 4 701 731 732 733
4349 2 701 731 732 762
4350 8 701 731 732 746
4351 10 744 731 732 746
4352 8 744 731 732 762
4353 10 745 731 732 746
4354 8 745 731 732 762
4355 4 1466 1467 1468 1480
4356 4 1466 1467 1468 1481
4357 4 1466 1467 1468 1482
4358 4 1466 1467 1469 1483
4359 4 1466 1467 1469 1484
4360 4 1466 1467 1469 1485
4361 4 1466 1467 1470 1486
4362 4 1466 1467 1470 1487
4363 4 1466 1467 1470 1488
4364 4 1468 1467 1466 1478
4365 4 1468 1467 1466 1479
4366 4 1468 1467 1469 1483
4367 4 1468 1467 1469 1484
4368 4 1468 1467 1469 1485
4369 4 1468 1467 1470 1486
4370 4 1468 1467 1470 1487
4371 4 1468 1467 1470 1488
4372 4 1469 1467 1466 1478
4373 4 1469 1467 1466 1479
4374 4 1469 1467 1468 1480
4375 4 1469 1467 1468 1481
4376 4 1469 1467 1468 1482
4377 4 1469 1467 1470 1486
4378 4 1469 1467 1470 1487
4379 4 1469 1467 1470 1488
4380 4 1470 1467 1466 1478
4381 4 1470 1467 1466 1479
4382 4 1470 1467 1468 1480
4383 4 1470 1467 1468 1481
4384 4 1470 1467 1468 1482
4385 4 1470 1467 1469 1483
4386 4 1470 1467 1469 1484
4387 4 1470 1467 1469 1485
4388 3 97 98 99 100
4389 3 99 98 97 107
4390 3 97 98 99 112
4391 3 111 98 99 112
4392 3 98 99 100 101
4393 3 98 99 100 106
4394 3 100 99 98 111
4395 6 1465 1466 1467 1468
4396 7 1465 1466 1467 1468
4397 6 1465 1466 1467 1469
4398 7 1465 1466 1467 1469
4399 6 1465 1466 1467 1470
4400 7 1465 1466 1467 1470
4401 5 1467 1466 1465 1471
4402 5 1464 1465 1466 1467
4403 3 1464 1465 1471 1472
4404 3 1466 1465 1471 1472
4405 5 1464 1465 1466 1478
4406 5 1464 1465 1466 1479
4407 3 1464 1465 1471 1489
4408 3 1466 1465 1464 1477
4409 3 1466 1465 1471 1489
4410 3 1471 1465 1464 1477
4411 5 1471 1465 1466 1478
4412 5 1471 1465 1466 1479
4413 3 1462 1472 1471 1465
4414 3 1462 1472 1471 1489
4415 3 1465 1471 1472 1490
4416 3 1489 1471 1472 1490
4417 3 96 97 98 99
4418 3 96 97 107 106
4419 1 98 97 96 126
4420 3 98 97 107 106
4421 1 107 97 96 126
4422 3 96 97 98 111
4423 3 96 97 107 125
4424 9 98 97 96 110
4425 5 98 97 96 110
4426 3 98 97 107 125
4427 9 107 97 96 110
4428 5 107 97 96 110
4429 3 107 97 98 111
4430 5 99 100 101 102
4431 3 99 100 106 107
4432 3 101 100 106 107
4433 5 99 100 101 113
4434 5 99 100 101 114
4435 3 99 100 106 124
4436 3 101 100 99 112
4437 3 101 100 106 124
4438 3 106 100 99 112
4439 5 106 100 101 113
4440 5 106 100 101 114
4441 6 100 101 102 103
4442 7 100 101 102 103
4443 6 100 101 102 104
4444 7 100 101 102 104
4445 6 100 101 102 105
4446 7 100 101 102 105
4447 5 102 101 100 106
4448 3 97 107 106 100
4449 3 97 107 106 124
4450 3 100 106 107 125
4451 3 124 106 107 125
4452 4 101 102 103 115
4453 4 101 102 103 116
4454 4 101 102 103 117
4455 4 101 102 104 118
4456 4 101 102 104 119
4457 4 101 102 104 120
4458 4 101 102 105 121
4459 4 101 102 105 122
4460 4 101 102 105 123
4461 4 103 102 101 113
4462 4 103 102 101 114
4463 4 103 102 104 118
4464 4 103 102 104 119
4465 4 103 102 104 120
4466 4 103 102 105 121
4467 4 103 102 105 122
4468 4 103 102 105 123
4469 4 104 102 101 113
4470 4 104 102 101 114
4471 4 104 102 103 115
4472 4 104 102 103 116
4473 4 104 102 103 117
4474 4 104 102 105 121
4475 4 104 102 105 122
4476 4 104 102 105 123
4477 4 105 102 101 113
4478 4 105 102 101 114
4479 4 105 102 103 115
4480 4 105 102 103 116
4481 4 105 102 103 117
4482 4 105 102 104 118
4483 4 105 102 104 119
4484 4 105 102 104 120
4485 3 222 223 224 225
4486 3 222 223 224 230
4487 3 224 223 222 235
4488 4 794 824 825 826
4489 2 794 824 825 855
4490 8 794 824 825 839
4491 10 837 824 825 839
4492 8 837 824 825 855
4493 10 838 824 825 839
4494 8 838 824 825 855
4495 3 920 921 922 923
4496 3 920 921 922 928
4497 3 922 921 920 934
4498 4 1528 1529 1530 1542
4499 4 1528 1529 1530 1543
4500 4 1528 1529 1530 1544
4501 4 1528 1529 1531 1545
4502 4 1528 1529 1531 1546
4503 4 1528 1529 1531 1547
4504 4 1528 1529 1532 1548
4505 4 1528 1529 1532 1549
4506 4 1528 1529 1532 1550
4507 4 1530 1529 1528 1540
4508 4 1530 1529 1528 1541
4509 4 1530 1529 1531 1545
4510 4 1530 1529 1531 1546
4511 4 1530 1529 1531 1547
4512 4 1530 1529 1532 1548
4513 4 1530 1529 1532 1549
4514 4 1530 1529 1532 1550
4515 4 1531 1529 1528 1540
4516 4 1531 1529 1528 1541
4517 4 1531 1529 1530 1542
4518 4 1531 1529 1530 1543
4519 4 1531 1529 1530 1544
4520 4 1531 1529 1532 1548
4521 4 1531 1529 1532 1549
4522 4 1531 1529 1532 1550
4523 4 1532 1529 1528 1540
4524 4 1532 1529 1528 1541
4525 4 1532 1529 1530 1542
4526 4 1532 1529 1530 1543
4527 4 1532 1529 1530 1544
4528 4 1532 1529 1531 1545
4529 4 1532 1529 1531 1546
4530 4 1532 1529 1531 1547
4531 3 919 920 921 922
4532 3 921 920 919 929
4533 3 919 920 921 935
4534 3 934 920 921 935
4535 3 857 867 866 860
4536 3 857 867 866 884
4537 3 857 858 859 860
4538 3 859 858 857 867
4539 3 857 858 859 872
4540 3 871 858 859 872
4541 1 1336 1337 1338 1339
4542 1 1336 1337 1338 1348
4543 2 1336 1337 1367 1368
4544 4 1338 1337 1367 1368
4545 8 1336 1337 1367 1380
4546 8 1336 1337 1367 1381
4547 4 1338 1337 1336 1349
4548 4 1338 1337 1336 1350
4549 4 1338 1337 1367 1380
4550 4 1338 1337 1367 1381
4551 8 1351 1337 1367 1368
4552 10 1351 1337 1367 1380
4553 10 1351 1337 1367 1381
4554 4 1306 1336 1337 1338
4555 2 1306 1336 1337 1367
4556 8 1306 1336 1337 1351
4557 10 1349 1336 1337 1351
4558 8 1349 1336 1337 1367
4559 10 1350 1336 1337 1351
4560 8 1350 1336 1337 1367
4561 1 1398 1399 1400 1401
4562 1 1398 1399 1400 1410
4563 2 1398 1399 1429 1430
4564 4 1400 1399 1429 1430
4565 8 1398 1399 1429 1442
4566 8 1398 1399 1429 1443
4567 4 1400 1399 1398 1411
4568 4 1400 1399 1398 1412
4569 4 1400 1399 1429 1442
4570 4 1400 1399 1429 1443
4571 8 1413 1399 1429 1430
4572 10 1413 1399 1429 1442
4573 10 1413 1399 1429 1443
4574 5 921 922 923 924
4575 3 921 922 928 929
4576 3 923 922 928 929
4577 5 921 922 923 936
4578 5 921 922 923 937
4579 3 921 922 928 947
4580 3 923 922 921 935
4581 3 923 922 928 947
4582 3 928 922 921 935
4583 5 928 922 923 936
4584 5 928 922 923 937
4585 3 1054 1060 1061 1079
4586 3 1078 1060 1061 1079
4587 3 1275 1276 1277 1278
4588 3 1277 1276 1275 1285
4589 3 1275 1276 1277 1291
4590 3 1290 1276 1277 1291
4591 3 1275 1285 1284 1278
4592 3 1275 1285 1284 1303
4593 3 1274 1275 1276 1277
4594 3 1274 1275 1285 1284
4595 1 1276 1275 1274 1305
4596 3 1276 1275 1285 1284
4597 1 1285 1275 1274 1305
4598 3 1274 1275 1276 1290
4599 3 1274 1275 1285 1304
4600 9 1276 1275 1274 1289
4601 3 1276 1275 1285 1304
4602 9 1285 1275 1274 1289
4603 5 1285 1275 1274 1289
4604 3 1285 1275 1276 1290
4605 3 1114 1115 1116 1117
4606 3 1114 1115 1116 1122
4607 3 1116 1115 1114 1127
4608 6 1116 1117 1118 1119
4609 7 1116 1117 1118 1119
4610 6 1116 1117 1118 1120
4611 7 1116 1117 1118 1120
4612 6 1116 1117 1118 1121
4613 7 1116 1117 1118 1121
4614 5 1118 1117 1116 1122
4615 6 736 737 738 739
4616 7 736 737 738 739
4617 6 736 737 738 740
4618 7 736 737 738 740
4619 6 736 737 738 741
4620 7 736 737 738 741
4621 5 738 737 736 742
4622 3 1052 1053 1054 1055
4623 3 1052 1053 1054 1060
4624 3 1054 1053 1052 1065
4625 5 735 736 737 738
4626 3 735 736 742 743
4627 3 737 736 742 743
4628 5 735 736 737 749
4629 5 735 736 737 750
4630 3 735 736 742 760
4631 3 737 736 735 748
4632 3 737 736 742 760
4633 3 742 736 735 748
4634 5 742 736 737 749
4635 5 742 736 737 750
4636 4 650 637 638 639
4637 2 650 637 638 669
4638 8 638 637 650 949
4639 8 638 637 650 950
4640 8 638 637 650 951
4641 4 651 637 638 639
4642 4 652 637 638 639
4643 8 650 637 638 653
4644 10 651 637 638 653
4645 8 651 637 638 669
4646 10 651 637 650 949
4647 10 651 637 650 950
4648 10 651 637 650 951
4649 10 652 637 638 653
4650 8 652 637 638 669
4651 10 652 637 650 949
4652 10 652 637 650 950
4653 10 652 637 650 951
4654 4 670 700 701 702
4655 2 670 700 701 731
4656 8 670 700 701 715
4657 10 713 700 701 715
4658 8 713 700 701 731
4659 10 714 700 701 715
4660 8 714 700 701 731
4661 6 1209 1210 1211 1212
4662 7 1209 1210 1211 1212
4663 6 1209 1210 1211 1213
4664 7 1209 1210 1211 1213
4665 6 1209 1210 1211 1214
4666 7 1209 1210 1211 1214
4667 5 1211 1210 1209 1215
4668 6 1496 1497 1498 1499
4669 7 1496 1497 1498 1499
4670 6 1496 1497 1498 1500
4671 7 1496 1497 1498 1500
4672 6 1496 1497 1498 1501
4673 7 1496 1497 1498 1501
4674 5 1498 1497 1496 1502
4675 4 1210 1211 1212 1224
4676 4 1210 1211 1212 1225
4677 4 1210 1211 1212 1226
4678 4 1210 1211 1213 1227
4679 4 1210 1211 1213 1228
4680 4 1210 1211 1213 1229
4681 4 1210 1211 1214 1230
4682 4 1210 1211 1214 1231
4683 4 1210 1211 1214 1232
4684 4 1212 1211 1210 1222
4685 4 1212 1211 1210 1223
4686 4 1212 1211 1213 1227
4687 4 1212 1211 1213 1228
4688 4 1212 1211 1213 1229
4689 4 1212 1211 1214 1230
4690 4 1212 1211 1214 1231
4691 4 1212 1211 1214 1232
4692 4 1213 1211 1210 1222
4693 4 1213 1211 1210 1223
4694 4 1213 1211 1212 1224
4695 4 1213 1211 1212 1225
4696 4 1213 1211 1212 1226
4697 4 1213 1211 1214 1230
4698 4 1213 1211 1214 1231
4699 4 1213 1211 1214 1232
4700 4 1214 1211 1210 1222
4701 4 1214 1211 1210 1223
4702 4 1214 1211 1212 1224
4703 4 1214 1211 1212 1225
4704 4 1214 1211 1212 1226
4705 4 1214 1211 1213 1227
4706 4 1214 1211 1213 1228
4707 4 1214 1211 1213 1229
4708 3 1494 1495 1496 1497
4709 3 1494 1495 1496 1502
4710 3 1496 1495 1494 1507
4711 3 733 743 742 736
4712 3 733 743 742 760
4713 3 764 774 773 767
4714 3 764 774 773 791
4715 3 765 766 767 768
4716 3 765 766 767 773
4717 3 767 766 765 778
4718 1 700 701 702 703
4719 1 700 701 702 712
4720 2 700 701 731 732
4721 4 702 701 731 732
4722 8 700 701 731 744
4723 8 700 701 731 745
4724 4 702 701 700 713
4725 4 702 701 700 714
4726 4 702 701 731 744
4727 4 702 701 731 745
4728 8 715 701 731 732
4729 10 715 701 731 744
4730 10 715 701 731 745
4731 3 1462 1463 1464 1465
4732 3 1464 1463 1462 1472
4733 3 1462 1463 1464 1477
4734 3 1476 1463 1464 1477
4735 4 1430 1460 1461 1462
4736 2 1430 1460 1461 1491
4737 8 1430 1460 1461 1475
4738 10 1473 1460 1461 1475
4739 8 1473 1460 1461 1491
4740 10 1474 1460 1461 1475
4741 8 1474 1460 1461 1491
4742 1 1460 1461 1462 1463
4743 1 1460 1461 1462 1472
4744 2 1460 1461 1491 1492
4745 4 1462 1461 1491 1492
4746 8 1460 1461 1491 1504
4747 8 1460 1461 1491 1505
4748 4 1462 1461 1460 1473
4749 4 1462 1461 1460 1474
4750 4 1462 1461 1491 1504
4751 4 1462 1461 1491 1505
4752 8 1475 1461 1491 1492
4753 10 1475 1461 1491 1504
4754 10 1475 1461 1491 1505
4755 1 1429 1430 1431 1432
4756 1 1429 1430 1431 1441
4757 2 1429 1430 1460 1461
4758 4 1431 1430 1460 1461
4759 8 1429 1430 1460 1473
4760 8 1429 1430 1460 1474
4761 4 1431 1430 1429 1442
4762 4 1431 1430 1429 1443
4763 4 1431 1430 1460 1473
4764 4 1431 1430 1460 1474
4765 8 1444 1430 1460 1461
4766 10 1444 1430 1460 1473
4767 10 1444 1430 1460 1474
4768 3 1461 1462 1463 1464
4769 3 1461 1462 1472 1471
4770 1 1463 1462 1461 1491
4771 3 1463 1462 1472 1471
4772 1 1472 1462 1461 1491
4773 3 1461 1462 1463 1476
4774 3 1461 1462 1472 1490
4775 9 1463 1462 1461 1475
4776 5 1463 1462 1461 1475
4777 3 1463 1462 1472 1490
4778 9 1472 1462 1461 1475
4779 5 1472 1462 1461 1475
4780 3 1472 1462 1463 1476
4781 3 1463 1464 1465 1466
4782 3 1463 1464 1465 1471
4783 3 1465 1464 1463 1476
4784 4 1399 1429 1430 1431
4785 2 1399 1429 1430 1460
4786 8 1399 1429 1430 1444
4787 10 1442 1429 1430 1444
4788 8 1442 1429 1430 1460
4789 10 1443 1429 1430 1444
4790 8 1443 1429 1430 1460

Impropers

1 1 1555 1564 1565 1584
2 1 1556 1558 1557 1571
3 1 857 866 867 885
4 1 858 860 859 872
5 1 861 859 860 866
6 1 857 859 858 871
7 1 1337 1339 1338 1348
8 1 1341 1348 1347 1365
9 1 1372 1379 1378 1396
10 1 1342 1340 1341 1347
11 1 1338 1340 1339 1352
12 1 1338 1347 1348 1366
13 1 1339 1341 1340 1353
14 1 1370 1372 1371 1384
15 1 1373 1371 1372 1378
16 1 1369 1371 1370 1383
17 1 1368 1370 1369 1379
18 1 1559 1557 1558 1564
19 1 1555 1557 1556 1570
20 1 1085 1092 1091 1109
21 1 1275 1284 1285 1304
22 1 1276 1278 1277 1291
23 1 1279 1277 1278 1284
24 1 1275 1277 1276 1290
25 1 1207 1209 1208 1221
26 1 1206 1215 1216 1234
27 1 1209 1216 1215 1233
28 1 1210 1208 1209 1215
29 1 1206 1208 1207 1220
30 1 1205 1207 1206 1216
31 1 1236 1238 1237 1247
32 1 1112 1114 1113 1123
33 1 1116 1123 1122 1140
34 1 1114 1116 1115 1128
35 1 1113 1122 1123 1141
36 1 1054 1061 1060 1078
37 1 1050 1052 1051 1061
38 1 1492 1494 1493 1503
39 1 1019 1021 1020 1030
40 1 1023 1030 1029 1047
41 1 1020 1029 1030 1048
42 1 705 712 711 729
43 1 702 711 712 730
44 1 703 705 704 717
45 1 1021 1023 1022 1035
46 1 640 649 639 638
47 1 642 649 648 667
48 1 639 648 649 668
49 1 643 641 642 648
50 1 639 641 640 654
51 1 640 642 641 655
52 1 1494 1496 1495 1508
53 1 1493 1502 1503 1521
54 1 1143 1145 1144 1154
55 1 1496 1503 1502 1520
56 1 1148 1146 1147 1153
57 1 1144 1146 1145 1158
58 1 1145 1147 1146 1159
59 1 1147 1154 1153 1171
60 1 1144 1153 1154 1172
61 1 1524 1533 1534 1552
62 1 1527 1534 1533 1551
63 1 1523 1525 1524 1534
64 1 992 999 998 1016
65 1 733 742 743 761
66 1 701 703 702 712
67 1 706 704 705 711
68 1 702 704 703 716
69 1 958 967 957 956
70 1 960 967 966 985
71 1 764 773 774 792
72 1 670 672 671 681
73 1 674 681 680 698
74 1 671 680 681 699
75 1 672 674 673 686
76 1 675 673 674 680
77 1 671 673 672 685
78 1 1431 1440 1441 1459
79 1 1432 1434 1433 1446
80 1 1434 1441 1440 1458
81 1 1435 1433 1434 1440
82 1 1431 1433 1432 1445
83 1 1430 1432 1431 1441
84 1 1525 1527 1526 1539
85 1 1528 1526 1527 1533
86 1 1524 1526 1525 1538
87 1 1558 1565 1564 1583
88 1 765 767 766 779
89 1 1369 1378 1379 1397
90 1 1554 1556 1555 1565
91 1 480 487 486 504
92 1 477 486 487 505
93 1 481 479 480 486
94 1 477 479 478 491
95 1 478 480 479 492
96 1 476 478 477 487
97 1 449 456 455 473
98 1 446 455 456 474
99 1 447 449 448 461
100 1 445 447 446 456
101 1 450 448 449 455
102 1 446 448 447 460
103 1 415 424 425 443
104 1 416 418 417 430
105 1 418 425 424 442
106 1 419 417 418 424
107 1 415 417 416 429
108 1 414 416 415 425
109 1 1083 1085 1084 1097
110 1 1082 1091 1092 1110
111 1 1086 1084 1085 1091
112 1 1082 1084 1083 1096
113 1 1178 1185 1184 1202
114 1 1175 1184 1185 1203
115 1 1240 1247 1246 1265
116 1 1237 1246 1247 1266
117 1 1241 1239 1240 1246
118 1 1237 1239 1238 1252
119 1 1238 1240 1239 1253
120 1 1024 1022 1023 1029
121 1 1020 1022 1021 1034
122 1 988 990 989 999
123 1 993 991 992 998
124 1 989 991 990 1003
125 1 990 992 991 1004
126 1 600 602 601 611
127 1 605 603 604 610
128 1 601 603 602 616
129 1 602 604 603 617
130 1 601 610 611 630
131 1 1179 1177 1178 1184
132 1 1175 1177 1176 1189
133 1 1176 1178 1177 1190
134 1 1174 1176 1175 1185
135 1 1081 1083 1082 1092
136 1 573 580 579 597
137 1 989 998 999 1017
138 1 542 549 548 566
139 1 539 548 549 567
140 1 957 966 967 986
141 1 961 959 960 966
142 1 957 959 958 972
143 1 958 960 959 973
144 1 574 572 573 579
145 1 570 572 571 584
146 1 604 611 610 629
147 1 569 571 570 580
148 1 540 542 541 554
149 1 538 540 539 549
150 1 543 541 542 548
151 1 539 541 540 553
152 1 570 579 580 598
153 1 571 573 572 585
154 1 511 518 517 535
155 1 507 509 508 518
156 1 221 230 231 249
157 1 508 517 518 536
158 1 512 510 511 517
159 1 508 510 509 522
160 1 509 511 510 523
161 1 222 224 223 236
162 1 830 828 829 835
163 1 826 828 827 840
164 1 352 354 353 363
165 1 356 363 362 380
166 1 357 355 356 362
167 1 353 355 354 367
168 1 353 362 363 381
169 1 354 356 355 368
170 1 322 331 321 320
171 1 324 331 330 349
172 1 383 385 384 394
173 1 387 394 393 411
174 1 384 393 394 412
175 1 388 386 387 393
176 1 384 386 385 398
177 1 385 387 386 399
178 1 7 5 6 12
179 1 3 5 4 18
180 1 4 13 3 2
181 1 6 13 12 31
182 1 3 12 13 32
183 1 4 6 5 19
184 1 321 330 331 350
185 1 322 324 323 337
186 1 253 255 254 267
187 1 252 261 262 280
188 1 325 323 324 330
189 1 321 323 322 336
190 1 256 254 255 261
191 1 252 254 253 266
192 1 193 200 199 217
193 1 189 191 190 200
194 1 158 160 159 169
195 1 190 199 200 218
196 1 194 192 193 199
197 1 190 192 191 204
198 1 220 222 221 231
199 1 255 262 261 279
200 1 251 253 252 262
201 1 286 293 292 311
202 1 282 284 283 293
203 1 284 286 285 299
204 1 287 285 286 292
205 1 283 285 284 298
206 1 160 162 161 174
207 1 159 168 169 187
208 1 66 75 76 94
209 1 69 76 75 93
210 1 67 69 68 81
211 1 70 68 69 75
212 1 66 68 67 80
213 1 162 169 168 186
214 1 163 161 162 168
215 1 159 161 160 173
216 1 191 193 192 205
217 1 224 231 230 248
218 1 283 292 293 312
219 1 887 889 888 898
220 1 825 827 826 836
221 1 827 829 828 841
222 1 826 835 836 854
223 1 829 836 835 853
224 1 1308 1310 1309 1322
225 1 1307 1316 1317 1335
226 1 1310 1317 1316 1334
227 1 1311 1309 1310 1316
228 1 1307 1309 1308 1321
229 1 1306 1308 1307 1317
230 1 1401 1403 1402 1415
231 1 1404 1402 1403 1409
232 1 1400 1402 1401 1414
233 1 1399 1401 1400 1410
234 1 1400 1409 1410 1428
235 1 1403 1410 1409 1427
236 1 922 929 928 947
237 1 891 898 897 915
238 1 919 928 929 948
239 1 888 897 898 916
240 1 892 890 891 897
241 1 888 890 889 902
242 1 889 891 890 903
243 1 36 38 37 50
244 1 39 37 38 44
245 1 35 37 36 49
246 1 132 130 131 137
247 1 128 130 129 142
248 1 129 131 130 143
249 1 128 137 138 156
250 1 131 138 137 155
251 1 127 129 128 138
252 1 1052 1054 1053 1066
253 1 737 735 736 742
254 1 733 735 734 747
255 1 732 734 733 743
256 1 35 44 45 63
257 1 34 36 35 45
258 1 38 45 44 62
259 1 65 67 66 76
260 1 799 797 798 804
261 1 795 797 796 809
262 1 796 798 797 810
263 1 795 804 805 823
264 1 798 805 804 822
265 1 794 796 795 805
266 1 763 765 764 774
267 1 96 98 97 107
268 1 101 99 100 106
269 1 97 99 98 111
270 1 1463 1465 1464 1477
271 1 1465 1472 1471 1489
272 1 1462 1471 1472 1490
273 1 98 100 99 112
274 1 100 107 106 124
275 1 97 106 107 125
276 1 225 223 224 230
277 1 221 223 222 235
278 1 923 921 922 928
279 1 919 921 920 934
280 1 918 920 919 929
281 1 860 867 866 884
282 1 856 858 857 867
283 1 920 922 921 935
284 1 1051 1060 1061 1079
285 1 1276 1285 1275 1274
286 1 1278 1285 1284 1303
287 1 1117 1115 1116 1122
288 1 1113 1115 1114 1127
289 1 1055 1053 1054 1060
290 1 1051 1053 1052 1065
291 1 734 736 735 748
292 1 1497 1495 1496 1502
293 1 1493 1495 1494 1507
294 1 736 743 742 760
295 1 767 774 773 791
296 1 768 766 767 773
297 1 764 766 765 778
298 1 1461 1463 1462 1472
299 1 1466 1464 1465 1471
300 1 1462 1464 1463 1476
