LAMMPS (22 Jul 2025 - Update 5)
OMP_NUM_THREADS environment is not set. Defaulting to 1 thread.
  using 1 OpenMP thread(s) per MPI task
# iteration 0
# generated by aemwater -- do not edit; edit the template instead

units           real
atom_style      full
boundary        p p p

pair_style      lj/cut/coul/long 10.0 10.0
# GAFF2 is a Lorentz-Berthelot force field. The LAMMPS default for lj/cut is
# GEOMETRIC mixing, which silently changes every cross interaction.
pair_modify     mix arithmetic tail yes
kspace_style    pppm 0.0001
bond_style      harmonic
angle_style     harmonic
dihedral_style  charmm
improper_style  cvff
# Amber 1-4 scaling: LJ/2 and Coulomb/1.2. Applied here, so every CHARMM
# dihedral weight in the data file is 0.
special_bonds   lj 0.0 0.0 0.5 coul 0.0 0.0 0.8333333333

read_data       start.data
Reading data file ...
  orthogonal box = (0 0 0) to (39.12506 39.12506 39.12506)
  1 by 1 by 1 MPI processor grid
  reading atoms ...
  5244 atoms
  scanning bonds ...
  4 = max bonds/atom
  scanning angles ...
  6 = max angles/atom
  scanning dihedrals ...
  33 = max dihedrals/atom
  scanning impropers ...
  2 = max impropers/atom
  orthogonal box = (0 0 0) to (39.12506 39.12506 39.12506)
  1 by 1 by 1 MPI processor grid
  reading bonds ...
  5216 bonds
  reading angles ...
  9716 angles
  reading dihedrals ...
  15264 dihedrals
  reading impropers ...
  960 impropers
Finding 1-2 1-3 1-4 neighbors ...
  special bond factors lj:    0        0        0.5     
  special bond factors coul:  0        0        0.8333333333
     4 = max # of 1-2 neighbors
    12 = max # of 1-3 neighbors
    18 = max # of 1-4 neighbors
    22 = max # of special neighbors
  special bonds CPU = 0.002 seconds
  read_data CPU = 0.075 seconds
neighbor        2.0 bin
neigh_modify    delay 0 every 1 check yes
# The ghost-atom cutoff defaults to the pair cutoff + skin. Bonded partners must
# also be within it, and a stretched bond in a freshly packed cell can exceed it,
# which LAMMPS reports as a communication-cutoff warning before losing atoms.
comm_modify     cutoff 12.0

# Molecule IDs are assigned by the data writer in packing order: polymer chains
# first, then counterions, then any water added later. `<>` is LAMMPS's inclusive
# range operator.
group           polymer molecule <> 1 8
5024 atoms in group polymer
group           ions molecule <> 9 168
160 atoms in group ions
group           water type 8 9
60 atoms in group water

thermo          500
thermo_style    custom step temp press vol density etotal ke pe ebond eangle edihed evdwl ecoul elong
thermo_modify   flush yes

fix             shake_all all shake 0.0001 20 0 b 8 a 14
Finding SHAKE clusters ...
       0 = # of size 2 clusters
       0 = # of size 3 clusters
       0 = # of size 4 clusters
      20 = # of frozen angles
  find clusters CPU = 0.000 seconds

timestep        1.0
dump            traj all custom 1000 iter.lammpstrj id mol type q x y z
dump_modify     traj sort id
velocity        all create 300.0 87231 mom yes rot yes dist gaussian

# ---------------------------------------------------------------- relax -------
# The newly inserted waters were placed in geometric voids, which is not the same
# as an energetically relaxed position. A short NVE/limit run absorbs the initial
# strain without letting any atom move far enough to cross a chain.
fix             nve_settle all nve/limit 0.05
fix             temp_settle all temp/rescale 10 300.0 300.0 10.0 1.0
run             5000
PPPM initialization ...
  using 12-bit tables for long-range coulomb
  G vector (1/distance) = 0.23740648
  grid = 15 15 15
  stencil order = 5
  estimated absolute RMS force accuracy = 0.01787084
  estimated relative force accuracy = 5.3817504e-05
  using double precision FFTW3
  3d grid and FFT values/proc = 8000 3375
Generated 36 of 36 mixed pair_coeff terms from arithmetic mixing rule
WARNING: Should not use fix nve/limit with fix shake or fix rattle (src/fix_nve_limit.cpp:76)
Neighbor list info ...
  update: every = 1 steps, delay = 0 steps, check = yes
  max neighbors/atom: 2000, page size: 100000
  master list distance cutoff = 12
  ghost atom cutoff = 12
  binsize = 6, bins = 7 7 7
  1 neighbor lists, perpetual/occasional/extra = 1 0 0
  (1) pair lj/cut/coul/long, perpetual
      attributes: half, newton on
      pair build: half/bin/newton
      stencil: half/bin/3d
      bin: standard
Per MPI rank memory allocation (min/avg/max) = 50.9 | 50.9 | 50.9 Mbytes
   Step          Temp          Press          Volume        Density         TotEng         KinEng         PotEng         E_bond        E_angle        E_dihed         E_vdwl         E_coul         E_long    
         0   300           -75.769211      59891.481      0.95590701     3756.6151      4670.6313     -914.01613      1774.8438      2358.7202      1498.7223     -1036.5255      7516.0499     -13063.659    
       500   299.61082      454.87134      59891.481      0.95590701     3368.0097      4664.5722     -1296.5624      1590.0823      2244.7747      1506.4221     -1145.6166      7532.854      -13064.112    
      1000   296.6471      -152.56743      59891.481      0.95590701     3350.3623      4618.4307     -1268.0684      1604.5361      2201.9712      1517.4336     -1015.1763      7447.8297     -13059.59     
      1500   300           -125.90123      59891.481      0.95590701     3493.441       4670.6313     -1177.1902      1596.5913      2211.1446      1604.4589     -1011.7738      7443.2015     -13060.562    
      2000   301.3546       1500.4653      59891.481      0.95590701     3344.271       4691.7207     -1347.4497      1523.9978      2168.4337      1551.2667     -963.01369      7392.0548     -13056.427    
      2500   296.13244      433.59762      59891.481      0.95590701     3305.0298      4610.4181     -1305.3883      1481.9317      2205.113       1575.2512     -1001.1576      7462.903      -13064.005    
      3000   295.50035      1572.7356      59891.481      0.95590701     3430.2167      4600.5772     -1170.3605      1472.9389      2263.3256      1611.4033     -1011.9847      7496.4259     -13037.66     
      3500   291.08842      1488.9768      59891.481      0.95590701     3200.4016      4531.889      -1331.4874      1467.7488      2154.8317      1592.2007     -978.074        7449.2851     -13053.505    
      4000   292.37429     -566.58186      59891.481      0.95590701     3313.6124      4551.9083     -1238.2959      1503.9342      2247.3372      1595.5096     -1043.7588      7464.6745     -13042.366    
      4500   298.08893      2083.9345      59891.481      0.95590701     3375.1361      4640.8783     -1265.7422      1447.4512      2158.1772      1641.3348     -965.33804      7460.3982     -13046.76     
      5000   294.14937      787.1692       59891.481      0.95590701     3361.0925      4579.5442     -1218.4517      1500.3178      2198.9522      1637.5918     -990.97355      7456.0825     -13055.323    
Loop time of 97.874 on 1 procs for 5000 steps with 5244 atoms

Performance: 4.414 ns/day, 5.437 hours/ns, 51.086 timesteps/s, 267.895 katom-step/s
96.1% CPU use with 1 MPI tasks x 1 OpenMP threads

MPI task timing breakdown:
Section |  min time  |  avg time  |  max time  |%varavg| %total
---------------------------------------------------------------
Pair    | 77.341     | 77.341     | 77.341     |   0.0 | 79.02
Bond    | 3.9166     | 3.9166     | 3.9166     |   0.0 |  4.00
Kspace  | 7.1656     | 7.1656     | 7.1656     |   0.0 |  7.32
Neigh   | 8.652      | 8.652      | 8.652      |   0.0 |  8.84
Comm    | 0.29435    | 0.29435    | 0.29435    |   0.0 |  0.30
Output  | 0.024902   | 0.024902   | 0.024902   |   0.0 |  0.03
Modify  | 0.41591    | 0.41591    | 0.41591    |   0.0 |  0.42
Other   |            | 0.06419    |            |       |  0.07

Nlocal:           5244 ave        5244 max        5244 min
Histogram: 1 0 0 0 0 0 0 0 0 0
Nghost:          16527 ave       16527 max       16527 min
Histogram: 1 0 0 0 0 0 0 0 0 0
Neighs:     1.7152e+06 ave  1.7152e+06 max  1.7152e+06 min
Histogram: 1 0 0 0 0 0 0 0 0 0

Total # of neighbors = 1715197
Ave neighs/atom = 327.07799
Ave special neighs/atom = 11.031274
Neighbor list builds = 204
Dangerous builds = 0
unfix           nve_settle
unfix           temp_settle

min_style       cg
minimize        1e-06 1e-06 20000 200000
PPPM initialization ...
  using 12-bit tables for long-range coulomb
  G vector (1/distance) = 0.23740648
  grid = 15 15 15
  stencil order = 5
  estimated absolute RMS force accuracy = 0.01787084
  estimated relative force accuracy = 5.3817504e-05
  using double precision FFTW3
  3d grid and FFT values/proc = 8000 3375
Generated 36 of 36 mixed pair_coeff terms from arithmetic mixing rule
WARNING: Using fix shake with minimization.
  Substituting constraints with harmonic restraint forces using kbond=1987206.7 (src/RIGID/fix_shake.cpp:385)
Per MPI rank memory allocation (min/avg/max) = 55.28 | 55.28 | 55.28 Mbytes
   Step          Temp          Press          Volume        Density         TotEng         KinEng         PotEng         E_bond        E_angle        E_dihed         E_vdwl         E_coul         E_long    
      5000   294.14937      963.16714      59891.481      0.95590701     3361.0925      4579.5442     -1218.4517      1500.3178      2198.9522      1637.5918     -990.97355      7456.0825     -13055.323    
      5101   294.14937      2404.3659      59891.481      0.95590701     1017.4649      4579.5442     -3562.0793      406.55311      1292.0683      1456.4437     -1129.1314      7454.4872     -13058.173    
Loop time of 12.8393 on 1 procs for 101 steps with 5244 atoms

98.6% CPU use with 1 MPI tasks x 1 OpenMP threads

Minimization stats:
  Stopping criterion = energy tolerance
  Energy initial, next-to-last, final = 
     -1218.45171540011  -3562.07760706198  -3562.07931918703
  Force two-norm initial, final = 2172.9936 1672.1765
  Force max component initial, final = 92.589002 463.31857
  Final line search alpha, max atom move = 1.3467505e-05 0.0062397449
  Iterations, force evaluations = 101 541

MPI task timing breakdown:
Section |  min time  |  avg time  |  max time  |%varavg| %total
---------------------------------------------------------------
Pair    | 11.548     | 11.548     | 11.548     |   0.0 | 89.94
Bond    | 0.43944    | 0.43944    | 0.43944    |   0.0 |  3.42
Kspace  | 0.77758    | 0.77758    | 0.77758    |   0.0 |  6.06
Neigh   | 0          | 0          | 0          |   0.0 |  0.00
Comm    | 0.028654   | 0.028654   | 0.028654   |   0.0 |  0.22
Output  | 0          | 0          | 0          |   0.0 |  0.00
Modify  | 0.011465   | 0.011465   | 0.011465   |   0.0 |  0.09
Other   |            | 0.0343     |            |       |  0.27

Nlocal:           5244 ave        5244 max        5244 min
Histogram: 1 0 0 0 0 0 0 0 0 0
Nghost:          16519 ave       16519 max       16519 min
Histogram: 1 0 0 0 0 0 0 0 0 0
Neighs:    1.71519e+06 ave 1.71519e+06 max 1.71519e+06 min
Histogram: 1 0 0 0 0 0 0 0 0 0

Total # of neighbors = 1715194
Ave neighs/atom = 327.07742
Ave special neighs/atom = 11.031274
Neighbor list builds = 0
Dangerous builds = 0

# ---------------------------------------------------------------- NPT ---------
# Swelling is the point: the box must be free to expand as water goes in, so the
# uptake is measured at constant pressure, not constant volume.
fix             npt_swell all npt temp 300.0 300.0 100.0 iso 1.0 1.0 1000.0
run             25000
PPPM initialization ...
  using 12-bit tables for long-range coulomb
  G vector (1/distance) = 0.23740648
  grid = 15 15 15
  stencil order = 5
  estimated absolute RMS force accuracy = 0.01787084
  estimated relative force accuracy = 5.3817504e-05
  using double precision FFTW3
  3d grid and FFT values/proc = 8000 3375
Generated 36 of 36 mixed pair_coeff terms from arithmetic mixing rule
Per MPI rank memory allocation (min/avg/max) = 53.03 | 53.03 | 53.03 Mbytes
   Step          Temp          Press          Volume        Density         TotEng         KinEng         PotEng         E_bond        E_angle        E_dihed         E_vdwl         E_coul         E_long    
      5101   294.14937      2317.9778      59891.481      0.95590701     1016.9211      4579.5442     -3562.6231      406.55311      1292.0683      1456.4437     -1129.1314      7454.4872     -13058.173    
      5500   286.28603     -141.78102      61257.694      0.93458767     2848.2842      4457.1216     -1608.8373      1109.2203      2049.3048      1603.301      -965.34595      7595.1692     -13037.071    
      6000   300.55942     -1002.4645      61956.244      0.9240503      3638.3085      4679.3407     -1041.0322      1365.1452      2235.8792      1693.7961     -928.77035      7584.3164     -13028.965    
      6500   301.34173     -554.3611       62834.702      0.91113166     3721.5541      4691.5204     -969.96624      1448.1993      2282.1715      1645.6563     -955.84165      7606.6048     -13034.425    
      7000   300.01372      975.64485      61928.581      0.92446306     3615.9394      4670.8449     -1054.9054      1357.9792      2298.0747      1660.033      -911.32636      7543.0756     -13039.643    
      7500   295.76367      830.0165       61420.871      0.93210475     3432.7648      4604.6768     -1171.912       1407.0941      2208.2367      1648.2034     -909.13637      7481.2587     -13043.873    
      8000   299.96194     -288.29189      61031.555      0.93805059     3580.8483      4670.0387     -1089.1904      1435.6246      2262.0186      1640.3724     -893.06624      7472.5708     -13044.068    
      8500   295.80228      470.14316      60978.223      0.93887101     3591.8839      4605.2779     -1013.394       1462.2299      2399.948       1623.4309     -1002.4107      7508.8636     -13044.834    
      9000   298.51923      652.8651       60911.266      0.93990308     3499.2132      4647.5775     -1148.3643      1469.4383      2296.1869      1621.81       -950.50649      7419.7277     -13043.217    
      9500   301.53924     -73.112175      60905.638      0.93998992     3485.239       4694.5953     -1209.3563      1428.3907      2288.5524      1633.6479     -975.35362      7430.6471     -13054.333    
     10000   296.16873     -239.0526       60520.593      0.94597035     3455.8406      4610.9831     -1155.1425      1545.2053      2333.8281      1597.7719     -996.12165      7394.8244     -13065.175    
     10500   301.59525      95.320617      60850.707      0.94083847     3585.1494      4695.4674     -1110.318       1574.4725      2371.2249      1614.447      -1031.4412      7390.4824     -13068.083    
     11000   301.33031     -925.36167      60415.47       0.94761633     3445.4805      4691.3426     -1245.8622      1564.8835      2326.6643      1567.4144     -1061.3292      7374.5749     -13056.453    
     11500   300.00404     -1116.6613      60972.154      0.93896446     3463.8035      4670.6941     -1206.8906      1562.109       2318.2344      1573.7446     -1047.7179      7400.5993     -13052.052    
     12000   298.94485      78.757658      60901.426      0.94005493     3476.4011      4654.2039     -1177.8028      1567.1493      2339.6933      1568.7602     -1052.104       7412.5273     -13050.714    
     12500   296.56567     -706.84236      60297.047      0.94947744     3336.2067      4617.163      -1280.9563      1568.4104      2324.5181      1544.3348     -1047.4188      7352.6692     -13059.714    
     13000   297.29287      271.68016      59973.183      0.95460477     3406.0266      4628.4845     -1222.4579      1581.0631      2351.9236      1577.6241     -1091.0351      7383.4434     -13062.084    
     13500   297.9176      -696.56313      59696.664      0.95902655     3454.7036      4638.2109     -1183.5073      1587.0664      2361.7338      1599.0621     -1041.4001      7336.0576     -13063.92     
     14000   299.64039      478.7478       60019.626      0.95386609     3331.8917      4665.0326     -1333.1409      1578.2308      2312.3031      1542.5523     -1046.921       7313.6431     -13067.62     
     14500   293.41268      349.43289      60556.788      0.94540493     3375.7327      4568.0747     -1192.3421      1537.6923      2432.2824      1543.9681     -1089.1118      7402.4908     -13056.106    
     15000   297.13748     -1056.7249      59436.717      0.96322086     3367.3541      4626.0653     -1258.7112      1632.1555      2353.1088      1559.2008     -1056.7133      7292.3939     -13077.836    
     15500   298.16913     -445.31012      59840.408      0.95672285     3501.3789      4642.1269     -1140.748       1705.8077      2360.6165      1534.1199     -1052.4482      7342.4123     -13068.766    
     16000   301.89478      260.5373       60080.586      0.95289827     3388.2304      4700.1306     -1311.9002      1608.8246      2347.721       1516.2947     -1114.7693      7345.2311     -13052.294    
     16500   295.46277     -519.31643      59677.089      0.95934113     3302.7943      4599.9921     -1297.1979      1666.8296      2345.7006      1547.3671     -1040.6845      7223.9959     -13077.152    
     17000   298.92517     -650.16474      60128.039      0.95214624     3315.4622      4653.8975     -1338.4353      1661.1071      2375.1077      1505.6096     -1063.7527      7218.4259     -13071.164    
     17500   297.62689      1428.1421      59944.62       0.95505962     3345.5598      4633.6849     -1288.1251      1596.294       2358.2839      1560.2177     -1081.0808      7306.2988     -13067.727    
     18000   309.8094      -282.97368      59409.995      0.96365412     3676.1044      4823.3515     -1147.2471      1702.4404      2455.0811      1562.3991     -1097.1224      7267.5474     -13072.86     
     18500   291.69394      475.37582      59396.029      0.9638807      3271.1963      4541.3162     -1270.1198      1664.6239      2395.8169      1546.7499     -1078.9121      7233.8578     -13071.089    
     19000   299.75419     -230.97563      60419.547      0.94755238     3403.1343      4666.8043     -1263.67        1643.5905      2349.8003      1560.9247     -1105.2286      7313.3527     -13065.002    
     19500   299.54133     -379.03519      59719.033      0.95866733     3434.6898      4663.4903     -1228.8005      1702.3625      2405.8306      1533.476      -1082.2914      7240.236      -13066.86     
     20000   303.65839      643.36905      59304.819      0.96536313     3432.6888      4727.5879     -1294.8991      1665.8906      2386.5069      1529.1399     -1107.4982      7272.5544     -13077.343    
     20500   301.51405     -597.31342      59630.681      0.96008775     3445.2892      4694.2031     -1248.9139      1690.6567      2410.2002      1516.0071     -1075.177       7247.7006     -13073.989    
     21000   295.40199      47.297292      60048.135      0.95341323     3365.6706      4599.0459     -1233.3753      1679.8357      2458.119       1484.1279     -1110.2965      7292.8438     -13071.567    
     21500   297.9341      -522.04717      59579.32       0.9609154      3333.665       4638.4677     -1304.8027      1732.4815      2366.9401      1535.2402     -1131.8597      7231.3341     -13076.426    
     22000   304.78717     -309.21331      59249.066      0.96627153     3463.9215      4745.1616     -1281.2402      1715.0278      2456.303       1492.86       -1115.7099      7203.5541     -13069.176    
     22500   304.95646      425.06847      59159.305      0.96773764     3513.6008      4747.7973     -1234.1965      1747.9351      2367.8673      1528.4213     -1132.7002      7288.3837     -13070.331    
     23000   296.76916      91.421362      59230.803      0.96656947     3366.3098      4620.3311     -1254.0213      1659.3585      2440.014       1513.7504     -1075.7813      7239.0417     -13068.154    
     23500   298.88979      165.38599      59770.208      0.95784652     3335.4265      4653.3466     -1317.9201      1683.5105      2370.2251      1523.039      -1087.9761      7230.6981     -13074.31     
     24000   299.34696      606.1453       58982.872      0.97063239     3419.9483      4660.4642     -1240.516       1759.3122      2379.1962      1576.3267     -1144.6224      7220.0706     -13070.58     
     24500   301.12509     -125.36405      59203.934      0.96700814     3416.576       4688.1475     -1271.5715      1780.7238      2370.8465      1530.3113     -1167.403       7248.1777     -13072.327    
     25000   298.69111      569.06911      58741.907      0.97461401     3253.1276      4650.2535     -1397.1259      1732.5193      2308.7521      1504.8394     -1144.1637      7243.011      -13080.593    
     25500   299.36921     -188.49667      59112.254      0.96850791     3391.9762      4660.8107     -1268.8346      1726.1646      2405.7265      1561.2821     -1127.416       7198.4658     -13074.142    
     26000   304.44902      19.783338      59066.827      0.96925278     3444.2009      4739.897      -1295.6962      1757.8721      2378.9071      1489.5446     -1118.0847      7226.4202     -13067.086    
     26500   302.04752      225.35595      59105.389      0.96862041     3351.8045      4702.5086     -1350.7041      1710.4121      2407.5881      1493.0211     -1180.3103      7257.9143     -13072.594    
     27000   299.35574     -225.80383      58909.316      0.97184435     3306.3823      4660.6009     -1354.2186      1714.0372      2390.282       1502.9881     -1111.497       7187.6138     -13072.564    
     27500   299.50778     -680.96513      58540.276      0.9779709      3365.1423      4662.968      -1297.8257      1807.6122      2357.8776      1510.302      -1124.2295      7183.4132     -13069.019    
     28000   307.46316     -935.94906      59226.595      0.96663814     3465.8275      4786.8234     -1320.9959      1771.8815      2356.5977      1503.7566     -1144.6721      7234.5131     -13078.683    
     28500   304.40873     -592.81948      59225.325      0.96665887     3456.4944      4739.2697     -1282.7753      1741.8202      2442.5347      1502.9412     -1115.239       7181.6541     -13072.06     
     29000   298.75346      949.23017      59122.154      0.96834574     3324.4986      4651.2241     -1326.7256      1738.3699      2389.7798      1487.1062     -1179.1148      7263.3757     -13061.429    
     29500   303.32982      9.85453        59058.289      0.9693929      3330.2564      4722.4725     -1392.2161      1682.384       2355.731       1510.9942     -1044.671       7141.7793     -13074.292    
     30000   304.79125      152.53526      59299.069      0.96545675     3489.2658      4745.2251     -1255.9593      1757.0497      2410.2338      1490.6477     -1120.88        7242.4681     -13070.649    
     30101   300.59714      533.68789      58918.105      0.97169938     3399.6931      4679.928      -1280.2349      1773.009       2352.4146      1524.0944     -1074.2952      7187.4008     -13077.66     
Loop time of 492.051 on 1 procs for 25000 steps with 5244 atoms

Performance: 4.390 ns/day, 5.467 hours/ns, 50.808 timesteps/s, 266.436 katom-step/s
98.3% CPU use with 1 MPI tasks x 1 OpenMP threads

MPI task timing breakdown:
Section |  min time  |  avg time  |  max time  |%varavg| %total
---------------------------------------------------------------
Pair    | 382.87     | 382.87     | 382.87     |   0.0 | 77.81
Bond    | 21.861     | 21.861     | 21.861     |   0.0 |  4.44
Kspace  | 35.472     | 35.472     | 35.472     |   0.0 |  7.21
Neigh   | 42.188     | 42.188     | 42.188     |   0.0 |  8.57
Comm    | 1.4424     | 1.4424     | 1.4424     |   0.0 |  0.29
Output  | 0.11097    | 0.11097    | 0.11097    |   0.0 |  0.02
Modify  | 7.8061     | 7.8061     | 7.8061     |   0.0 |  1.59
Other   |            | 0.2979     |            |       |  0.06

Nlocal:           5244 ave        5244 max        5244 min
Histogram: 1 0 0 0 0 0 0 0 0 0
Nghost:          16863 ave       16863 max       16863 min
Histogram: 1 0 0 0 0 0 0 0 0 0
Neighs:    1.74825e+06 ave 1.74825e+06 max 1.74825e+06 min
Histogram: 1 0 0 0 0 0 0 0 0 0

Total # of neighbors = 1748249
Ave neighs/atom = 333.38082
Ave special neighs/atom = 11.031274
Neighbor list builds = 1012
Dangerous builds = 0

variable        dens equal density
variable        vol_ equal vol
fix             avg all ave/time 500 10 5000 v_dens v_vol_ file density.dat
run             25000
PPPM initialization ...
  using 12-bit tables for long-range coulomb
  G vector (1/distance) = 0.23790479
  grid = 15 15 15
  stencil order = 5
  estimated absolute RMS force accuracy = 0.017596073
  estimated relative force accuracy = 5.2990051e-05
  using double precision FFTW3
  3d grid and FFT values/proc = 8000 3375
Generated 36 of 36 mixed pair_coeff terms from arithmetic mixing rule
Per MPI rank memory allocation (min/avg/max) = 53.03 | 53.03 | 53.03 Mbytes
   Step          Temp          Press          Volume        Density         TotEng         KinEng         PotEng         E_bond        E_angle        E_dihed         E_vdwl         E_coul         E_long    
     30101   300.59714      532.44891      58918.105      0.97169938     3399.6395      4679.928      -1280.2886      1773.009       2352.4146      1524.0944     -1074.2952      7213.0495     -13103.362    
     30500   303.52572      147.49309      58849.835      0.97282662     3353.1893      4725.5223     -1372.333       1732.2522      2416.141       1472.3549     -1137.1371      7204.3094     -13095.893    
     31000   300.21524     -156.76437      58963.497      0.97095134     3323.2861      4673.9823     -1350.6962      1731.2532      2396.9891      1503.3997     -1213.7491      7298.1075     -13102.274    
     31500   300.20712      313.28439      58887.977      0.97219651     3299.5511      4673.8558     -1374.3047      1678.8691      2405.4574      1490.9903     -1122.8951      7235.3081     -13095.978    
     32000   295.05548     -57.646629      59153.262      0.9678365      3188.6452      4593.6512     -1405.0061      1665.9843      2374.2058      1490.6037     -1126.441       7257.5726     -13102.177    
     32500   299.8291       349.785        58925.4        0.97157909     3379.5088      4667.9706     -1288.4619      1720.3627      2415.6695      1500.6841     -1161.7617      7296.5862     -13095.62     
     33000   301.33744      1165.9674      58986.076      0.97057966     3426.5008      4691.4535     -1264.9527      1717.6297      2402.1556      1521.7532     -1081.5801      7232.6343     -13094.251    
     33500   298.87051     -659.47137      59296.439      0.96549957     3371.3162      4653.0465     -1281.7303      1698.1709      2439.7809      1503.4094     -1129.8885      7264.6219     -13093.722    
     34000   297.51063     -475.36346      59097.647      0.9687473      3319.922       4631.8749     -1311.9529      1755.855       2355.6769      1519.6758     -1179.4013      7293.9674     -13092.511    
     34500   300.65534      688.43659      58854.133      0.97275558     3232.6163      4680.8341     -1448.2178      1663.7932      2354.844       1487.6557     -1137.3931      7244.5174     -13096.953    
     35000   295.35161     -881.81702      59006.516      0.97024346     3291.0061      4598.2616     -1307.2555      1725.9295      2405.1086      1507.7382     -1146.6518      7259.6084     -13094.678    
     35500   299.27879     -197.01795      59378.936      0.96415817     3379.0599      4659.4029     -1280.3431      1702.937       2413.8531      1494.1929     -1178.939       7339.4407     -13084.867    
     36000   291.22025      455.47016      59091.878      0.96884187     3202.9925      4533.9414     -1330.9489      1792.6752      2357.1848      1474.624      -1145.1981      7260.3644     -13105.794    
     36500   299.00702      387.54762      59330.478      0.96494564     3311.9097      4655.1718     -1343.2621      1730.8176      2371.6935      1493.415      -1170.7118      7292.7511     -13096.824    
     37000   305.26565     -1582.1043      58994.847      0.97043537     3375.7609      4752.6109     -1376.85        1729.5289      2358.5778      1471.2745     -1105.8907      7231.4311     -13096.01     
     37500   302.26461     -708.78348      59167.77       0.96759919     3438.1421      4705.8885     -1267.7464      1774.3676      2409.1086      1507.0048     -1129.1418      7235.7904     -13099.138    
     38000   301.27382     -318.33306      59415.909      0.9635582      3369.6445      4690.4631     -1320.8186      1754.3747      2348.7805      1478.2091     -1116.8702      7287.0952     -13108.104    
     38500   298.06437      82.842193      58826.688      0.97320941     3312.2689      4640.4959     -1328.227       1725.9261      2371.6659      1544.3143     -1106.7131      7206.4523     -13107.586    
     39000   300.5179      -495.40388      59282.053      0.96573386     3412.3222      4678.6944     -1266.3722      1782.3171      2337.6819      1539.5567     -1131.6383      7273.3051     -13106.309    
     39500   298.64844      15.11446       59162.568      0.96768426     3371.9238      4649.5892     -1277.6653      1719.2938      2401.5514      1513.8639     -1165.4248      7309.8881     -13092.219    
     40000   295.35586      120.95688      58710.243      0.97513965     3184.2394      4598.3277     -1414.0883      1692.274       2350.9565      1486.6905     -1119.6894      7245.8119     -13105.202    
     40500   301.92506      730.62351      58994.367      0.97044327     3399.2553      4700.6021     -1301.3468      1698.1717      2405.4766      1500.8113     -1105.1896      7267.0957     -13103.418    
     41000   302.4019       544.04224      59414.565      0.96357998     3447.6601      4708.0259     -1260.3658      1741.3007      2399.6748      1524.2876     -1098.069       7226.0265     -13088.594    
     41500   295.75058      1229.7402      59030.57       0.9698481      3218.4749      4604.473      -1385.9982      1685.4422      2363.2827      1494.572      -1109.5219      7239.1138     -13094.848    
     42000   299.65733     -686.83608      59151.724      0.96786166     3268.1276      4665.2964     -1397.1688      1713.5903      2372.3936      1502.0924     -1182.7844      7262.6642     -13098.24     
     42500   300.92352      188.44337      58619.643      0.97664678     3343.9035      4685.0094     -1341.1059      1764.792       2358.2271      1492.9833     -1178.6579      7290.9525     -13104.166    
     43000   300.29779      22.033371      59250.846      0.96624251     3445.4351      4675.2675     -1229.8324      1784.3871      2417.4032      1516.9776     -1144.1054      7264.2384     -13105.385    
     43500   298.21916      1311.223       58719.929      0.9749788      3333.8412      4642.9058     -1309.0646      1786.014       2373.5046      1499.9941     -1164.5337      7270.5026     -13109.597    
     44000   300.68228     -1406.3289      58895.195      0.97207737     3359.5682      4681.2536     -1321.6853      1714.191       2402.4811      1509.8981     -1175.3758      7299.0888     -13106.459    
     44500   299.97839     -1434.6038      58561.152      0.97762226     3276.8799      4670.2948     -1393.4149      1763.8402      2379.1033      1486.3948     -1174.9273      7216.9615     -13099.24     
     45000   299.9532       3.4725115      58874.271      0.97242285     3356.2181      4669.9027     -1313.6846      1735.2629      2409.74        1494.3025     -1137.7464      7249.371      -13101.147    
     45500   303.02795      302.38442      58937.405      0.97138118     3462.2122      4717.7727     -1255.5605      1762.1896      2425.7917      1517.914      -1087.3315      7192.5434     -13103.88     
     46000   300.82368      901.43014      58621.535      0.97661526     3371.1952      4683.4549     -1312.2597      1753.4842      2409.1475      1476.5201     -1112.2762      7220.5696     -13094.929    
     46500   290.64619     -852.13262      59274.688      0.96585386     3178.3092      4525.004      -1346.6947      1755.3362      2388.4542      1491.3803     -1157.8106      7238.6308     -13098.37     
     47000   299.65386      767.35623      58961.101      0.9709908      3412.5954      4665.2423     -1252.6469      1781.7047      2410.2199      1516.7318     -1129.4372      7247.79       -13114.677    
     47500   298.72922      432.75162      58641.594      0.9762812      3362.8754      4650.8468     -1287.9714      1753.7841      2354.2577      1518.5722     -1082.7622      7233.4541     -13101.531    
     48000   296.81376     -185.99231      59120.888      0.96836647     3282.0214      4621.0254     -1339.004       1728.4794      2416.1318      1496.9817     -1158.5445      7243.8784     -13101.663    
     48500   297.43478     -1556.0462      58900.895      0.97198329     3340.9978      4630.6939     -1289.6961      1824.5522      2370.1032      1513.5816     -1164.6091      7234.5139     -13105.72     
     49000   300.40763      1331.4063      59115.51       0.96845458     3388.8957      4676.9776     -1288.082       1717.498       2424.5098      1524.2075     -1166.3711      7274.8809     -13103.126    
     49500   300.20157      284.33766      58719.836      0.97498034     3410.8926      4673.7695     -1262.877       1780.9284      2431.3811      1508.0229     -1110.0113      7188.7844     -13097.429    
     50000   301.31117      145.91592      58963.728      0.97094753     3370.9742      4691.0446     -1320.0704      1765.5006      2375.1252      1493.2025     -1180.74        7288.4447     -13097.367    
     50500   293.01326     -123.89185      59348.139      0.96465849     3239.5752      4561.8564     -1322.2811      1741.5389      2387.4663      1505.6663     -1170.2994      7266.6119     -13088.441    
     51000   300.19079      1064.1978      58917.422      0.97171065     3285.1538      4673.6016     -1388.4478      1663.068       2341.6567      1513.9564     -1090.5119      7254.1367     -13106.645    
     51500   296.98091      73.80216       58561.712      0.97761291     3300.5165      4623.6278     -1323.1113      1743.9132      2408.3301      1502.5481     -1112.9217      7204.4076     -13106.914    
     52000   300.94713     -1211.5867      59011.155      0.97016718     3306.1439      4685.3769     -1379.233       1756.7063      2392.8437      1477.4666     -1114.275       7187.4321     -13113.885    
     52500   302.10076     -700.13485      59431.639      0.96330316     3413.0937      4703.3376     -1290.2439      1740.8382      2409.1148      1507.8927     -1164.0829      7270.1431     -13091.133    
     53000   301.65163      469.72947      58622.327      0.97660207     3332.9833      4696.3451     -1363.3618      1692.7162      2419.0659      1478.9742     -1109.8155      7225.0799     -13103.253    
     53500   304.85475      481.21784      59346.579      0.96468385     3458.4334      4746.2138     -1287.7804      1731.1949      2411.6858      1494.3771     -1195.1804      7335.2742     -13100.44     
     54000   299.39823      1311.3594      58715.305      0.97505559     3389.9052      4661.2624     -1271.3572      1743.5739      2417.9714      1498.0853     -1088.4668      7220.0267     -13099.714    
     54500   300.51013     -611.17014      59102.899      0.96866121     3295.5446      4678.5734     -1383.0288      1724.9215      2379.0109      1473.5393     -1122.8257      7228.95       -13103.56     
     55000   296.08834     -306.1377       59076.372      0.96909617     3343.9374      4609.7315     -1265.7941      1758.4158      2459.0765      1503.6514     -1200.9641      7281.8658     -13103.573    
     55101   298.60102     -578.32985      58854.03       0.97275727     3234.4409      4648.8509     -1414.41        1740.9516      2349.4267      1487.0082     -1115.2294      7194.2275     -13103.324    
Loop time of 492.088 on 1 procs for 25000 steps with 5244 atoms

Performance: 4.389 ns/day, 5.468 hours/ns, 50.804 timesteps/s, 266.416 katom-step/s
98.6% CPU use with 1 MPI tasks x 1 OpenMP threads

MPI task timing breakdown:
Section |  min time  |  avg time  |  max time  |%varavg| %total
---------------------------------------------------------------
Pair    | 387.98     | 387.98     | 387.98     |   0.0 | 78.84
Bond    | 21.801     | 21.801     | 21.801     |   0.0 |  4.43
Kspace  | 35.583     | 35.583     | 35.583     |   0.0 |  7.23
Neigh   | 37.115     | 37.115     | 37.115     |   0.0 |  7.54
Comm    | 1.4517     | 1.4517     | 1.4517     |   0.0 |  0.30
Output  | 0.12231    | 0.12231    | 0.12231    |   0.0 |  0.02
Modify  | 7.7466     | 7.7466     | 7.7466     |   0.0 |  1.57
Other   |            | 0.2911     |            |       |  0.06

Nlocal:           5244 ave        5244 max        5244 min
Histogram: 1 0 0 0 0 0 0 0 0 0
Nghost:          16880 ave       16880 max       16880 min
Histogram: 1 0 0 0 0 0 0 0 0 0
Neighs:    1.74752e+06 ave 1.74752e+06 max 1.74752e+06 min
Histogram: 1 0 0 0 0 0 0 0 0 0

Total # of neighbors = 1747520
Ave neighs/atom = 333.2418
Ave special neighs/atom = 11.031274
Neighbor list builds = 896
Dangerous builds = 0

# ------------------------------------------------------------- chemical pot ---
# Widom insertion of a test water into the swollen membrane, to be compared with
# the same quantity in bulk water. The comparison is only meaningful if both
# sides use identical cutoff, kspace accuracy and water model -- see bulk.in.j2.
#
# The test particle is inserted but never kept, so this measures the free energy
# the *next* water would pay, which is exactly the saturation question.
molecule        h2o h2o.mol
Read molecule template h2o:
# Rigid water for Widom test insertions.
  1 molecules
  0 fragments
  0 bodies
  3 atoms with max type 9
  2 bonds with max type 8
  1 angles with max type 14
  0 dihedrals with max type 0
  0 impropers with max type 0
fix             w all widom 100 400 0 87231 300.0 mol h2o full_energy
WARNING: Molecule attributes do not match system attributes
For more information see https://docs.lammps.org/err0026 (src/molecule.cpp:3637)
variable        muex equal f_w[1]
variable        boltz equal f_w[2]
variable        wvol equal f_w[3]
fix             muavg all ave/time 100 100 10000 v_muex v_boltz v_wvol file mu.dat
run             50000
PPPM initialization ...
  using 12-bit tables for long-range coulomb
  G vector (1/distance) = 0.23793786
  grid = 15 15 15
  stencil order = 5
  estimated absolute RMS force accuracy = 0.017577963
  estimated relative force accuracy = 5.2935512e-05
  using double precision FFTW3
  3d grid and FFT values/proc = 8000 3375
Generated 36 of 36 mixed pair_coeff terms from arithmetic mixing rule
0 atoms in group FixWidom:widom_exclusion_group:w
0 atoms in group FixWidom:rotation_gas_atoms:w
WARNING: Neighbor exclusions used with KSpace solver may give inconsistent Coulombic energies (src/neighbor.cpp:671)
Per MPI rank memory allocation (min/avg/max) = 53.03 | 53.03 | 53.03 Mbytes
   Step          Temp          Press          Volume        Density         TotEng         KinEng         PotEng         E_bond        E_angle        E_dihed         E_vdwl         E_coul         E_long    
     55101   298.60102     -579.27112      58854.03       0.97275727     3234.4382      4648.8509     -1414.4126      1740.9516      2349.4267      1487.0082     -1115.2294      7195.9286     -13105.028    
     55500   304.03192      1808.1868      58711.332      0.97512157     3366.013       4733.4032     -1367.3902      1668.0442      2402.4641      1476.6502     -1081.1074      7240.8281     -13108.938    
     56000   306.52685      288.70362      59431.921      0.96329859     3394.8334      4772.2464     -1377.4129      1661.6749      2407.4857      1516.8965     -1100.1497      7205.1281     -13105.534    
     56500   301.37146      97.388891      58916.323      0.97172877     3340.5134      4691.9832     -1351.4698      1775.8882      2373.9334      1491.4272     -1152.2474      7223.3654     -13100.677    
     57000   300.69753     -276.5373       59375.51       0.9642138      3331.5727      4681.4909     -1349.9182      1735.8649      2350.2562      1479.8725     -1104.0791      7259.0887     -13104.138    
     57500   294.73652     -873.5638       58862.62       0.97261532     3150.5836      4588.6853     -1438.1016      1713.3393      2364.2084      1477.8189     -1127.4092      7201.5385     -13101.515    
     58000   298.35689      955.5056       58416.775      0.98003846     3282.1531      4645.05       -1362.897       1714.8399      2443.58        1440.7424     -1119.6857      7228.0016     -13102.884    
     58500   298.45591      1195.711       58850.47       0.97281612     3368.0701      4646.5917     -1278.5216      1717.4183      2466.33        1479.6391     -1114.6073      7241.2946     -13106.765    
     59000   298.96472     -149.21562      58809.296      0.97349722     3370.6921      4654.5132     -1283.8212      1800.6983      2445.7797      1481.422      -1139.103       7200.7789     -13108.586    
     59500   301.01802      273.49144      59244.159      0.96635158     3395.0961      4686.4806     -1291.3845      1726.1786      2463.7792      1501.9045     -1169.5219      7242.8742     -13093.361    
     60000   295.95162     -693.88853      59201.488      0.96704809     3353.2751      4607.603      -1254.3279      1750.3471      2445.6796      1475.6312     -1062.4926      7198.7324     -13098.907    
     60500   296.42307     -731.02366      59308.091      0.96530987     3309.8709      4614.9429     -1305.072       1753.9983      2387.9228      1528.1191     -1155.9229      7240.2843     -13098.079    
     61000   297.5724       110.51293      59018.855      0.97004061     3254.0995      4632.8366     -1378.7371      1715.7612      2412.2542      1485.611      -1142.2321      7223.8664     -13110.218    
     61500   301.97415     -377.1077       58980.771      0.97066697     3319.1272      4701.3663     -1382.2391      1767.7297      2356.1415      1476.7289     -1178.2197      7259.9248     -13100.09     
     62000   300.55523      46cxdZ4.97914      59012.765      0.97014072     3349.7983      4679.2755     -1329.4772      1723.8814      2417.875       1499.1422     -1146.9309      7244.063      -13104.775    
     62500   295.27496      1048.9407      59145.458      0.9679642      3154.1859      4597.0683     -1442.8823      1688.1681      2335.5757      1487.1348     -1149.4634      7258.9219     -13097.356    
     63000   299.14788     -2290.9074      59210.192      0.96690594     3285.4462      4657.3648     -1371.9185      1774.0336      2366.8554      1505.5763     -1187.9834      7233.9238     -13098.992    
     63500   301.42711      1049.1301      58677.996      0.97567556     3344.1477      4692.8496     -1348.7019      1725.9176      2385.3738      1515.8666     -1169.7968      7261.0127     -13103.795    
     64000   302.61744     -1768.5859      59148.46       0.96791507     3374.9619      4711.3816     -1336.4198      1790.5984      2394.0022      1477.4312     -1185.6336      7247.7701     -13093.417    
     64500   301.22603     -733.33829      59064.379      0.96929295     3317.5457      4689.719      -1372.1734      1758.9179      2392.7453      1507.0814     -1167.6641      7193.1586     -13092.974    
     65000   298.13036      665.38131      58767.646      0.97418715     3236.1369      4641.5233     -1405.3864      1738.7551      2380.3833      1469.0365     -1200.0617      7264.0212     -13093.384    
     65500   299.5088      -297.96989      59340.309      0.96478577     3398.2325      4662.9839     -1264.7514      1808.0876      2419.572       1471.5136     -1158.9702      7257.3        -13096.622    
     66000   306.25838      370.06514      58860.988      0.97264229     3502.3324      4768.0666     -1265.7342      1771.1446      2395.0912      1484.7685     -1093.0968      7240.4962     -13098.8      
     66500   303.76619     -117.10087      59162.573      0.96768419     3404.3234      4729.2662     -1324.9429      1775.4946      2442.2444      1485.1467     -1142.6766      7177.8212     -13096.726    
     67000   300.21129      303.61026      59699.727      0.95897735     3388.5869      4673.9208     -1285.3339      1763.855       2407.727       1477.037      -1137.7486      7258.9327     -13089.757    
     67500   293.82112      889.09211      58929.774      0.97150696     3166.8479      4574.4337     -1407.5858      1725.7004      2362.2078      1512.0971     -1138.3033      7197.0258     -13101.102    
     68000   300.57553     -381.43411      58952.259      0.97113642     3260.3659      4679.5916     -1419.2257      1810.0191      2315.1924      1477.2668     -1152.202       7204.4303     -13108.328    
     68500   301.00668      1054.1183      59174.304      0.96749234     3330.736       4686.304      -1355.568       1764.0538      2328.3114      1506.5763     -1099.3877      7211.8462     -13104.089    
     69000   299.53618     -8.1263511      59101.546      0.96868339     3328.5558      4663.4101     -1334.8543      1747.5183      2434.5512      1473.66       -1133.0961      7219.1141     -13110.831    
     69500   297.09975     -855.3762       58697.295      0.97535476     3242.3212      4625.4779     -1383.1567      1739.2338      2425.1972      1481.8946     -1121.8334      7164.3032     -13107.581    
     70000   297.63208      603.29099      59041.556      0.96966764     3207.5586      4633.7657     -1426.2071      1653.313       2386.1333      1498.9354     -1167.2845      7268.7336     -13102.759    
     70500   298.96368     -591.3487       58562.556      0.97759883     3249.8238      4654.4971     -1404.6732      1692.7828      2381.6361      1493.3447     -1085.5475      7176.2068     -13098.584    
     71000   303.37256     -219.88285      59042.224      0.96965666     3357.0261      4723.1379     -1366.1118      1733.0788      2369.4706      1491.7548     -1132.6014      7233.3474     -13098.15     
     71500   297.87195     -660.9344       58940.815      0.97132498     3292.2354      4637.5001     -1345.2648      1734.5219      2415.9842      1496.6232     -1128.6459      7197.71       -13097.746    
     72000   299.27069     -85.747296      58645.87       0.97621001     3269.9518      4659.2769     -1389.3251      1728.9318      2381.1566      1471.4768     -1149.7705      7241.0055     -13095.086    
     72500   299.50759     -628.06971      58664.238      0.97590436     3335.2873      4662.965      -1327.6777      1757.1705      2448.24        1504.0527     -1198.5576      7231.641      -13107.124    
     73000   299.57698     -944.39651      58979.099      0.97069448     3400.1144      4664.0454     -1263.931       1784.356       2448.8291      1522.8193     -1193.3664      7239.4524     -13103.065    
     73500   301.68327      336.11731      58889.37       0.97217352     3321.3484      4696.8377     -1375.4894      1738.6274      2373.0055      1509.285      -1149.8305      7228.8247     -13110.63     
     74000   298.61271     -212.90173      59088.23       0.96890169     3294.9177      4649.0328     -1354.1152      1730.3114      2421.9119      1517.448      -1167.2902      7217.1818     -13108.132    
     74500   307.97815     -235.86092      59162.038      0.96769293     3356.9131      4794.8412     -1437.9281      1729.7348      2377.4352      1498.3452     -1217.0014      7245.9118     -13106.511    
     75000   301.99974      107.71075      59234.567      0.96650806     3389.6743      4701.7647     -1312.0904      1703.8417      2456.2953      1485.4165     -1108.717       7225.7117     -13110.108    
     75500   292.75583      613.57384      59119.496      0.96838927     3282.3994      4557.8484     -1275.449       1739.4058      2409.4266      1542.5565     -1110.8294      7208.248      -13102.883    
     76000   295.73755      381.84575      59085.302      0.96894971     3252.9242      4604.2702     -1351.346       1746.8967      2370.5804      1516.9954     -1138.6558      7219.843      -13103.473    
     76500   300.57597     -67.630592      58743.251      0.97459171     3211.5364      4679.5984     -1468.062       1670.4701      2396.4531      1493.3754     -1156.4085      7203.6729     -13109.999    
     77000   301.11347      777.75275      58955.287      0.97108655     3330.1169      4687.9667     -1357.8497      1707.4038      2431.0924      1492.7851     -1184.2087      7265.5938     -13102.673    
     77500   300.36052     -867.56316      59486.739      0.96241091     3371.202       4676.2442     -1305.0422      1728.072       2433.7744      1484.9472     -1127.8607      7252.2273     -13109.999    
     78000   295.90918      169.12696      58783.984      0.9739164      3309.4031      4606.9423     -1297.5392      1762.4068      2421.0574      1512.2624     -1141.9822      7218.8906     -13107.03     
     78500   295.37471     -1031.7846      59093.794      0.96881046     3111.03        4598.6212     -1487.5912      1672.0668      2339.7723      1482.3193     -1160.4849      7244.2762     -13099.793    
     79000   302.39547     -745.3789       59197.144      0.96711905     3390.352       4707.9258     -1317.5738      1750.2898      2391.5598      1520.5413     -1144.4255      7226.6366     -13100.673    
     79500   301.90581      318.73426      59334.103      0.96488669     3395.7366      4700.3024     -1304.5658      1739.8039      2403.1672      1499.6685     -1110.4813      7231.3494     -13103.94     
     80000   304.56319      243.46524      59125.775      0.96828644     3452.0418      4741.6745     -1289.6327      1757.9525      2444.3259      1527.2579     -1131.5301      7188.4344     -13111.664    
     80500   301.15661     -1093.3345      58968.979      0.97086107     3337.617       4688.6383     -1351.0213      1754.6444      2433.2588      1494.7958     -1140.014       7179.0396     -13109.028    
     81000   296.58909     -615.13572      59099.179      0.9687222      3272.7442      4617.5276     -1344.7835      1761.9972      2395.5705      1507.2222     -1170.9333      7218.738      -13093.423    
     81500   297.57729      793.28872      59344.689      0.96471456     3336.8192      4632.9126     -1296.0934      1816.0656      2381.3255      1484.413      -1148.6365      7241.0432     -13105.495    
     82000   302.90685     -70.502244      58870.639      0.97248284     3419.9412      4715.8873     -1295.9461      1787.6862      2463.9202      1461.0893     -1146.3187      7207.5394     -13104.301    
     82500   309.52043      1345.0583      58823.638      0.97325987     3460.5131      4818.8527     -1358.3396      1733.0897      2420.716       1491.6511     -1137.2049      7194.0545     -13097.155    
     83000   301.03408      473.44426      59131.106      0.96819914     3297.2488      4686.7306     -1389.4818      1741.7953      2373.7446      1487.0162     -1157.2109      7227.9297     -13098.045      83500   302.13188     -577.71952      58963.122      0.97095751     3288.2977      4703.822      -1415.5243      1760.8285      2377.0344      1459.6687     -1178.1852      7225.5078     -13095.174    
     84000   294.18128     -794.63356      59214.384      0.96683748     3314.955       4580.041      -1265.086       1785.5166      2410.6371      1507.2321     -1127.1237      7226.2663     -13105.262    
     84500   304.41717      410.99897      58743.496      0.97458765     3459.6865      4739.4011     -1279.7146      1744.8757      2424.5976      1531.4949     -1109.9945      7192.1928     -13100.075    
     85000   302.18178     -130.47034      58429.465      0.9798256      3397.2283      4704.5989     -1307.3706      1761.6549      2451.5883      1483.2788     -1140.6218      7209.0478     -13109        
     85500   302.85968      288.50686      59186.893      0.96728656     3361.6487      4715.153      -1353.5043      1756.682       2381.718       1484.5683     -1116.7375      7204.4605     -13098.713    
     86000   300.51282     -546.21278      59162.451      0.96768618     3328.6996      4678.6152     -1349.9156      1718.1463      2444.3104      1531.9504     -1164.4532      7176.4911     -13094.397    
     86500   297.41805      771.42904      59002.199      0.97031445     3186.5185      4630.4336     -1443.915       1737.1587      2374.2173      1462.47       -1135.5899      7189.6258     -13106.214    
     87000   297.71629     -204.54056      59155.14       0.96780577     3256.0676      4635.0768     -1379.0092      1738.0519      2394.97        1504.1268     -1148.3345      7203.8053     -13109.116    
     87500   303.63611      632.35404      58642.235      0.97627053     3316.2994      4727.241      -1410.9416      1691.1218      2350.1065      1528.858      -1145.9155      7225.7026     -13099.584    
     88000   303.3273      -302.13413      58995.526      0.97042421     3372.4205      4722.4332     -1350.0127      1754.1136      2425.264       1493.6248     -1146.6925      7196.9096     -13108.941    
     88500   298.58919      368.44882      59022.686      0.96997764     3312.1877      4648.6667     -1336.479       1743.0814      2394.9258      1492.5211     -1132.755       7235.2784     -13106.001    
     89000   303.07167      1500.9207      58533.02       0.97809212     3213.1976      4718.4534     -1505.2558      1684.0799      2348.5615      1495.7163     -1141.4542      7181.2817     -13111.082    
     89500   297.06392     -919.88722      59430.583      0.96332028     3225.1494      4624.9201     -1399.7707      1732.215       2375.9221      1506.9752     -1175.7502      7231.3815     -13107.772    
     90000   296.51969     -1113.0604      58986.795      0.97056784     3268.6629      4616.4471     -1347.7842      1765.5666      2391.4434      1483.1049     -1194.3675      7266.5223     -13096.042    
     90500   301.98578     -1051.9565      59032.868      0.96981035     3259.6558      4701.5474     -1441.8915      1822.0084      2313.529       1475.963      -1181.2548      7201.69       -13108.033    
     91000   299.53191     -283.08584      58869.064      0.97250885     3330.9419      4663.3438     -1332.4019      1729.5155      2385.8277      1512.7585     -1142.708       7249.9452     -13103.1      
     91500   309.78436      562.4384       58525.039      0.97822551     3433.9504      4822.9617     -1389.0113      1802.6559      2362.475       1488.9685     -1162.658       7193.5255     -13110.212    
     92000   305.41973     -1676.2212      59456.744      0.96289642     3426.2165      4755.0098     -1328.7933      1821.9141      2413.5532      1485.9297     -1207.9941      7226.0845     -13101.595    
     92500   295.95607     -815.63155      59087.027      0.96892141     3309.0795      4607.6722     -1298.5927      1810.841       2418.2814      1505.6472     -1187.7237      7218.1551     -13101.273    
     93000   297.54165     -533.07608      58375.828      0.98072589     3225.9061      4632.3577     -1406.4517      1790.5178      2380.2523      1488.4179     -1184.2778      7185.0493     -13101.827    
     93500   307.24681      0.23459025     58792.879      0.97376905     3281.7367      4783.4552     -1501.7185      1666.2967      2384.0115      1465.5498     -1135.9451      7191.5506     -13105.908    
     94000   300.71883     -1141.3995      59131.457      0.96819339     3384.2609      4681.8225     -1297.5616      1797.9211      2439.4259      1481.7211     -1147.8824      7188.6631     -13093.644    
     94500   305.30282      1328.4189      58769.235      0.97416082     3423.8713      4753.1897     -1329.3184      1754.7274      2447.3848      1482.8113     -1094.9672      7150.529      -13104.845    
     95000   305.82049     -19.508339      58987.703      0.97055289     3347.5679      4761.2491     -1413.6812      1749.0106      2376.291       1497.3256     -1117.7802      7157.5121     -13109.3      
     95500   298.33571      1209.7839      58704.571      0.97523387     3306.4926      4644.7203     -1338.2278      1727.8511      2407.4021      1529.4355     -1160.9054      7225.8582     -13106.518    
     96000   299.70455      485.70036      59279.42       0.96577675     3301.5918      4666.0314     -1364.4396      1746.1227      2342.2783      1507.4426     -1164.6239      7258.3087     -13094.351    
     96500   301.30884     -1446.2742      59207.298      0.9669532      3362.2856      4691.0082     -1328.7226      1792.1637      2398.726       1482.4315     -1192.8444      7253.8332     -13096.652    
     97000   307.20727      625.12266      59145.067      0.9679706      3390.0645      4782.8395     -1392.775       1725.7906      2353.8239      1507.7227     -1196.1011      7278.6508     -13098.51     
     97500   304.72045     -513.15603      59401.965      0.96378437     3445.9508      4744.1229     -1298.1721      1803.8298      2401.172       1516.6572     -1171.2747      7222.6844     -13107.589    
     98000   301.87765      563.88657      58972.999      0.97079488     3379.0764      4699.864      -1320.7877      1752.6975      2400.2553      1492.1588     -1128.9889      7231.2044     -13102.433    
     98500   293.97053      666.6141       58941.987      0.97130566     3340.8085      4576.7598     -1235.9513      1758.4455      2444.0649      1529.9738     -1140.1268      7238.3588     -13104.291    
     99000   293.74169     -0.027447872    59076.287      0.96909757     3142.8977      4573.1971     -1430.2993      1698.4455      2346.0106      1532.8084     -1114.1585      7182.2851     -13112.976    
     99500   305.04527     -25.601265      58974.289      0.97077366     3375.1917      4749.1799     -1373.9882      1712.8161      2410.2548      1494.3078     -1162.799       7224.4201     -13090.932    
    100000   294.33708     -1149.8186      59051.82       0.9694991      3365.2645      4582.4665     -1217.202       1801.7212      2476.4377      1486.2152     -1181.68        7272.5244     -13106.197    
    100500   295.46496     -1338.8547      59128.885      0.9682355      3184.8272      4600.0262     -1415.199       1773.0716      2356.5232      1470.3593     -1145.5973      7198.3565     -13101.246    
    101000   292.53884     -1225.3596      58996.173      0.97041355     3172.2493      4554.4702     -1382.2209      1738.7205      2402.6962      1502.5711     -1209.635       7247.7131     -13101.902    
    101500   299.06056      95.353944      59186.484      0.96729324     3233.3974      4656.0054     -1422.6079      1722.7527      2416.9494      1479.5861     -1181.2024      7209.6377     -13105.091    
    102000   296.64334      3.1659199      59182.854      0.96735257     3316.2897      4618.3723     -1302.0826      1778.9198      2378.035       1522.6607     -1140.5218      7230.2174     -13109.304    
    102500   298.94367     -130.43396      58850.292      0.97281907     3340.8302      4654.1856     -1313.3554      1776.2915      2390.9716      1499.6217     -1156.6871      7253.2891     -13111.277    
    103000   294.76996      94.07429       58988.199      0.97054473     3125.8904      4589.206      -1463.3156      1752.1431      2341.4973      1476.3406     -1169.4203      7195.4783     -13096.305    
    103500   301.12682      720.86824      58999.297      0.97036218     3279.7781      4688.1744     -1408.3963      1730.2681      2390.4485      1442.7834     -1147.0012      7239.8056     -13097.961    
    104000   300.38397      1498.2304      58511.1        0.97845855     3308.111       4676.6091     -1368.4982      1693.6165      2438.3141      1501.5359     -1142.4876      7206.2978     -13103.644    
    104500   303.1285       156.28831      58632.699      0.97642931     3419.2843      4719.3381     -1300.0538      1775.6641      2379.9306      1513.4218     -1124.0403      7221.8205     -13102.767    
    105000   300.01861     -179.42965      58726.852      0.97486387     3355.3712      4670.9209     -1315.5497      1739.8753      2451.5216      1504.7118     -1175.2031      7229.6651     -13103.343    
    105101   300.50883     -1.6982321      58750.078      0.97447846     3384.3445      4678.5532     -1294.2087      1779.1541      2418.5579      1523.2419     -1168.7449      7211.675      -13095.992    
Loop time of 16377.7 on 1 procs for 50000 steps with 5244 atoms

Performance: 0.264 ns/day, 90.987 hours/ns, 3.053 timesteps/s, 16.010 katom-step/s
98.7% CPU use with 1 MPI tasks x 1 OpenMP threads

MPI task timing breakdown:
Section |  min time  |  avg time  |  max time  |%varavg| %total
---------------------------------------------------------------
Pair    | 777.05     | 777.05     | 777.05     |   0.0 |  4.74
Bond    | 43.501     | 43.501     | 43.501     |   0.0 |  0.27
Kspace  | 70.339     | 70.339     | 70.339     |   0.0 |  0.43
Neigh   | 104.06     | 104.06     | 104.06     |   0.0 |  0.64
Comm    | 2.9069     | 2.9069     | 2.9069     |   0.0 |  0.02
Output  | 0.36626    | 0.36626    | 0.36626    |   0.0 |  0.00
Modify  | 15379      | 15379      | 15379      |   0.0 | 93.90
Other   |            | 0.6004     |            |       |  0.00

Nlocal:           5244 ave        5244 max        5244 min
Histogram: 1 0 0 0 0 0 0 0 0 0
Nghost:          16813 ave       16813 max       16813 min
Histogram: 1 0 0 0 0 0 0 0 0 0
Neighs:     1.7553e+06 ave  1.7553e+06 max  1.7553e+06 min
Histogram: 1 0 0 0 0 0 0 0 0 0

Total # of neighbors = 1755301
Ave neighs/atom = 334.72559
Ave special neighs/atom = 11.031274
Neighbor list builds = 202521
Dangerous builds = 0
unfix           w
unfix           muavg

# Written WITH coefficients: each stage reads the previous stage's data file, so
# the file has to be self-contained. `nocoeff` would force every downstream stage
# to re-derive the force field, and any drift between the two paths would be
# silent.
write_data      relaxed.data
System init for write_data ...
PPPM initialization ...
  using 12-bit tables for long-range coulomb
  G vector (1/distance) = 0.23799158
  grid = 15 15 15
  stencil order = 5
  estimated absolute RMS force accuracy = 0.017548575
  estimated relative force accuracy = 5.2847012e-05
  using double precision FFTW3
  3d grid and FFT values/proc = 8000 3375
Generated 36 of 36 mixed pair_coeff terms from arithmetic mixing rule
write_restart   relaxed.restart
System init for write_restart ...
PPPM initialization ...
  using 12-bit tables for long-range coulomb
  G vector (1/distance) = 0.23799158
  grid = 15 15 15
  stencil order = 5
  estimated absolute RMS force accuracy = 0.017548575
  estimated relative force accuracy = 5.2847012e-05
  using double precision FFTW3
  3d grid and FFT values/proc = 8000 3375
Generated 36 of 36 mixed pair_coeff terms from arithmetic mixing rule
Total wall time: 4:51:13
