LAMMPS data file via write_data, version 22 Jul 2025, timestep = 100500, units = real

1563 atoms
2 atom types
1042 bonds
1 bond types
521 angles
1 angle types

0.008812433508159856 24.99526856649134 xlo xhi
0.008812433508159856 24.99526856649134 ylo yhi
0.008812433508159856 24.99526856649134 zlo zhi

Masses

1 15.9994
2 1.008

Pair Coeffs # lj/cut/coul/long/gpu

1 0.1553 3.166
2 0 0

Bond Coeffs # harmonic

1 553 1

Angle Coeffs # harmonic

1 100 109.47

Atoms # full

879 293 2 0.4238 1.943913604750075 2.341648223750765 4.063640421796394 0 1 0
877 293 1 -0.8476 1.4030801467640528 3.177486306798218 3.9693116446388754 0 1 0
1039 347 1 -0.8476 4.515498977312687 4.177096659771328 4.454686618723279 0 0 0
1040 347 2 0.4238 4.782872399786281 3.4216670443413286 3.8564713395135564 0 0 0
1041 347 2 0.4238 4.59011616000847 5.040240114405376 3.955247635725689 0 0 0
745 249 1 -0.8476 4.234704520891433 2.2892297712147274 0.44428768600464263 0 0 0
747 249 2 0.4238 4.569741525011494 2.1180308123831844 1.3708216628506207 0 0 0
704 235 2 0.4238 4.6895759263364445 5.387249476522303 1.4888137524838978 0 1 0
1458 486 2 0.4238 2.53390376684206 5.727561965783193 4.586754402873416 1 1 1
705 235 2 0.4238 3.347167896791141 5.218829640575136 0.5743378428823821 0 1 0
1275 425 2 0.4238 2.209798536910002 24.84889735267044 3.981588433880531 1 -1 0
196 66 1 -0.8476 1.9748913113934763 0.41516578724735315 2.358638256218296 0 1 0
1273 425 1 -0.8476 2.448833273069972 24.567020684486714 4.91079814453201 1 -1 0
703 235 1 -0.8476 4.337363706506318 5.082234313170462 0.6039764047001802 0 1 0
197 66 2 0.4238 2.6290722388811565 0.0941286547282604 1.6737980649147006 0 1 0
1511 504 2 0.4238 5.318269084304825 1.110464598858168 2.7252697953125233 1 0 1
746 249 2 0.4238 3.927706616544601 3.238117168924731 0.37087748208125154 0 0 0
1457 486 2 0.4238 2.0342220520298717 5.303921409233246 3.090914234327618 1 1 1
1456 486 1 -0.8476 2.288411875889795 6.070860739600081 3.6801652602597255 1 1 1
198 66 2 0.4238 1.123627922306921 24.88356043009688 2.275054615412506 0 0 0
649 217 1 -0.8476 0.34874612847717346 2.1079300524316062 24.752970620251276 1 1 -1
799 267 1 -0.8476 1.4405975359810186 4.640593084860693 1.2615935480406246 1 0 1
800 267 2 0.4238 0.5094051996142838 4.347106950966809 1.4778599268214188 1 0 1
695 232 2 0.4238 2.622270402202061 24.43931035030524 24.742744678685277 0 0 0
1510 504 1 -0.8476 5.569839664836869 2.0579382610311354 2.9228298078637893 1 0 1
645 215 2 0.4238 9.175222191485954 1.295110471366467 3.4243248047069916 0 1 1
342 114 2 0.4238 7.911048879833174 3.9910447153338 1.8603750001429586 0 0 0
340 114 1 -0.8476 7.626399506419839 4.316314663740463 0.9585998393804733 0 0 0
341 114 2 0.4238 7.099047594078241 3.6023838638683987 0.49791862770885564 0 0 0
322 108 1 -0.8476 10.599728823370684 4.5965311905148765 1.9343736643482006 0 1 1
29 10 2 0.4238 11.575588278950352 0.4677229468935211 3.206229264521812 0 0 0
513 171 2 0.4238 7.596053425260176 1.1864617100170047 24.479426965845363 0 0 0
718 240 1 -0.8476 8.636101004113392 3.0520831315442067 3.4713982499283524 0 1 0
364 122 1 -0.8476 12.662987189424603 5.851432943123487 4.619108710441203 0 0 0
324 108 2 0.4238 9.867403260357332 4.6441498496274125 1.255068243184235 0 1 1
1493 498 2 0.4238 6.359827547763868 6.032132821039046 2.8782017429429865 1 0 0
304 102 1 -0.8476 8.246601270247695 6.135771330960399 4.1654447338058675 0 0 0
305 102 2 0.4238 9.032915851225743 6.301123043538895 3.570136258379354 0 0 0
1512 504 2 0.4238 6.458743167803191 2.0782895197896005 3.3804983346544635 1 0 1
720 240 2 0.4238 8.139873593127286 3.6538023504785784 4.097271043591127 0 1 0
719 240 2 0.4238 9.554715161454752 3.41598699536812 3.3172985389695153 0 1 0
366 122 2 0.4238 12.251594009259616 4.9865820981684115 4.90688079637403 0 0 0
844 282 1 -0.8476 12.389630350918656 6.379123705571641 0.35263793631393225 0 0 0
845 282 2 0.4238 12.51829269435411 7.3621923777732245 0.483199932067614 0 0 0
333 111 2 0.4238 8.272627186179472 5.045417867782449 5.304585364838838 0 0 0
952 318 1 -0.8476 12.077205663089819 1.9072511863151476 0.5039141055215444 0 1 0
954 318 2 0.4238 12.3113891444875 1.4033666099507336 1.3353483513674056 0 1 0
323 108 2 0.4238 11.483893874805737 4.555352084940012 1.4689917804327428 0 1 1
1177 393 1 -0.8476 13.813736264881188 2.719780136715413 3.9815290340657743 0 1 0
1179 393 2 0.4238 13.449689978251465 3.2023242430777143 3.1848819445184464 0 1 0
1178 393 2 0.4238 14.764840856801179 2.990921479501117 4.1295393449201985 0 1 0
785 262 2 0.4238 13.125158752740864 5.058741652510312 0.9512847666845672 0 0 0
28 10 1 -0.8476 12.56330904902632 0.5258593620324695 3.061136397754311 0 0 0
784 262 1 -0.8476 13.473380762515971 4.3654823708733135 1.5822831272949711 0 0 0
30 10 2 0.4238 12.926108430294637 1.3184801505481174 3.551190499455094 0 0 0
786 262 2 0.4238 14.153525361724334 3.8007969905745016 1.1147808302543951 0 0 0
832 278 1 -0.8476 17.60348220578851 1.8839205173188507 4.28051245510269 0 0 0
1027 343 1 -0.8476 16.036068771618872 0.2900331060991678 2.2902000527207376 0 0 0
834 278 2 0.4238 17.4124936551639 2.8626635907831406 4.205617057793162 0 0 0
986 329 2 0.4238 13.979875216566535 6.837071584906821 3.8726327480250355 0 0 0
987 329 2 0.4238 15.180676089389582 6.838072042081802 2.765941656700614 0 0 0
846 282 2 0.4238 11.873545644176032 6.219369443391869 24.497571855768292 0 0 -1
1253 418 2 0.4238 17.950724233097013 5.882312250257663 2.092090905871522 0 0 0
1506 502 2 0.4238 16.65025240617257 5.0866977767623505 3.252429173965271 0 0 1
1029 343 2 0.4238 15.942442437137288 0.4397866777983725 3.2744927093248513 0 0 0
1504 502 1 -0.8476 16.667290584625164 4.5017896482262385 4.063364951491774 0 0 1
1505 502 2 0.4238 16.726190546534674 5.0708176602811115 4.883585837093591 0 0 1
1252 418 1 -0.8476 17.05034271036861 6.248924955621911 1.8577144798758687 0 0 0
953 318 2 0.4238 12.374128632565329 2.857768902537302 0.5954377946742428 0 1 0
833 278 2 0.4238 18.54692199773161 1.7060462395833074 4.0006801674838055 0 0 0
1112 371 2 0.4238 17.571950814044172 0.2700312617381504 1.7063151221024706 0 1 0
1243 415 1 -0.8476 20.818243585574017 4.8333077320714715 3.9288450901594083 0 0 0
1245 415 2 0.4238 20.39394484629232 4.829838575298648 4.834374022433351 0 0 0
1244 415 2 0.4238 21.799763108464937 5.000926860093696 4.021296855163312 0 0 0
204 68 2 0.4238 24.406141992241437 4.667352402797172 4.1737503264206515 -1 1 0
202 68 1 -0.8476 23.441631733864632 4.866241261620571 4.347495135549004 -1 1 0
744 248 2 0.4238 20.338985011538327 3.180306194682094 3.0953842195957653 0 0 1
742 248 1 -0.8476 19.950754577794655 2.3022665680817522 2.8154767713508893 0 0 1
2 1 2 0.4238 20.32748982779013 4.926286200001502 2.2373744172629655 -1 0 0
1524 508 2 0.4238 23.287102858842076 3.9676690932398753 1.0091637178709134 0 0 0
1 1 1 -0.8476 19.924245271548216 4.942012990672582 1.3224034555049653 -1 0 0
136 46 1 -0.8476 22.219617010814666 2.1642457203227266 5.028615465771574 -1 1 0
138 46 2 0.4238 22.675350904562194 2.930034600693601 4.574855344760153 -1 1 0
743 248 2 0.4238 20.686757925594378 1.6878330857090287 2.5312304098001905 0 0 1
1196 399 2 0.4238 19.545883084160025 24.75172850952928 3.9118651400110207 0 0 0
203 68 2 0.4238 23.366733175106525 5.524782260043823 5.096319583040447 -1 1 0
1218 406 2 0.4238 22.119380859667253 1.4257760852050603 0.893377203213369 0 0 0
1216 406 1 -0.8476 22.112284565018903 0.8787037711429002 1.7304467524080003 0 0 0
680 227 2 0.4238 23.758003740055905 2.046605192126218 2.5935347905350965 -1 1 0
1113 371 2 0.4238 18.94689179608175 1.1509985028867051 1.7174437961702407 0 1 0
1224 408 2 0.4238 23.132234679024776 0.5207977487294458 4.98677908565388 0 0 0
1050 350 2 0.4238 18.916213069638182 1.1574216484266784 6.113045404889421 0 0 1
3 1 2 0.4238 20.643062420844387 4.813820481863347 0.6391077667860448 -1 0 0
878 293 2 0.4238 0.735158704046452 3.061131551776341 3.2342156569792007 0 1 0
679 227 1 -0.8476 24.286071023893562 2.7799399936546365 2.1652953081644575 -1 1 0
1222 408 1 -0.8476 23.796215003509758 24.828040737930046 4.674010544679432 0 -1 0
681 227 2 0.4238 24.571139086676055 2.494796090195857 1.250171079422381 -1 1 0
1492 498 1 -0.8476 5.388279122855585 6.180634524484783 3.06276929037266 1 0 0
1494 498 2 0.4238 5.268638816038932 7.052741838097411 3.5372578770324563 1 0 0
8 3 2 0.4238 2.644074751245459 7.857144249194428 3.3935296093561056 0 0 0
7 3 1 -0.8476 2.3508182224668803 8.792192718757825 3.592799781693282 0 0 0
9 3 2 0.4238 3.0579410450034668 9.25685033914182 4.125805051208124 0 0 0
642 214 2 0.4238 1.6458759326511534 8.141730623798214 1.9590061959404605 0 0 1
633 211 2 0.4238 4.858917621598135 11.923031318518758 3.2179479800067607 0 0 0
634 212 1 -0.8476 3.483614988656707 11.683671585680322 2.0416117429068623 0 0 0
635 212 2 0.4238 2.649854010647393 12.225112028225569 2.1498196541654218 0 0 0
636 212 2 0.4238 3.5447055957285634 11.350139779694628 1.1008416377048778 0 0 0
641 214 2 0.4238 1.9445644302977656 8.187150419216364 0.35419704640395344 0 0 1
640 214 1 -0.8476 1.2342741509503339 8.079110227992503 1.0497829747971514 0 0 1
926 309 2 0.4238 4.413822899030674 9.83911897185402 2.152713429688847 0 1 0
1536 512 2 0.4238 24.905538105946974 10.249328355034505 4.855763172892216 0 0 1
1535 512 2 0.4238 0.7848071865471806 9.324542573354039 3.825238299364893 1 0 1
469 157 1 -0.8476 5.560263851835813 7.34942529567427 6.612767949646145 0 1 -1
65 22 2 0.4238 2.3471190176655203 3.558931135415307 5.520111910819235 0 0 0
306 102 2 0.4238 7.783015850239585 7.0016437948332095 4.353533451338238 0 0 0
372 124 2 0.4238 6.9422189219348835 9.422319731030571 4.09432736878525 0 0 0
1332 444 2 0.4238 10.559904008039645 7.040733053619428 2.1291286917904575 0 0 0
1330 444 1 -0.8476 10.977337346668632 7.413769270220528 2.957752358642445 0 0 0
817 273 1 -0.8476 9.512432094103147 7.498152461042664 0.6429988444940826 0 0 0
1331 444 2 0.4238 11.641353582286573 6.759634230901957 3.3199858966540265 0 0 0
632 211 2 0.4238 6.48693492041046 11.804498662118236 3.1710371271463536 0 0 0
925 309 1 -0.8476 5.203770777076333 9.243056727519614 2.2966447536036956 0 1 0
927 309 2 0.4238 6.042127464473228 9.78728680001429 2.2650884048875506 0 1 0
370 124 1 -0.8476 7.407721792719822 8.734674984075518 4.651531399859745 0 0 0
371 124 2 0.4238 8.20395911963265 9.147409050660404 5.093890549868093 0 0 0
818 273 2 0.4238 9.874128292906518 7.216776348175014 24.74061976605354 0 0 -1
53 18 2 0.4238 10.202507637775842 8.668936859586571 4.263252054137331 -1 -1 1
52 18 1 -0.8476 10.04505636638189 9.52000457088837 4.764169157397435 -1 -1 1
54 18 2 0.4238 10.103005526760523 10.293711592924037 4.133261342144947 -1 -1 1
1490 497 2 0.4238 12.105953739917933 8.782949730313057 2.4758907837430804 0 0 0
178 60 1 -0.8476 7.703484981460975 10.7163612773968 2.264772022642195 -1 0 0
179 60 2 0.4238 7.650191297799027 10.792565320023828 1.2690929442013605 -1 0 0
180 60 2 0.4238 8.608510995216653 11.009007035525613 2.5734959038007332 -1 0 0
1491 497 2 0.4238 12.007843579402143 10.41299642343938 2.4723150609277194 0 0 0
365 122 2 0.4238 12.743364779108353 6.4610234325028175 5.4077550326259205 0 0 0
470 157 2 0.4238 6.352565066446283 7.7715869091562455 6.172242442373349 0 1 -1
819 273 2 0.4238 8.759231082758403 8.141900293182365 0.5077155895022538 0 0 0
1489 497 1 -0.8476 12.471424148493169 9.622042726069884 2.0729288144054268 0 0 0
1055 352 2 0.4238 12.180155375172653 9.666635694217016 23.994996000235105 0 0 -1
985 329 1 -0.8476 14.764247485785564 7.346958829468419 3.519363526489405 0 0 0
978 326 2 0.4238 14.107808170865175 9.653725280490153 2.382428621388228 0 0 0
976 326 1 -0.8476 15.036437650270694 9.805974981763558 2.7207944330876352 0 0 0
977 326 2 0.4238 15.36556402245312 8.978143562553985 3.1751014468216194 0 0 0
1497 499 2 0.4238 15.421100877288147 8.094322160617114 5.231038672344953 0 0 0
722 241 2 0.4238 16.041314876822845 11.111191170629034 1.8209779227590155 -1 1 0
1234 412 1 -0.8476 18.524412317877164 9.244881399572197 5.808934896513195 0 0 0
721 241 1 -0.8476 16.440355983394987 11.675081907423898 1.0979169521400793 -1 1 0
1254 418 2 0.4238 16.93297966147165 6.235049140006078 0.8647102158651169 0 0 0
1496 499 2 0.4238 16.71516734120285 8.980775393780906 5.685222979333268 0 0 0
27 9 2 0.4238 13.264680013815514 9.30392365353069 0.681721104498687 -1 0 1
25 9 1 -0.8476 13.504723696193615 9.005278418053642 24.74448132352424 -1 0 0
1236 412 2 0.4238 18.556328956576024 10.237438602377553 5.6913071223722 0 0 0
1283 428 2 0.4238 17.480885195637427 7.195356489336091 6.751978289353316 0 0 0
1382 461 2 0.4238 14.098161092809274 11.81122387346049 5.849796472359874 0 0 0
1381 461 1 -0.8476 13.112364775092786 11.715657838639762 5.987989073796921 0 0 0
914 305 2 0.4238 16.349075730494697 10.545139822502106 24.883244565194772 0 1 0
26 9 2 0.4238 14.392947060304571 9.388223683063035 24.490638500818257 -1 0 0
1211 404 2 0.4238 17.97388915157503 8.026318555839987 1.8338659602374245 0 0 1
1210 404 1 -0.8476 18.839188074392133 8.52598663998605 1.7936957685361614 0 0 1
1235 412 2 0.4238 19.37799786658927 8.842409454962556 5.4781281563284425 0 0 0
1268 423 2 0.4238 23.29061836159557 7.578202648402408 1.4924825878813868 0 0 1
378 126 2 0.4238 21.92643968747837 8.357567225416993 3.772107504888206 -1 0 1
376 126 1 -0.8476 22.658058218771444 8.392367498335943 3.0912645172233635 -1 0 1
377 126 2 0.4238 23.502180097467672 8.707730528728318 3.524886774692241 -1 0 1
414 138 2 0.4238 21.558939336712314 9.891427838168896 2.338782809871988 -1 0 0
1212 404 2 0.4238 18.705721170712145 9.452489859345075 2.1455516808814967 0 0 1
412 138 1 -0.8476 21.18356041422561 10.766036305593968 2.6456622755963344 -1 0 0
1166 389 2 0.4238 19.53949697994775 11.144405715683176 2.593185030634054 0 0 0
1165 389 1 -0.8476 18.626162373391324 11.27448684760275 2.97909307224228 0 0 0
413 138 2 0.4238 21.85912528232477 11.48859610882935 2.4988848759227715 -1 0 0
1267 423 1 -0.8476 23.75429116434492 7.095011437442058 0.7498131868778016 0 0 1
1167 389 2 0.4238 18.053364178315 11.764532014803809 2.3219919886646916 0 0 0
1358 453 2 0.4238 18.553230390415443 11.71821386191339 4.452362319343587 0 0 0
1435 479 1 -0.8476 21.14893140450586 8.279876243516682 5.392791664705678 0 0 0
1357 453 1 -0.8476 18.382246661400956 12.05642508162531 5.377782062197199 0 0 0
239 80 2 0.4238 20.18682833895741 7.233965087123223 0.8162315975739576 -1 1 1
1534 512 1 -0.8476 24.863137013734757 9.485406394407876 4.2118304197465095 0 0 1
1269 423 2 0.4238 24.743926331895146 7.152301030721136 0.8815863158201352 0 0 1
1463 488 2 0.4238 1.0363498904828958 6.717791665992287 4.891210053854716 1 0 0
1462 488 1 -0.8476 0.6289676535171674 7.290806107708785 5.602348670155862 1 0 0
1464 488 2 0.4238 0.2550225149633958 8.120656054248048 5.188177084135127 1 0 0
606 202 2 0.4238 1.938424347593008 13.50032182063431 3.25367256893631 0 0 0
605 202 2 0.4238 0.5932315759153276 12.580065105032512 3.355037820480427 0 0 0
604 202 1 -0.8476 1.3197365275836643 12.899985463639009 2.7468717353005943 0 0 0
798 266 2 0.4238 5.007940646138255 11.687282575307915 5.295484916856327 0 0 0
631 211 1 -0.8476 5.6844882762491755 11.795702602673105 3.7677166813718905 0 0 0
55 19 1 -0.8476 1.1227699667714495 16.732600172785737 2.9060892562882126 0 0 0
107 36 2 0.4238 3.7555904672780875 14.657106811715161 3.5260013227566467 0 0 1
106 36 1 -0.8476 2.923075800332598 14.818418182340045 4.0560228279143775 0 0 1
108 36 2 0.4238 2.5258188362002874 15.697731696445784 3.7933073032645512 0 0 1
57 19 2 0.4238 0.7745662701536696 17.135511050723437 3.7525174144180573 0 0 0
690 230 2 0.4238 6.022556186890524 14.600779281973743 2.137231781231161 0 0 0
912 304 2 0.4238 0.7643991145511998 12.972524370021787 0.8903024161569992 0 0 1
689 230 2 0.4238 5.008946899659871 15.745005975672735 1.5627482045080896 0 0 0
688 230 1 -0.8476 5.254703340691687 15.199847085260881 2.3642652975974023 0 0 0
147 49 2 0.4238 2.473750005476464 17.777497195861443 2.0105841182660926 0 0 1
545 182 2 0.4238 5.16745095540128 15.829402352151932 4.539730535885654 0 0 0
141 47 2 0.4238 3.7597794495789283 17.69200592406176 5.725386196435052 0 0 0
804 268 2 0.4238 4.8698175332426 18.22161267772323 0.10052009290708777 0 -1 1
910 304 1 -0.8476 0.5157203838215763 13.05503332963471 24.911680300919315 0 0 0
544 182 1 -0.8476 5.71291209633241 16.30132298636873 5.23239744792701 0 0 0
796 266 1 -0.8476 4.6107670452284 11.626862282813521 6.211250504227701 0 0 0
1362 454 2 0.4238 2.1482272723568543 14.713488661984288 5.798719086556544 1 0 0
268 90 1 -0.8476 0.27955825908004006 17.454405524049356 5.468452252593545 0 -1 1
159 53 2 0.4238 6.1066726818967325 16.582738801058348 24.22281423864819 0 0 0
802 268 1 -0.8476 5.839386229348497 18.430504033117984 0.22829135257823469 0 -1 1
1100 367 2 0.4238 10.762403053044833 12.12242725621376 3.8043112864759534 0 0 1
390 130 2 0.4238 11.56424356269659 12.531637657176308 5.742414460244392 0 0 0
1099 367 1 -0.8476 10.592331242568749 11.52554208250086 3.02020200996848 0 0 1
546 182 2 0.4238 6.483995523906431 16.761837614548853 4.7926454325782295 0 0 0
930 310 2 0.4238 7.995075214107387 12.970118446372148 1.3007614413944255 0 0 0
928 310 1 -0.8476 7.847596843020598 13.884845487118062 1.676990513679414 0 0 0
887 296 2 0.4238 10.67952144608375 18.621268775980937 3.7776879839237427 0 0 1
247 83 1 -0.8476 8.14709207737443 17.139969089682282 4.211840140240387 0 0 0
248 83 2 0.4238 8.993340763964175 17.630763992848166 4.419222560970751 0 0 0
886 296 1 -0.8476 10.161066609565067 18.786457668198466 4.61669989838533 0 0 1
888 296 2 0.4238 10.769265851168027 19.162526422674766 5.315763440009666 0 0 1
550 184 1 -0.8476 11.527670673282154 17.931258326607704 2.4164294774426835 0 0 0
929 310 2 0.4238 8.087968588421267 13.888748869003559 2.647676417916786 0 0 0
880 294 1 -0.8476 9.099506291681895 14.623500862174915 4.143462141722109 0 0 0
881 294 2 0.4238 8.725053412338637 15.522970435843956 4.3687707449686535 0 0 0
551 184 2 0.4238 11.208964324152856 17.81218774605027 1.4760718006261044 0 0 0
882 294 2 0.4238 9.605484695540637 14.266839201811447 4.928829877814563 0 0 0
1101 367 2 0.4238 10.541879031912865 12.076123489807228 2.1869322686952257 0 0 1
388 130 1 -0.8476 10.592215388239621 12.673345738508408 5.555050276665638 0 0 0
1043 348 2 0.4238 10.00324560989739 18.821293044867048 0.43288522777503186 0 -1 1
510 170 2 0.4238 15.57696029777854 12.5497000902779 4.798445099436463 -1 0 1
723 241 2 0.4238 15.94539424876466 12.542071907488415 1.0399086088921379 -1 1 0
508 170 1 -0.8476 15.163322741612346 12.625982246786831 3.8911907799645014 -1 0 1
509 170 2 0.4238 14.84414679659048 11.726189624009514 3.593660449314231 -1 0 1
552 184 2 0.4238 12.04663655003533 17.12388803761521 2.6972349349567706 0 0 0
1448 483 2 0.4238 13.692806984414734 14.708252588232764 2.6296739733644934 0 0 0
1447 483 1 -0.8476 13.283387901469942 15.564742250087596 2.3153083847849114 0 0 0
1449 483 2 0.4238 13.280995488075536 15.585807820845964 1.3155204801782225 0 0 0
351 117 2 0.4238 16.716483845619983 14.359174987191249 1.3289407988298871 0 0 1
750 250 2 0.4238 14.789283744776561 17.561936275493615 4.511150657416979 0 -1 1
748 250 1 -0.8476 14.556466616814236 17.686617566915828 3.546642586781736 0 -1 1
349 117 1 -0.8476 17.207543643277162 14.317871506074393 2.1991010336733994 0 0 1
749 250 2 0.4238 14.095735010861963 16.86690856808076 3.206306467602046 0 -1 1
350 117 2 0.4238 16.663614089819504 13.807069754361644 2.8648688553210335 0 0 1
980 327 2 0.4238 16.883507662351448 12.283682656433202 5.970318813990167 0 0 0
601 201 1 -0.8476 22.825472796349594 12.716165361770162 1.0067253094974082 -1 0 0
727 243 1 -0.8476 23.10110435332443 13.536055709933102 3.414879427691572 -1 1 1
625 209 1 -0.8476 23.570387824614365 16.203499780483313 2.7150860845516336 -1 0 0
626 209 2 0.4238 22.916273371050515 16.832470392450432 2.294902473345908 -1 0 0
129 43 2 0.4238 19.25379018248568 19.75912429413902 5.0243185148538805 -1 0 1
728 243 2 0.4238 22.591400436700013 13.498128038547797 4.274407199942565 -1 1 1
1427 476 2 0.4238 18.84917080840779 15.177197977888017 1.9487128889132173 0 0 1
1293 431 2 0.4238 21.250623745773666 14.13656950822517 5.280408825126653 0 0 1
541 181 1 -0.8476 20.853789571448132 15.524279334404648 4.232627301548755 0 0 0
542 181 2 0.4238 20.441636445782883 15.410632292391197 3.328615070064037 0 0 0
1426 476 1 -0.8476 19.731165649775946 15.606469485660082 1.7542008390323864 0 0 1
602 201 2 0.4238 23.011795707086094 12.965273956162266 1.9571214247704214 -1 0 0
596 199 2 0.4238 20.86574480589212 17.060562060570113 1.6823444796309823 -1 0 0
595 199 1 -0.8476 21.578765537393032 17.75491024959443 1.5848404085693715 -1 0 0
161 54 2 0.4238 21.476030547029886 13.602694410072122 0.16130185013788031 -1 0 1
1428 476 2 0.4238 20.215129813044967 15.073930483992715 1.0597910288561807 0 0 1
543 181 2 0.4238 20.54730233979702 16.388113676490036 4.632476634820744 0 0 0
160 54 1 -0.8476 20.84349536904712 14.321600626487758 24.85949228261962 -1 0 0
627 209 2 0.4238 23.78799051595027 16.517288850088484 3.639320435403314 -1 0 0
1001 334 2 0.4238 20.885171125410615 17.825466094051123 5.682086875239951 0 -1 0
56 19 2 0.4238 0.39534727564082106 16.209383313612733 2.462102398784517 0 0 0
1483 495 1 -0.8476 0.7267827886331042 17.767114158543173 24.615182738052987 1 -1 0
729 243 2 0.4238 23.30572815660443 14.488838362021085 3.1904696864793927 -1 1 1
603 201 2 0.4238 23.6870596814086 12.520084872872735 0.5384897015398098 -1 0 0
145 49 1 -0.8476 2.950995512509964 18.103800655647653 1.1946266268605095 0 0 1
146 49 2 0.4238 2.427580789567383 17.85383794036573 0.3800225498824238 0 0 1
1103 368 2 0.4238 3.2964638192368105 20.872427482326756 2.94590906561138 1 0 1
1102 368 1 -0.8476 3.708298721011173 20.863965173577604 2.034676617843889 1 0 1
1104 368 2 0.4238 3.438476132851248 20.02919959346319 1.554690448386715 1 0 1
140 47 2 0.4238 3.629143724100136 19.18689601337377 5.081236290342739 0 0 0
139 47 1 -0.8476 3.139054646199821 18.45838426350236 5.559889385672604 0 0 0
219 73 2 0.4238 1.253293850881775 22.803044763804515 1.5692936993280167 0 0 0
217 73 1 -0.8476 1.9587534743493253 22.809634055869367 0.8605569289670885 0 0 0
225 75 2 0.4238 4.7739700245469985 21.792210314964763 0.8973962841148573 0 0 0
223 75 1 -0.8476 5.317355347902234 22.45134807114311 0.37749852372477966 0 0 0
534 178 2 0.4238 5.058439360413757 23.63082041654866 1.625601022607453 0 -1 0
218 73 2 0.4238 2.7452461978122966 22.27404840476963 1.1681304638408359 0 0 0
416 139 2 0.4238 23.950943187537696 18.880226876716264 4.694573161716417 -1 0 0
895 299 1 -0.8476 4.605586168391406 20.403402824506408 4.708451441577114 0 0 0
897 299 2 0.4238 4.500413426459782 21.385233326764784 4.86647487076548 0 0 0
270 90 2 0.4238 1.1709960247939708 17.83925938488715 5.707722637823545 0 -1 1
174 58 2 0.4238 1.6671583315160092 23.310370670076068 5.776051797851603 0 0 0
173 58 2 0.4238 0.22897042664421421 22.740641602238654 6.299230553207942 0 0 0
382 128 1 -0.8476 4.673961222363014 23.023074656645427 4.977653650562238 0 0 0
384 128 2 0.4238 5.44850248916917 23.59022907474929 5.257735373751094 0 0 0
383 128 2 0.4238 3.8411320795826063 23.576571897107776 4.969873291449802 0 0 0
803 268 2 0.4238 5.95733564103412 18.96795491848936 1.0633120819592659 0 -1 1
249 83 2 0.4238 8.05948842560255 17.03023619827963 3.221734970253326 0 0 0
1109 370 2 0.4238 5.94376872913159 20.429571190477844 3.3140915633096752 1 0 0
968 323 2 0.4238 6.969864791848429 22.82950015318236 1.3197190867196955 0 0 1
1110 370 2 0.4238 7.00385817206809 20.944943703269665 2.183917884710799 1 0 0
1108 370 1 -0.8476 6.581394964013282 20.139843998427025 2.6002879671474917 1 0 0
1406 469 2 0.4238 10.139041405595227 20.6987556438866 1.5869915404277355 0 0 0
1405 469 1 -0.8476 9.43114351814866 20.03638671518589 1.3416922663870372 0 0 0
945 315 2 0.4238 8.02272063900661 19.158645795573854 6.171296865360498 0 0 1
896 299 2 0.4238 5.20447448413243 20.015316451382695 5.408983818963375 0 0 0
967 323 1 -0.8476 7.725880727200953 22.55750333761177 1.915102762588074 0 0 1
1439 480 2 0.4238 9.516601608211387 22.202447810441157 4.562422838191701 0 0 0
1438 480 1 -0.8476 8.528726928606593 22.052205484086336 4.522987227659257 0 0 0
1440 480 2 0.4238 8.197543573298507 22.2532352111972 3.601070815554195 0 0 0
943 315 1 -0.8476 7.544544691852461 19.991140043946977 6.451163493534302 0 0 1
944 315 2 0.4238 7.631048514419315 20.682398984370273 5.733735730785932 0 0 1
61 21 1 -0.8476 11.270532010666887 21.864587752758737 1.5992637235722698 -1 0 0
549 183 2 0.4238 7.7138023712550545 23.418815423679156 5.098309990288095 0 -1 0
62 21 2 0.4238 10.94528451925073 22.509471183892842 0.9076248809608807 -1 0 0
63 21 2 0.4238 12.171035298051422 21.51890187695816 1.335408632265223 -1 0 0
899 300 2 0.4238 11.16201012553011 24.03525222585656 5.209260097559514 0 0 0
1407 469 2 0.4238 8.796400998830087 19.92817908754671 2.106817706380177 0 0 0
898 300 1 -0.8476 11.036759114646484 24.81219028152313 5.826271639631626 0 0 0
1192 398 1 -0.8476 11.523447782267628 22.75184955952868 4.212230470439475 0 0 0
1194 398 2 0.4238 11.42072445979982 22.857938636107463 3.2231819486335045 0 0 0
547 183 1 -0.8476 7.2272688457607375 24.011393979546497 5.7403073632604285 0 -1 0
644 215 2 0.4238 9.602025335976066 24.93326916260579 2.6078543181676914 0 0 1
1432 478 1 -0.8476 9.976727233627773 23.96891857710235 0.5771271277767603 0 0 0
1433 478 2 0.4238 9.129296791714399 24.39204884511222 0.2564303115021886 0 0 0
1240 414 1 -0.8476 18.699112860155985 18.95647693522654 2.1610117671031204 0 -1 1
1107 369 2 0.4238 12.858954667386909 19.18648944198941 1.7310585265695733 0 0 1
1193 398 2 0.4238 11.928796210116804 21.85964353529082 4.411441373931759 0 0 0
1105 369 1 -0.8476 13.508596477207112 19.67567019333959 1.1490863054432157 0 0 1
1106 369 2 0.4238 14.436092069542505 19.35602834978406 1.343006326644729 0 0 1
647 216 2 0.4238 14.590688859095698 23.256717115721422 4.312295871499646 0 0 1
1147 383 1 -0.8476 12.824413485246179 20.136391550060317 4.5407753241212765 0 0 0
1149 383 2 0.4238 13.705831116621193 20.608469916651195 4.557168491764094 0 0 0
1148 383 2 0.4238 12.910562300363937 19.2875859195967 4.0191135096922475 0 0 0
865 289 1 -0.8476 16.030375460626296 21.756317687414402 1.3508827754866595 0 0 0
866 289 2 0.4238 15.142886888001069 22.212068996797605 1.2824726465199698 0 0 0
867 289 2 0.4238 15.89382587401082 20.767139767421597 1.404794502045433 0 0 0
1003 335 1 -0.8476 15.161586933280374 21.562404934822723 4.0271040199959245 0 -1 0
1005 335 2 0.4238 15.855238481878787 21.48259380033643 4.742995958322196 0 -1 0
1004 335 2 0.4238 15.609488382924928 21.652445418505565 3.1375530082826204 0 -1 0
768 256 2 0.4238 16.90816530740456 18.731838919384835 1.772874644010074 0 -1 1
766 256 1 -0.8476 15.942292559783644 18.990649876792205 1.784304884181531 0 -1 1
767 256 2 0.4238 15.452670874862159 18.422097649936823 2.445397098853615 0 -1 1
809 270 2 0.4238 17.556323402610786 22.285751555430593 0.8256110356294105 0 -1 1
646 216 1 -0.8476 14.364582653359935 24.10386630489039 4.79316897596961 0 0 1
916 306 1 -0.8476 13.825844755427447 23.44847440531744 1.1056242709648407 0 0 1
918 306 2 0.4238 13.460825947010257 23.76736845194808 0.23092864462987142 0 0 1
128 43 2 0.4238 18.204904582679617 21.00066260674729 4.865849221716264 -1 0 1
1242 414 2 0.4238 18.69685138422141 19.59634458273124 2.9295091287583985 0 -1 1
841 281 1 -0.8476 24.51566366958712 20.14313121481932 1.9804880731985126 -1 0 0
842 281 2 0.4238 23.990433189074388 20.00532280267643 2.8202299555094754 -1 0 0
417 139 2 0.4238 22.87048174421389 19.864749296724064 5.422590246426384 -1 0 0
127 43 1 -0.8476 19.032817711895284 20.578959308707425 4.49605153949635 -1 0 1
1060 354 1 -0.8476 16.743609075716954 21.15971202852218 6.087514289477737 0 0 0
808 270 1 -0.8476 18.495609710841926 22.615347822752 0.7300515476833452 0 -1 1
1062 354 2 0.4238 17.216108942968546 20.283846693903058 6.185635693461681 0 0 0
1002 334 2 0.4238 21.785104946482903 18.64262007933152 4.5916421864584445 0 -1 0
1000 334 1 -0.8476 20.868613056474018 18.30346306946481 4.8038675958375885 0 -1 0
1061 354 2 0.4238 17.266804565037923 21.874508857211637 6.551578953959523 0 0 0
810 270 2 0.4238 18.569294479736456 23.53114272909105 1.124911020118888 0 -1 1
22 8 1 -0.8476 22.401740139269805 23.175863222430493 1.2201744406346422 -1 -1 1
23 8 2 0.4238 22.589713426972665 22.763819782437146 0.3285970272914444 -1 -1 1
201 67 2 0.4238 21.78246926952142 21.017298518302596 3.7523415703854144 -1 0 0
199 67 1 -0.8476 21.24089747467861 21.71093966987788 3.277381906788755 -1 0 0
24 8 2 0.4238 21.931580865071766 22.51195934235342 1.801729164751584 -1 -1 1
200 67 2 0.4238 20.2699603160073 21.561402922524394 3.4643174929850025 -1 0 0
597 199 2 0.4238 21.155468782681872 18.654340488012892 1.4758953496884897 -1 0 0
188 63 2 0.4238 23.51144201229632 20.561031952439116 0.5773860764934712 -1 0 1
234 78 2 0.4238 19.493500712513452 21.119214468899422 0.5256918460258013 -1 0 1
1197 399 2 0.4238 20.55921301481621 23.683180683940854 4.617597635437882 0 0 0
233 78 2 0.4238 21.044918872070433 20.705963933997005 0.22733559543266896 -1 0 1
187 63 1 -0.8476 22.760389831206716 20.726951322304636 24.92476870343645 -1 0 0
232 78 1 -0.8476 20.128102269098108 20.354145149259587 0.41626665403973123 -1 0 1
843 281 2 0.4238 0.5044641436652063 20.041463698136766 2.1768612205355753 0 0 0
415 139 1 -0.8476 23.2234720521857 19.549154955868097 4.541782670190091 -1 0 0
759 253 2 0.4238 24.048199910012777 23.55061832188946 1.7116948650335801 0 -1 0
533 178 2 0.4238 5.270486840231079 23.888281620362818 3.224175584454969 0 -1 0
532 178 1 -0.8476 5.051557726897395 24.320726986257164 2.3494839999134087 0 -1 0
757 253 1 -0.8476 24.811514634375754 23.911545800556517 2.247517681094533 0 -1 0
650 217 2 0.4238 1.2610498379687058 1.7171161249441709 24.63053343676544 1 1 -1
643 215 1 -0.8476 9.840260970817583 0.550353605449638 3.36877930265188 0 1 1
511 171 1 -0.8476 7.860024973747771 0.23598521697837316 24.64355237008313 0 0 0
548 183 2 0.4238 7.8150932557538715 24.778672914469738 5.996764094349378 0 -1 0
900 300 2 0.4238 10.225666369878386 0.34215445670448597 5.551567429203106 0 1 0
1434 478 2 0.4238 10.710259812462333 24.15475730560692 24.909811089746825 0 0 -1
648 216 2 0.4238 13.506962814927709 24.472186776529988 4.4342081589274605 0 0 1
1028 343 2 0.4238 15.439142506652408 24.525029847072837 2.009109663438048 0 -1 0
917 306 2 0.4238 13.244697444423148 23.778479362440002 1.8495254718732732 0 0 1
1217 406 2 0.4238 22.176136268376638 24.89528277357013 1.4953188666049284 0 -1 0
1111 371 1 -0.8476 18.565785490411578 0.23376257143607104 1.601428515788545 0 1 0
1195 399 1 -0.8476 19.690408682317354 24.16931349200682 4.711821045333557 0 0 0
1223 408 2 0.4238 23.679516292786076 23.982951407362137 5.195767120552938 0 -1 0
758 253 2 0.4238 24.460091989997387 24.35100301136032 3.074199869499291 0 -1 0
1544 515 2 0.4238 5.337740902103879 4.133795047268356 5.997383611417234 1 0 0
1274 425 2 0.4238 2.153474447676802 0.28286328083272205 5.55853540977029 1 0 0
1543 515 1 -0.8476 5.561257591420693 4.2981866575262115 6.958133146874112 1 0 0
66 22 2 0.4238 3.6401755782189973 3.6740213445046996 6.510792847771042 0 0 0
1363 455 1 -0.8476 1.7788815155816708 0.9375623816985854 6.9913675071380075 1 1 0
1365 455 2 0.4238 2.387426129583929 1.6707168078097858 7.294982575717799 1 1 0
1364 455 2 0.4238 1.4632380006718817 0.4165074446896159 7.784396543164501 1 1 0
763 255 1 -0.8476 0.922821498772758 3.854211654416363 8.58523957352872 0 0 0
290 97 2 0.4238 0.937827142587016 4.806765509080118 10.009920661200697 0 0 0
764 255 2 0.4238 0.21497489754348625 3.2517495556392904 8.216435134672016 0 0 0
765 255 2 0.4238 1.673322217792505 3.927753974945991 7.9284562703100905 0 0 0
1354 452 1 -0.8476 2.792494921616443 1.8045756740998589 9.728553043180467 1 1 0
1355 452 2 0.4238 2.5013892420805024 2.483534214568571 10.402568870795964 1 1 0
289 97 1 -0.8476 0.9777898203132046 5.151651240130491 10.947727022798023 0 0 0
291 97 2 0.4238 0.08345322687235365 5.042136630697368 11.38153879074633 0 0 0
437 146 2 0.4238 1.414374479508257 23.56525607016186 8.934533097752468 0 0 0
436 146 1 -0.8476 1.2212993237008012 24.42959133014007 9.3989363721014 0 0 0
1356 452 2 0.4238 2.061503907602415 1.1360202390963763 9.591768066644038 1 1 0
438 146 2 0.4238 0.26574245311854044 24.443535040679734 9.693453826002287 0 0 0
330 110 2 0.4238 5.949893062175687 0.844424897096079 13.074425948252427 0 0 0
524 175 2 0.4238 8.44049477870775 2.3517211777239457 6.383897455724107 0 0 0
525 175 2 0.4238 9.04798319379188 1.4640912593279298 7.612620984027517 0 0 0
523 175 1 -0.8476 8.700135586438135 1.431123970470881 6.675636561305312 0 0 0
332 111 2 0.4238 7.450411254978873 4.484134874320417 6.59904010059084 0 0 0
331 111 1 -0.8476 8.243941067898808 4.335989989245601 6.008796465257511 0 0 0
1030 344 1 -0.8476 5.346610455853111 1.918553437351513 8.61979619055113 0 0 0
1032 344 2 0.4238 5.465395338731731 2.7490856935127 8.075617631217838 0 0 0
1031 344 2 0.4238 4.390646388919878 1.8390797113969677 8.90235441930525 0 0 0
274 92 1 -0.8476 7.321581539837239 4.243837548357193 11.709821162139411 0 1 0
863 288 2 0.4238 9.948167377035217 4.723341239740172 6.522484695361363 0 0 0
862 288 1 -0.8476 10.92874274349145 4.715441348825629 6.718531078524588 0 0 0
864 288 2 0.4238 11.255190169252554 3.7706683908078364 6.747865517318234 0 0 0
825 275 2 0.4238 10.019661855331915 1.0532042663941847 10.117974953341953 0 0 0
823 275 1 -0.8476 9.83333854523494 1.7632300528906983 9.438878088784664 0 0 0
824 275 2 0.4238 9.109450104961452 2.3651779861827236 9.776024866103372 0 0 0
210 70 2 0.4238 5.83921430673596 5.545173623442236 10.78229324271292 0 0 0
120 40 2 0.4238 8.6647489688852 4.942655008707694 10.878778034222657 -1 0 0
119 40 2 0.4238 10.03558248961847 5.230106195643841 10.039207300519076 -1 0 0
1251 417 2 0.4238 11.455225951966678 4.677945340626912 8.445312710621415 0 0 0
1249 417 1 -0.8476 11.69253876670815 4.663802131762481 9.416655458471775 0 0 0
957 319 2 0.4238 11.649754261215785 1.1912992494462533 6.966716219757244 0 1 0
955 319 1 -0.8476 11.938449887209492 1.9880337835195458 7.4976532469669515 0 1 0
956 319 2 0.4238 11.395502648389696 2.0447843382992263 8.335515111115738 0 1 0
491 164 2 0.4238 5.939145763371042 0.6535898446078049 9.71229512692788 0 0 -1
993 331 2 0.4238 12.482914358758203 2.806160075985557 10.691873173855406 0 0 0
1282 428 1 -0.8476 17.363453233066764 6.20779398242362 6.647315184081534 0 0 0
1250 417 2 0.4238 12.494977457134784 5.2399417582283965 9.572152285944016 0 0 0
356 119 2 0.4238 16.886224712775288 0.7159572709668786 5.652039469407144 0 1 0
355 119 1 -0.8476 16.263548272964776 0.38928867580666515 6.363085004580551 0 1 0
1188 396 2 0.4238 15.265319483733371 1.597512586083705 7.326508166510015 0 1 1
1010 337 2 0.4238 15.630358768399992 3.757367458734324 7.889664181367973 0 0 0
1009 337 1 -0.8476 16.00099690463395 4.5653864928343895 8.347656079846764 0 0 0
1187 396 2 0.4238 13.766321524070083 2.245082081169083 7.307793239430286 0 1 1
1186 396 1 -0.8476 14.67412597179199 2.2994923028319856 7.723672553658577 0 1 1
495 165 2 0.4238 15.392927214351637 2.8426898801228684 9.571537011661936 0 0 0
493 165 1 -0.8476 15.668027265636438 2.179208269235452 10.267335969616205 0 0 0
658 220 1 -0.8476 14.124854152821303 24.906393014700534 10.133364968422717 0 0 0
494 165 2 0.4238 14.994383257574528 1.4413172781976649 10.309106174862357 0 0 0
697 233 1 -0.8476 17.9789067739906 5.296461041160081 10.228130140078456 -1 1 1
1011 337 2 0.4238 16.330482117197015 5.215085649722266 7.662561573256695 0 0 0
699 233 2 0.4238 17.334964872090218 4.926975936578472 9.558172326618015 -1 1 1
740 247 2 0.4238 16.426442006523835 2.5496985582919542 11.632932538547674 0 0 0
992 331 2 0.4238 13.081542182748027 1.290939350001322 10.803416268411413 0 0 0
991 331 1 -0.8476 12.75092610024016 2.078565882398696 11.323380065419801 0 0 0
1229 410 2 0.4238 17.299088404799875 2.0751066593412104 9.506663814644433 1 0 0
87 29 2 0.4238 14.551286005547647 5.422946051525995 8.942470125112491 0 0 0
1227 409 2 0.4238 15.807660812720844 4.3916891996626966 12.315928492294058 0 0 0
137 46 2 0.4238 21.228783437450765 2.2657319745440163 4.939321410882537 -1 1 0
1048 350 1 -0.8476 19.567769077749006 1.6987692154741851 6.644497829088098 0 0 1
1228 410 1 -0.8476 18.23786540344191 1.791562588669484 9.310894891367495 1 0 0
1230 410 2 0.4238 18.861070935110696 2.2341975656566566 9.955653588709746 1 0 0
1049 350 2 0.4238 19.278752170042793 1.7228074994277103 7.601532843328736 0 0 1
989 330 2 0.4238 19.388932193650973 3.7604460949203613 6.324462660830095 0 0 1
1519 507 1 -0.8476 19.928240854256003 3.5432860834260813 11.040434488359812 0 0 0
1520 507 2 0.4238 20.49551006920877 3.8473671267508918 11.805786855929139 0 0 0
1521 507 2 0.4238 19.17497765020535 4.187411176425851 10.907313476871526 0 0 0
1368 456 2 0.4238 20.927645247431222 4.1406109596743494 9.41100007658373 0 1 0
221 74 2 0.4238 22.945174536457678 3.2371381117112223 7.963191387739708 -1 1 0
1366 456 1 -0.8476 21.389713153770657 4.637957092961216 8.676722291211185 0 1 0
988 330 1 -0.8476 19.689796950416678 4.699506621501298 6.490805042145766 0 0 1
990 330 2 0.4238 20.295467158881088 4.71949944160775 7.286284643019998 0 0 1
1284 428 2 0.4238 18.253373910803873 5.757042986076413 6.717243432540184 0 0 0
1367 456 2 0.4238 21.990127813825076 5.333356894881568 9.071621260660558 0 1 0
33 11 2 0.4238 22.775129719721775 4.46901963798468 12.385053843283748 -1 0 0
220 74 1 -0.8476 23.496572968847026 2.4885178688772225 7.5950176636243 -1 1 0
222 74 2 0.4238 23.258138056334595 2.3396301239330595 6.63532704472846 -1 1 0
962 321 2 0.4238 23.114584959662345 6.742482325638219 7.2911091534670005 0 1 0
1033 345 1 -0.8476 19.4081086112922 1.0364833476523692 13.469701301386923 0 0 0
1034 345 2 0.4238 19.35139462462206 0.5685168950877291 12.58776271408601 0 0 0
31 11 1 -0.8476 23.41515210759477 4.065281342701347 11.731302525678284 -1 0 0
500 167 2 0.4238 23.748097212372734 0.44396349682130093 8.634736109569028 -1 0 0
32 11 2 0.4238 22.97997151050926 4.004387719893716 10.833007602304054 -1 0 0
499 167 1 -0.8476 23.466815608802406 24.49256656239269 8.838050114622488 -1 -1 0
134 45 2 0.4238 0.7361445403763436 11.872469270910216 7.035437482930012 0 0 1
209 70 2 0.4238 4.5490533008208835 6.41320977987972 10.283606421234284 0 0 0
64 22 1 -0.8476 2.6410278033141514 3.6715462611751146 6.469300980341764 0 0 0
1545 515 2 0.4238 5.225188549491669 5.200275913473906 7.228903358863804 1 0 0
471 157 2 0.4238 4.7805329894346045 7.9737615613915676 6.565347342185948 0 1 -1
948 316 2 0.4238 0.4774415162181717 7.057033380872518 7.80928831103034 0 1 -1
946 316 1 -0.8476 0.42043598066070037 7.646149512361953 8.615338209640663 0 1 -1
947 316 2 0.4238 1.3278802651084123 8.008396595856478 8.82828385752986 0 1 -1
1539 513 2 0.4238 3.6783194217856967 9.98768211495438 6.210883505871517 1 0 1
1538 513 2 0.4238 2.351535374602172 9.041321668566368 6.314499282103018 1 0 1
1537 513 1 -0.8476 3.3513537154495454 9.050420414089745 6.331951513513964 1 0 1
362 121 2 0.4238 2.0924552530321625 6.346688676098867 11.117098855089683 0 0 0
39 13 2 0.4238 3.1492647643220137 8.23353063850972 8.15843825822151 0 0 0
37 13 1 -0.8476 2.9110189143401235 8.607710899910124 9.054681374091038 0 0 0
361 121 1 -0.8476 2.8697868988842843 6.93290691134218 11.345413208580649 0 0 0
363 121 2 0.4238 2.9115056482713735 7.696941071027512 10.70156903703395 0 0 0
38 13 2 0.4238 3.539658318782253 9.351042863020893 9.283360103588732 0 0 0
1342 448 1 -0.8476 3.935729796476501 10.908777728800757 9.748805460930296 1 0 0
1344 448 2 0.4238 3.4570279120139658 11.548597641815 10.35005333032261 1 0 0
347 116 2 0.4238 5.31086445325657 10.110074798420571 11.643353615311051 0 0 0
133 45 1 -0.8476 0.3072212469840548 11.161695852987505 6.477898045153892 0 0 1
1343 448 2 0.4238 4.560200502025108 11.414437008780276 9.153516201860374 1 0 0
367 123 1 -0.8476 1.5176142977663527 12.103503461735526 11.614169552361727 0 -1 0
208 70 1 -0.8476 5.487549489489509 6.146223516993964 10.064592022785808 0 0 0
207 69 2 0.4238 10.986520668314002 9.615394841407054 6.212810082620606 0 0 0
118 40 1 -0.8476 9.389443075791984 5.608667736274324 10.701943921509608 -1 0 0
615 205 2 0.4238 8.07186082978261 10.797999271658714 10.861585007376133 0 0 0
613 205 1 -0.8476 7.72224089045549 10.258933179882815 10.095296733607835 0 0 0
614 205 2 0.4238 7.551165973339233 9.32130466008262 10.397968378508473 0 0 0
581 194 2 0.4238 6.695872876066058 7.294334602929088 10.871268795942687 0 0 0
580 194 1 -0.8476 7.540654980525082 7.782164929114792 11.091244957691712 0 0 0
582 194 2 0.4238 8.319787595959248 7.164506076350397 10.984124759652888 0 0 0
205 69 1 -0.8476 11.430719904372022 9.644006404247317 7.108294569636941 0 0 0
206 69 2 0.4238 11.87878899480204 8.767884353957388 7.286250314609092 0 0 0
569 190 2 0.4238 10.487740825993226 7.115103618793681 10.843149651235064 0 0 -1
1558 520 1 -0.8476 9.977724367041425 11.21510602161861 8.667903234180503 0 0 0
1560 520 2 0.4238 10.670222582947481 10.730598637228669 8.133373223080413 0 0 0
1559 520 2 0.4238 9.279248655321474 10.567868558021424 8.973253869977993 0 0 0
83 28 2 0.4238 6.805375438365269 11.119520842439034 8.849899951525606 0 0 0
568 190 1 -0.8476 10.725610369987225 7.937953942661166 11.359249728446507 0 0 -1
82 28 1 -0.8476 6.3299122379500155 11.873375255274771 8.396400050365497 0 0 0
1495 499 1 -0.8476 15.776265321218064 8.727717512373323 5.918564977996305 0 0 0
1370 457 2 0.4238 13.990658524435595 8.07052377049754 6.6561787457779 0 0 0
1383 461 2 0.4238 12.941553702630875 11.087532867916737 6.747137844605821 0 0 0
570 190 2 0.4238 11.441409897658906 8.440336027216516 10.874206233607286 0 0 -1
85 29 1 -0.8476 13.86008894438158 6.124602000125937 9.115528131565375 0 0 0
1369 457 1 -0.8476 13.32682737906341 7.324866173075749 6.714031647335916 0 0 0
86 29 2 0.4238 14.111784940745352 6.646585476770055 9.930516434696 0 0 0
1371 457 2 0.4238 13.365492467535121 6.914103771144915 7.624967015442531 0 0 0
1191 397 2 0.4238 13.398835133921327 8.340024567830202 10.79116045927511 1 1 0
1091 364 2 0.4238 16.25540685875373 11.279017560754083 9.045568228542148 0 0 0
623 208 2 0.4238 16.110769107213095 8.789323754808322 9.240881953859802 0 0 0
622 208 1 -0.8476 15.509941035711211 9.339929725273759 8.661345291288887 0 0 0
624 208 2 0.4238 15.629038886980103 9.069659874943353 7.705942748039307 0 0 0
1189 397 1 -0.8476 12.939191989632223 8.951129277482188 10.146719398172454 1 1 0
1190 397 2 0.4238 13.622584853299653 9.424093851024331 9.59056873983709 1 1 0
698 233 2 0.4238 17.828744783219904 6.280129228258556 10.327488888958781 -1 1 1
163 55 1 -0.8476 17.52693105595079 8.142026699204063 9.827851940473831 -1 0 0
164 55 2 0.4238 17.478164437771646 8.266242081819533 10.818920062035511 -1 0 0
1436 479 2 0.4238 21.340100108945876 9.171572994506821 5.803104689060331 0 0 0
1437 479 2 0.4238 21.810836450406732 7.60967039097592 5.728544945887863 0 0 0
309 103 2 0.4238 21.878411778551445 11.699424358567759 6.241694477165018 -1 0 1
963 321 2 0.4238 24.111102428871092 6.972739487801362 6.018071420834229 0 1 0
308 103 2 0.4238 22.420813206948033 10.4849785209425 7.1891194454561 -1 0 1
307 103 1 -0.8476 21.686924714978275 10.776435986250082 6.57553598214604 -1 0 1
961 321 1 -0.8476 23.222295569877694 6.615417217351258 6.305068200009847 0 1 0
486 162 2 0.4238 22.32845812654913 7.184350567658144 10.038778268467597 -1 1 1
484 162 1 -0.8476 22.92016276191964 6.4419489639673095 9.72453275258361 -1 1 1
1323 441 2 0.4238 19.38973299244592 9.906780976602928 7.74996324874983 0 0 1
1321 441 1 -0.8476 19.32411976190086 10.000281351759323 8.74343017592016 0 0 1
165 55 2 0.4238 18.1989366787923 8.776027510940962 9.44513086376948 -1 0 0
1322 441 2 0.4238 19.34055587457339 10.969583285393895 8.98880275544516 0 0 1
574 192 1 -0.8476 21.407478584926018 8.928303631339745 10.48026003685268 -1 0 0
575 192 2 0.4238 22.013645007217875 9.722067685799928 10.530509344890334 -1 0 0
576 192 2 0.4238 20.675804529945104 9.108743538629055 9.822902758986887 -1 0 0
144 48 2 0.4238 21.242817410278015 8.287316390213338 12.076700733775155 -1 0 0
1303 435 1 -0.8476 23.633052730435125 9.838652651761548 8.232777534007699 0 0 0
1304 435 2 0.4238 23.23775872841417 10.17852685949145 9.08615492053204 0 0 0
58 20 1 -0.8476 22.8335749970992 11.18209192713869 10.566189056943958 -1 0 0
59 20 2 0.4238 22.34303998975185 11.570706464515283 11.346175640893 -1 0 0
60 20 2 0.4238 23.601599580784097 11.77580707347902 10.326051543800459 -1 0 0
135 45 2 0.4238 24.523355026984092 10.765600136712564 6.9776344582773415 -1 0 1
485 162 2 0.4238 23.856957411080842 6.77915913706787 9.63110108008166 -1 1 1
1305 435 2 0.4238 24.246135342149095 9.073832250065635 8.430778926799983 0 0 0
269 90 2 0.4238 24.954959147440086 16.85185351907893 6.203435106945213 -1 -1 1
295 99 1 -0.8476 4.151927131768733 14.04758607393625 8.298481714332786 0 -1 1
296 99 2 0.4238 4.540089814440066 13.236604214008823 7.8606894285719315 0 -1 1
450 150 2 0.4238 3.4937604796967268 15.102471018463255 12.325768485352473 0 0 0
297 99 2 0.4238 4.695375360783741 14.850665373176708 8.054038038430411 0 -1 1
685 229 1 -0.8476 5.61255205589446 13.230353463831777 11.043370507966204 0 0 0
687 229 2 0.4238 5.621528139273443 13.959068302197817 11.728147534843341 0 0 0
686 229 2 0.4238 5.66267784338312 13.631735631993562 10.128819171726107 0 0 0
1361 454 2 0.4238 2.6715165167590293 14.248627921965088 7.274105170405293 1 0 0
1360 454 1 -0.8476 1.9618674091177617 14.751380023644325 6.780482259096737 1 0 0
449 150 2 0.4238 2.2130909801854894 15.412036210385322 11.361016810810602 0 0 0
448 150 1 -0.8476 2.581943621644221 14.793729412416386 12.055040230414928 0 0 0
411 137 2 0.4238 24.91345919716006 16.271256992980717 11.145796740379303 -1 0 0
1160 387 2 0.4238 2.145464594446409 17.76425170736951 11.93434255166335 0 0 0
731 244 2 0.4238 0.7132458120886457 15.758069345992714 7.456069887686299 0 0 0
1159 387 1 -0.8476 1.1946071895908306 17.45756588234009 11.891474507709674 0 0 0
701 234 2 0.4238 5.747084284674148 16.282290952894776 6.815596782949155 0 1 1
700 234 1 -0.8476 5.896211009696875 16.131216747714767 7.79281767727883 0 1 1
369 123 2 0.4238 1.8737921370336827 13.016877285572425 11.811424692762026 0 -1 0
797 266 2 0.4238 5.343455123705943 11.561632594306968 6.888699524168859 0 0 0
1262 421 2 0.4238 9.921948607927398 12.983813561023933 10.074307480892355 0 0 0
702 234 2 0.4238 6.105809853682914 17.002498128433842 8.236620344900638 0 1 1
852 284 2 0.4238 11.05239348158444 14.374637403477996 8.530743045261781 0 0 0
84 28 2 0.4238 6.949500247743269 12.653368410952831 8.308392983045033 0 0 0
389 130 2 0.4238 10.092168097879503 12.737392674667301 6.418690906301495 0 0 0
851 284 2 0.4238 10.65728982128857 15.457160850295685 7.373709605488314 0 0 0
1402 468 1 -0.8476 7.616796026131144 14.250341018175842 8.495917116328727 0 0 0
1404 468 2 0.4238 8.52783648183941 14.557272790300635 8.220558783053702 0 0 0
1403 468 2 0.4238 6.9349413029815645 14.915845944274023 8.192270891851638 0 0 0
850 284 1 -0.8476 10.351392140601591 14.645207748031796 7.870884385978693 0 0 0
1263 421 2 0.4238 8.313791689105843 13.26757598569275 10.073570545348067 0 0 0
795 265 2 0.4238 7.502990601811207 17.441730987039904 11.433267081794904 0 0 0
793 265 1 -0.8476 6.508189348335229 17.341394296047817 11.415182075057464 0 0 0
794 265 2 0.4238 6.15952019761516 17.63662557315903 10.525636507176221 0 0 0
1261 421 1 -0.8476 9.108947098231136 13.076619814711417 10.649146239896428 0 0 0
1556 519 2 0.4238 13.131604033919006 14.365702168459443 5.9921807192257095 0 0 0
36 12 2 0.4238 9.303852278084491 14.563261137130937 11.600153417931535 -1 0 0
34 12 1 -0.8476 9.267768423341051 15.335225166648353 12.234814204624222 -1 0 0
1200 400 2 0.4238 9.37072133844898 16.953736486102095 11.505180331979036 0 0 0
1395 465 2 0.4238 10.055836868364084 11.012821903598113 12.148271501471545 0 0 0
426 142 2 0.4238 5.8045769628652195 16.1093103956647 12.274477267844333 0 0 0
424 142 1 -0.8476 5.413951947949265 15.33506601214158 12.772454864268317 0 0 0
35 12 2 0.4238 10.105298603897715 15.357296165131913 12.780781785436176 -1 0 0
572 191 2 0.4238 18.083316005263498 14.305780473625882 7.230282903348167 -1 0 0
571 191 1 -0.8476 19.057496889117758 14.505500340299237 7.335676252425152 -1 0 0
1301 434 2 0.4238 12.070139593572552 12.588248313880838 8.955993436450093 0 0 0
1090 364 1 -0.8476 16.233567714704016 12.27811559524501 9.008815325829644 0 0 0
1092 364 2 0.4238 16.06323298771275 12.641705098096386 9.92468325618999 0 0 0
1300 434 1 -0.8476 12.41600235031973 13.41905972252111 9.392061851872374 0 0 0
1302 434 2 0.4238 13.140011286724727 13.179359625756316 10.038884298934475 0 0 0
1557 519 2 0.4238 14.024089538873536 14.1223416853542 7.337890876678119 0 0 0
981 327 2 0.4238 16.067737468143328 12.505931268436484 7.367392307161677 0 0 0
979 327 1 -0.8476 15.97937272173262 12.421029178215464 6.374917083640963 0 0 0
103 35 1 -0.8476 14.843572470655 17.052422140196164 6.352487851831338 0 0 1
20 7 2 0.4238 13.59329360033241 16.79074670685626 9.992727407005903 -1 0 0
105 35 2 0.4238 15.469354711939388 17.090157736140192 7.131587756099352 0 0 1
21 7 2 0.4238 13.127838567669452 15.26456394043213 9.645152483277528 -1 0 0
19 7 1 -0.8476 13.521600246266484 15.858305219368237 10.346898384406337 -1 0 0
104 35 2 0.4238 14.318029070915175 16.202380847218663 6.387953630176801 0 0 1
1555 519 1 -0.8476 13.657644181971891 14.813648926162104 6.715125780145638 0 0 0
675 225 2 0.4238 16.805754517158185 16.36086121345827 10.977985287759635 0 1 1
124 42 1 -0.8476 16.300213429078184 17.45265281990516 8.518369443582367 -1 0 1
122 41 2 0.4238 17.761863512630065 13.348461090603381 11.541406399009897 -1 0 0
126 42 2 0.4238 17.1333233074808 17.50618494855931 9.068901966388497 -1 0 1
573 191 2 0.4238 19.449907029404194 13.89657754751259 8.025061400470285 -1 0 0
1459 487 1 -0.8476 18.233312894667684 17.32771024860657 10.486738796338663 0 -1 0
1067 356 2 0.4238 12.860159068112926 17.75352383923768 6.354875014112283 0 0 0
125 42 2 0.4238 15.515467083097416 17.728014789979554 9.073682757022583 -1 0 1
1130 377 2 0.4238 15.446918819586632 14.258025540975309 11.404106241535464 0 0 0
1176 392 2 0.4238 12.752171690122758 15.761814730358772 12.287957287181184 0 0 0
242 81 2 0.4238 24.159549302230772 18.006608124793658 8.099840571932143 -1 0 1
451 151 1 -0.8476 20.20583586489694 17.071028134280894 7.311451487437844 -1 0 1
452 151 2 0.4238 19.871354996234096 16.226432029654084 6.893355752189283 -1 0 1
1291 431 1 -0.8476 21.5101057762002 13.324553386693092 5.8032117006132244 0 0 1
453 151 2 0.4238 20.430578983452456 16.901651967524778 8.27104841843285 -1 0 1
1292 431 2 0.4238 21.885207986609196 13.603168376019454 6.6873474326465185 0 0 1
121 41 1 -0.8476 18.701958684452556 13.645089849238436 11.709504501952491 -1 0 0
1399 467 1 -0.8476 22.618682740735153 13.922905430430639 8.214916381876048 0 0 1
1400 467 2 0.4238 23.4791126259816 13.446122159890425 8.394813465993872 0 0 1
1359 453 2 0.4238 19.183884938348704 12.558268650545156 5.702671558592193 0 0 0
1115 372 2 0.4238 19.782352827565624 12.91625449054728 10.094223560445228 0 0 0
1114 372 1 -0.8476 20.18178945629046 12.559603401619247 9.249667646396881 0 0 0
1116 372 2 0.4238 21.161816234451322 12.41057887674565 9.381437752994762 0 0 0
1499 500 2 0.4238 21.51102772091265 17.086570266697976 10.693150722343367 0 0 0
1460 487 2 0.4238 19.158490212327408 17.016933558759114 10.268821194272636 0 -1 0
1500 500 2 0.4238 21.08172002564897 15.511011895508823 10.692008408052242 0 0 0
1498 500 1 -0.8476 21.217484524975575 16.320700966115197 10.121048196806045 0 0 0
1401 467 2 0.4238 22.666347071901633 14.849132401533357 8.588888916072193 0 0 1
751 251 1 -0.8476 24.721484188337868 13.026409217539522 9.582771417814673 -1 -1 0
410 137 2 0.4238 23.600392236711606 15.345646290176196 10.852896630684217 -1 0 0
752 251 2 0.4238 24.580803958069495 14.000496886032215 9.75993279496222 -1 -1 0
730 244 1 -0.8476 24.963356514258265 16.29875039120747 7.862866584099713 -1 0 0
732 244 2 0.4238 24.890117031922024 16.082907549746515 8.836556456212607 -1 0 0
409 137 1 -0.8476 24.459066401536433 15.68857701805571 10.4719754224916 -1 0 0
753 251 2 0.4238 0.4932891672777454 12.691946555374544 10.142412948439787 0 -1 0
890 297 2 0.4238 4.97309901602238 17.883170967200527 11.877598911791427 1 0 0
889 297 1 -0.8476 4.046393448911622 18.225344309914476 12.033027356927688 1 0 0
1121 374 2 0.4238 4.340310403387959 20.515483466961214 10.255651268380097 0 0 0
1120 374 1 -0.8476 3.8051143194874113 20.822638277213628 11.04257239465906 0 0 0
1122 374 2 0.4238 4.026184518749913 21.77687223431237 11.244040715002328 0 0 0
172 58 1 -0.8476 1.211987933022069 22.766401812734735 6.480993462656466 0 0 0
401 134 2 0.4238 1.7810417301579844 20.503389092334054 8.682047237292705 0 0 0
353 118 2 0.4238 4.206533793696372 21.08020617276459 7.920792060626726 0 0 0
352 118 1 -0.8476 4.941511979678487 20.882681983787435 8.569494860977459 0 0 0
402 134 2 0.4238 1.1360036257975916 21.61985253491926 7.6799859618433 0 0 0
433 145 1 -0.8476 0.3165832035919996 21.65367987801457 11.089938105724466 0 0 0
400 134 1 -0.8476 1.2297465607874394 21.33635080342154 8.63437838083996 0 0 0
435 145 2 0.4238 0.6118710155796477 21.678964289684835 10.13485175565003 0 0 0
891 297 2 0.4238 4.02139156454873 19.210068113606326 11.860639231316304 1 0 0
354 118 2 0.4238 5.718974961974136 21.48414436489543 8.385598842345354 0 0 0
434 145 2 0.4238 1.1003179042894016 21.828720580709252 11.685878309360428 0 0 0
531 177 2 0.4238 24.977213664325625 18.500812052167156 11.405964715983636 -1 -1 0
1117 373 1 -0.8476 6.474982912261377 18.59254008080977 8.795210611105983 0 0 0
1119 373 2 0.4238 7.32518412728474 18.709131093420176 8.281801064626398 0 0 0
1118 373 2 0.4238 5.97401005298445 19.457867246086145 8.811341963018942 0 0 0
497 166 2 0.4238 10.147391631934402 18.07687230065484 7.775310463576941 0 -1 0
496 166 1 -0.8476 9.38786996442021 18.402115853951692 8.338664129013319 0 -1 0
498 166 2 0.4238 9.536446547009847 18.12809005031024 9.28885396880703 0 -1 0
325 109 1 -0.8476 8.151568195852557 21.287897511536215 11.633800727711149 0 0 0
712 238 1 -0.8476 8.980340939673134 21.13871420753867 8.939223427847761 0 0 0
714 238 2 0.4238 8.97706517041709 20.23220855035487 8.517013949621747 0 0 0
713 238 2 0.4238 8.710799578367336 21.0603520586684 9.899031185642107 0 0 0
279 93 2 0.4238 6.98701534352481 23.25417934087833 7.342939789549072 0 -1 0
278 93 2 0.4238 7.686774207356216 22.3166901216941 8.482300660562657 0 -1 0
277 93 1 -0.8476 6.874234799174426 22.85199805254215 8.251540807577534 0 -1 0
1416 472 2 0.4238 9.954983153738144 22.41813057718887 8.256100971155698 0 0 0
1415 472 2 0.4238 10.38520727324167 23.414006232985898 7.035514874839103 0 0 0
492 164 2 0.4238 6.418240074892062 24.10180500996993 9.445885723932479 0 -1 -1
830 277 2 0.4238 6.997291265479955 24.28225547973036 11.765489738681122 0 -1 0
869 290 2 0.4238 11.185479949527135 21.943644707729845 10.137804836333281 0 0 0
1414 472 1 -0.8476 10.665224841902603 23.03545620633375 7.917735999320587 0 0 0
1198 400 1 -0.8476 9.434037001314966 17.819882126682955 11.00938964512624 0 0 0
1199 400 2 0.4238 9.750475066819572 18.53702755088736 11.63035172517808 0 0 0
870 290 2 0.4238 12.10999846767221 22.35432120912057 11.419717636412454 0 0 0
868 290 1 -0.8476 11.363754492046379 21.767262724619208 11.105860107100476 0 0 0
1066 356 1 -0.8476 12.12480180208484 18.151482212606098 6.903421431011331 0 0 0
1068 356 2 0.4238 12.37272200661858 19.083697767281762 7.167114245039597 0 0 0
600 200 2 0.4238 13.518740768006365 23.623535772125663 6.893146025479561 0 0 0
598 200 1 -0.8476 13.305697924575314 23.512342264710327 7.863853185650383 0 0 0
1548 516 2 0.4238 15.865210099529978 21.31499091533464 7.909604729273588 0 0 0
1546 516 1 -0.8476 15.270931298600939 21.46558959995412 8.699653287423482 0 0 0
1547 516 2 0.4238 14.53799771101918 22.098299028585153 8.449628529448677 0 0 0
1097 366 2 0.4238 14.975636404478706 19.7808272070084 9.402079595881238 0 0 0
1096 366 1 -0.8476 14.601116551002052 18.986387891657706 9.880227163969565 0 0 0
1172 391 2 0.4238 16.117239873128803 22.109283256293175 10.193973773525759 0 0 0
1098 366 2 0.4238 14.042526558876018 19.293821486832982 10.650607527867988 0 0 0
1171 391 1 -0.8476 16.649137207910222 22.401062966096617 10.988941593132836 0 0 0
599 200 2 0.4238 12.3205953522489 23.38196428499387 7.976095931258391 0 0 0
1411 471 1 -0.8476 18.107752342610297 23.305079393368437 6.790933266568091 0 0 0
263 88 2 0.4238 17.736328785845032 20.877784945600794 10.78996762014103 -1 -1 1
1461 487 2 0.4238 18.244037248496376 18.313151893384443 10.65648341378528 0 -1 0
1442 481 2 0.4238 17.417313522117098 18.154503136435117 7.13705793282735 0 0 0
241 81 1 -0.8476 23.63228029121634 18.82465787019259 8.329637610844799 -1 0 1
243 81 2 0.4238 23.769284767349255 19.04941548167578 9.294385331340909 -1 0 1
1443 481 2 0.4238 18.898648277196443 18.513673672556607 6.551110210963131 0 0 0
692 231 2 0.4238 17.595365832887467 23.812824440427143 11.099635693728835 0 0 0
1088 363 2 0.4238 19.857322630630847 23.92873987448064 10.384204180805611 0 0 0
1089 363 2 0.4238 20.409952860883784 22.878295625674333 9.262662404713108 0 0 0
1087 363 1 -0.8476 20.67209259126141 23.47974203383467 10.017359613369974 0 0 0
1413 471 2 0.4238 18.726176150670845 23.632071285691232 6.076334233550615 0 0 0
262 88 1 -0.8476 18.28484308777174 20.079735132732267 10.540421913203287 -1 -1 1
264 88 2 0.4238 19.239204896588134 20.23900049486224 10.793115270444352 -1 -1 1
1441 481 1 -0.8476 17.96622568292465 18.85242924052927 6.677036682801037 0 0 0
776 259 2 0.4238 21.398230306322453 21.02150104130459 7.3456241173448715 0 -1 0
1470 490 2 0.4238 19.46213293142207 20.810909018327237 8.060132284811747 0 -1 0
1145 382 2 0.4238 20.976474106391507 20.68144866371474 11.945236222437318 0 0 0
1468 490 1 -0.8476 19.83812521980883 21.73662544236244 8.018866065780777 0 -1 0
1469 490 2 0.4238 19.207497652672345 22.33056204570631 7.519294082065633 0 -1 0
1144 382 1 -0.8476 20.833456845412783 20.05386556192608 11.179919461879988 0 0 0
775 259 1 -0.8476 21.907255422074336 20.325888038409026 6.838632941717479 0 -1 0
1146 382 2 0.4238 21.571036041705725 19.37887911276468 11.160061651249649 0 0 0
777 259 2 0.4238 22.291297658722904 19.660882245631605 7.479181797422659 0 -1 0
691 231 1 -0.8476 18.34102763849996 24.47721107233879 11.048616215169611 0 0 0
116 39 2 0.4238 21.95418887688904 22.58907614515735 11.362436432854622 -1 -1 0
117 39 2 0.4238 23.4552575581693 22.44048649232891 11.988058578589241 -1 -1 0
115 39 1 -0.8476 22.4845914539354 22.255620283191085 12.141861891039635 -1 -1 0
442 148 1 -0.8476 22.00240302485866 17.706361131512182 12.475227707278856 -1 0 0
444 148 2 0.4238 22.71405152024365 18.40889647250551 12.470236412733321 -1 0 0
1481 494 2 0.4238 23.380233971979123 23.602410373674843 7.253899954213407 0 -1 0
530 177 2 0.4238 24.503028705049267 20.04528520588402 11.168389440387866 -1 -1 0
529 177 1 -0.8476 24.199797772553787 19.092673640590554 11.193012846626683 -1 -1 0
1482 494 2 0.4238 22.610057920727215 22.24765138641817 6.765896151337141 0 -1 0
1480 494 1 -0.8476 23.413091517275276 22.826453742438822 6.623950281346531 0 -1 0
505 169 1 -0.8476 3.7986438517699934 24.051164813852523 11.237531651848993 0 -1 0
506 169 2 0.4238 4.599509535952903 24.468078562443523 10.807623794256587 0 -1 0
507 169 2 0.4238 2.9898664780700632 24.60696742349213 11.045213841311902 0 -1 0
490 164 1 -0.8476 6.120820175579642 24.75544083859259 10.14182075757597 0 -1 -1
357 119 2 0.4238 15.534070911007106 24.83475148769547 5.944500479929666 0 0 0
659 220 2 0.4238 14.040672284049215 24.220038543497402 10.855760628844523 0 0 0
660 220 2 0.4238 13.857464295944132 24.503521324294276 9.258023525648257 0 0 0
1412 471 2 0.4238 17.574337822057267 24.072411049568693 7.146875642025834 0 0 0
693 231 2 0.4238 18.042289089478373 0.2873809362820626 10.523100928302364 0 1 0
501 167 2 0.4238 22.51728891715903 24.489949688871356 9.15176426231964 -1 -1 0
345 115 2 0.4238 1.9673854736249188 3.8494561866911763 11.717537197725989 0 0 0
960 320 2 0.4238 4.431402347950254 4.407629789892327 14.397698651058054 0 1 0
1502 501 2 0.4238 0.32198066317572055 0.9248295267868234 12.397339179809277 1 0 0
343 115 1 -0.8476 2.544217293500117 3.083694930095192 12.001963819092603 0 0 0
344 115 2 0.4238 3.41055011838531 3.4334538946042157 12.358558735744927 0 0 0
14 5 2 0.4238 2.2979021096430365 1.5525956524123399 12.859280615736452 0 0 0
15 5 2 0.4238 2.6836102576894914 0.30147710380322107 13.835304487436211 0 0 0
13 5 1 -0.8476 1.9307912055779914 0.7978442870575848 13.40297654235968 0 0 0
328 110 1 -0.8476 5.358077350807598 1.08787450531858 13.842872921650496 0 0 0
246 82 2 0.4238 0.32827637913880786 1.5627186306928884 16.29375240007071 0 0 0
245 82 2 0.4238 0.644775047191654 1.1020686325591476 14.759372673023284 0 0 0
244 82 1 -0.8476 0.4787444688708624 0.7790203819538859 15.691090743240213 0 0 0
779 260 2 0.4238 4.1428824917288285 4.53527736669391 16.48494792065903 0 0 0
621 207 2 0.4238 4.630650105007522 0.8778926482213545 17.429826279414883 0 1 0
432 144 2 0.4238 4.833525397498722 0.21058338281939915 15.231846230361182 0 1 1
1518 506 2 0.4238 5.289810947505831 2.9042850218464165 17.882133337763925 1 0 -1
619 207 1 -0.8476 4.695759148188063 1.391770651256867 18.285229299450357 0 1 0
430 144 1 -0.8476 4.478521751740377 24.657786183816697 15.99552307763482 0 0 1
618 206 2 0.4238 24.35883963938945 3.9609866982147324 13.861873970560104 -1 0 0
958 320 1 -0.8476 4.757865193320695 3.816559078260351 13.660079366181026 0 1 0
1310 437 2 0.4238 0.1782654503908745 5.672264792537837 15.60574743483266 1 0 0
1516 506 1 -0.8476 5.499089121631357 3.8111839390301316 17.51639847600793 1 0 -1
275 92 2 0.4238 7.442701808092596 3.276366991935031 11.931980113651518 0 1 0
1517 506 2 0.4238 6.021825860658332 3.7164255045590053 16.669172377884834 1 0 -1
861 287 2 0.4238 7.804336504053165 3.0878822929685374 15.2513285814069 0 0 0
276 92 2 0.4238 7.721219578548134 4.804868025290878 12.434775084005473 0 1 0
71 24 2 0.4238 8.826104491329685 1.5719440497092383 12.421647692492689 0 0 0
329 110 2 0.4238 5.084056452845873 2.046204176168422 13.761990196941259 0 0 0
70 24 1 -0.8476 7.879882810445254 1.8023237506598515 12.64883503884445 0 0 0
72 24 2 0.4238 7.741872453452573 1.7098626353768804 13.634952833878456 0 0 0
43 15 1 -0.8476 8.871561611945044 1.930058773758144 15.493653823633277 -1 0 0
45 15 2 0.4238 9.379769297166789 1.0935527325421888 15.28869797566207 -1 0 0
44 15 2 0.4238 9.477978423627764 2.5872788150208654 15.941253887457433 -1 0 0
337 113 1 -0.8476 11.391203336073149 3.5307421378109853 13.052083660032832 0 0 0
339 113 2 0.4238 10.858960799212092 4.147325467142691 12.471939671974088 0 0 0
859 287 1 -0.8476 7.183801399993515 3.8707031422087326 15.204923263849237 0 0 0
860 287 2 0.4238 7.657907664893318 4.647775052235423 14.790909233624454 0 0 0
1397 466 2 0.4238 12.304204314642927 4.773934050605117 14.084563199531265 0 1 0
1013 338 2 0.4238 8.986125987839744 6.304368480844601 13.904163101852776 0 0 0
1082 361 2 0.4238 10.070457849933836 4.94889549646971 16.918122193351714 0 0 -1
1081 361 1 -0.8476 10.03618576863652 3.949493190375069 16.924884520958358 0 0 -1
338 113 2 0.4238 11.798591298512706 2.811847886979486 12.488832829971365 0 0 0
253 85 1 -0.8476 11.604576551151327 24.910073706057176 17.650187583351517 0 -1 0
1083 361 2 0.4238 10.488111076971006 3.606046271473261 17.748190158074266 0 0 -1
733 245 1 -0.8476 12.239839571491762 2.2329064904567923 15.756586809475092 0 0 -1
739 247 1 -0.8476 17.0398461733555 3.0644884406718704 12.231890532740527 0 0 0
1038 346 2 0.4238 13.706064175139632 1.3194486063783597 13.028309579078199 0 0 0
1036 346 1 -0.8476 13.73011252377185 0.8086900528256722 13.88771113894308 0 0 0
1007 336 2 0.4238 18.43649663679863 0.6010599666989178 15.000738440352876 0 0 0
1006 336 1 -0.8476 18.23755274930742 0.08855045447206185 15.836070270957375 0 0 0
213 71 2 0.4238 17.62966063152659 0.9405154544935391 17.693167890033934 -1 1 0
828 276 2 0.4238 13.928123304757428 3.099163823222348 15.428929290587824 0 0 0
1037 346 2 0.4238 13.198181351817302 1.2961372097635393 14.580147358053896 0 0 0
826 276 1 -0.8476 14.840179917817482 3.3070709133064553 15.075444437084853 0 0 0
1225 409 1 -0.8476 15.175039049523633 4.800100452913307 12.973966546786022 0 0 0
1226 409 2 0.4238 15.222580357127443 4.298296218294293 13.837654258016734 0 0 0
827 276 2 0.4238 15.530141733377992 2.989426964675498 15.725889449327987 0 0 0
735 245 2 0.4238 11.916666421713227 1.4210128175764378 16.242809321508616 0 0 -1
734 245 2 0.4238 11.701132078161644 3.0267992372933956 16.038638158827297 0 0 -1
358 120 1 -0.8476 18.108000588756738 5.332015658724116 13.862172989887256 -1 1 0
774 258 2 0.4238 15.203494549137142 24.826952960128374 14.774858566860074 0 -1 0
1474 492 1 -0.8476 16.623101639262877 3.889629063343693 17.49734990442279 0 0 0
1475 492 2 0.4238 17.39449539461591 4.335554291591492 17.95136231093879 0 0 0
360 120 2 0.4238 17.532561327393395 4.799627812722018 13.241321222445361 -1 1 0
1396 466 1 -0.8476 12.832464703467908 5.571801889157894 14.375031570700509 0 1 0
1398 466 2 0.4238 13.76501698642573 5.501032665209277 14.020966651352671 0 1 0
211 71 1 -0.8476 17.265603342538654 1.441421730911753 18.47839349907464 -1 1 0
212 71 2 0.4238 17.010894598279542 2.3659936421296632 18.19499569440633 -1 1 0
1008 336 2 0.4238 18.808960063850925 24.25494857967854 15.86804780502018 0 -1 0
741 247 2 0.4238 17.81663001053515 2.4889295758156833 12.487552224880012 0 0 0
359 120 2 0.4238 18.795153888043778 4.734092120820963 14.274885776017568 -1 1 0
792 264 2 0.4238 19.94987690714376 2.439321293884778 18.401631716176546 0 0 0
394 132 1 -0.8476 21.301357858497084 5.214822078305148 12.928924776267872 -1 0 0
395 132 2 0.4238 20.814663595784438 5.0846767893501745 13.792762619294244 -1 0 0
790 264 1 -0.8476 20.301500320291787 2.9328243007371655 17.60611954075734 0 0 0
334 112 1 -0.8476 20.0163676591799 3.799014810657058 14.938754168680196 -1 0 0
336 112 2 0.4238 20.42852227725011 3.7413036753732585 15.848052231775766 -1 0 0
335 112 2 0.4238 19.893415809451206 2.877861789817289 14.569451730109057 -1 0 0
422 141 2 0.4238 22.78554307744959 0.2017124152619545 13.44959280242646 -1 1 0
421 141 1 -0.8476 22.000631936995553 24.606620773942666 13.663462576170895 -1 0 0
558 186 2 0.4238 24.362614723346148 3.78166033707754 16.22924183453837 -1 0 0
791 264 2 0.4238 20.440305212240297 3.8939800298830534 17.8447316862744 0 0 0
1208 403 2 0.4238 21.452915794514396 6.117336677339893 17.861892180290127 0 0 0
1503 501 2 0.4238 24.276713759497234 2.007193963467996 11.74104272133464 0 0 0
17 6 2 0.4238 23.24659788197784 1.4624385141307072 18.005683906284432 -1 0 0
1248 416 2 0.4238 18.188019182205878 6.539982154852593 15.222290275608005 0 0 0
1035 345 2 0.4238 20.36322290031596 1.0809591411042037 13.762623187068671 0 0 0
16 6 1 -0.8476 23.564192908245666 0.8843180882810093 18.75730496337016 -1 0 0
440 147 2 0.4238 21.787707470109844 24.339474411132734 18.425706037574983 -1 0 0
617 206 2 0.4238 23.662092573375993 5.366110409523946 14.316693965786332 -1 0 0
616 206 1 -0.8476 24.061258231688633 4.509385520897048 14.643365027150598 -1 0 0
1501 501 1 -0.8476 24.34514400637771 1.1606596145921262 12.268982806045479 0 0 0
556 186 1 -0.8476 24.641283611903695 3.3247847230274257 17.074010100745795 -1 0 0
557 186 2 0.4238 0.045339258749535816 3.996816534085351 17.703214754427947 0 0 0
778 260 1 -0.8476 3.640919410694068 5.200584691108439 15.932296895471211 0 0 0
780 260 2 0.4238 4.008051976717001 6.115948706636142 16.097663157096 0 0 0
346 116 1 -0.8476 5.546379114079835 10.782995350874955 12.344591559581488 0 0 0
1311 437 2 0.4238 1.7097224216756757 5.859323304969214 16.14085413255679 1 0 0
1309 437 1 -0.8476 0.7851328161687117 6.23971690178638 16.162285088995255 1 0 0
539 180 2 0.4238 3.8158284541016614 7.654831292624678 13.124666638968794 0 0 0
319 107 1 -0.8476 1.6350935889210394 10.655010899642654 13.986057088259322 0 0 0
959 320 2 0.4238 5.627262523986031 4.1672522089021315 13.311960256999281 0 1 0
538 180 1 -0.8476 4.2324458813673855 8.471036220479817 13.52499615929159 0 0 0
540 180 2 0.4238 3.7355540248350145 9.283126833701099 13.219003774285198 0 0 0
669 223 2 0.4238 4.061389660981528 8.49552734651868 16.831161313727534 0 1 0
1551 517 2 0.4238 3.660113646905372 10.519347935765856 16.276132117737724 1 0 0
1549 517 1 -0.8476 3.2597274741843374 9.958278361460328 17.000642872631367 1 0 0
1550 517 2 0.4238 2.7224194128570405 10.53828996918666 17.612942263536866 1 0 0
908 303 2 0.4238 1.154797843648565 7.480104753805711 14.755470344390634 0 0 0
907 303 1 -0.8476 1.2285054988301205 7.960612511866576 13.881568520978087 0 0 0
909 303 2 0.4238 1.4954990034401483 7.313895547992967 13.167078683579367 0 0 0
667 223 1 -0.8476 4.505292813761052 7.753248005613828 16.329169809079936 0 1 0
668 223 2 0.4238 4.621788405047 8.020734283405575 15.372663759486942 0 1 0
321 107 2 0.4238 1.3792747061518438 9.689797231383752 13.931804457281805 0 0 0
1347 449 2 0.4238 6.250910545559565 11.431200990629947 14.927371642855222 1 0 0
320 107 2 0.4238 2.3367983767908846 10.77488983154872 14.688384249040446 0 0 0
348 116 2 0.4238 5.545973789950482 11.698274594552581 11.941742093979478 0 0 0
110 37 2 0.4238 4.6707635992269205 11.094226962640116 14.03431579782186 0 0 -1
109 37 1 -0.8476 4.362465694550613 11.348130059031316 14.951108653727239 0 0 -1
368 123 2 0.4238 1.4804452152985013 11.570506898798353 12.459484016595356 0 -1 0
1073 358 2 0.4238 7.3649743871556845 9.049398229698507 13.39935478457593 0 0 0
608 203 2 0.4238 7.425605269614062 11.53038948424314 13.08056451557119 0 0 0
1012 338 1 -0.8476 8.01655504223991 6.07184102055382 13.98089005739527 0 0 0
1014 338 2 0.4238 7.475378306666488 6.911297368280655 14.030533308654473 0 0 0
1345 449 1 -0.8476 6.946651570266921 12.147095989786768 14.98621845122558 1 0 0
1394 465 2 0.4238 10.909326947295884 9.621627291043666 12.095140879902454 0 0 0
782 261 2 0.4238 11.46321494081673 6.599417294965095 14.119034678995598 0 0 0
1074 358 2 0.4238 5.854479393731595 8.724654114405471 13.928161814227536 0 0 0
783 261 2 0.4238 10.749566506926202 7.5600940082274155 13.007955521389558 0 0 0
781 261 1 -0.8476 10.718627233335297 7.247046139492119 13.957201452487254 0 0 0
1072 358 1 -0.8476 6.828545040524634 8.572302347919567 14.095520751668746 0 0 0
1334 445 2 0.4238 10.890773813435557 8.78650020070774 14.926182857626596 0 0 0
857 286 2 0.4238 7.242218827610252 8.216503303983629 16.154010609834742 0 0 0
858 286 2 0.4238 8.583849285289181 9.116336305085834 16.392796668862267 0 0 0
856 286 1 -0.8476 8.034581720992984 8.359495378273774 16.747086421205672 0 0 0
1335 445 2 0.4238 10.96380975292541 10.171576790143002 14.064255293473297 0 0 0
1333 445 1 -0.8476 11.053081494099173 9.771963933525555 14.97659528285457 0 0 0
1393 465 1 -0.8476 10.956163012190638 10.60133304357229 12.290097403539306 0 0 0
607 203 1 -0.8476 8.381985417790869 11.458360616285688 12.79741537688793 0 0 0
1346 449 2 0.4238 7.519932923703682 11.98945951073403 15.790285314071362 1 0 0
1125 375 2 0.4238 10.012268224315795 11.174074041087282 15.638416605240502 0 0 0
1259 420 2 0.4238 5.2767810784114255 7.602865578848166 18.237490204927084 0 0 0
755 252 2 0.4238 9.489233022783923 7.350146361106779 17.504307589454292 -1 0 0
754 252 1 -0.8476 10.209843413872898 6.694694956181353 17.73042401001127 -1 0 0
756 252 2 0.4238 10.881753480230813 7.131265404795428 18.328727778372553 -1 0 0
1065 355 2 0.4238 17.766518535499948 7.294393583459109 13.023860243108139 0 0 0
132 44 2 0.4238 12.978073617974315 6.6292180715115805 17.234339488405702 -1 0 0
578 193 2 0.4238 15.332355660892386 8.017560946982048 11.783035769805894 0 0 0
577 193 1 -0.8476 14.739221830247843 7.2752157025715105 11.471363813458968 0 0 0
1063 355 1 -0.8476 17.456968831924982 8.171172778204046 12.655808911545027 0 0 0
131 44 2 0.4238 13.011460290651115 6.735675885954704 15.605154902521491 -1 0 0
1542 514 2 0.4238 13.20520590230052 12.263278277434859 13.523368738480317 0 0 0
1540 514 1 -0.8476 13.3183256830312 12.131819205866362 12.538509721772046 0 0 0
1541 514 2 0.4238 12.669648836943928 11.441665556064466 12.217680452124611 0 0 0
579 193 2 0.4238 14.956457570583629 6.440305642162195 11.977088907654442 0 0 0
656 219 2 0.4238 14.359495543432088 10.219913600796325 15.141370363483645 0 0 0
655 219 1 -0.8476 13.61746655849033 10.865489584246859 14.960677659479334 0 0 0
657 219 2 0.4238 12.755933323399544 10.48594381913862 15.297915852714429 0 0 0
130 44 1 -0.8476 12.88447611099407 7.248117416959053 16.454450341443682 -1 0 0
1257 419 2 0.4238 15.978739036031918 8.549919565065409 16.581874336949753 0 -1 0
1256 419 2 0.4238 14.41363907410791 8.272009723407928 16.207816522583897 0 -1 0
1255 419 1 -0.8476 15.23964988312148 8.770953165558828 15.945544876332194 0 -1 0
1086 362 2 0.4238 16.6194211125323 10.862599662590583 17.21207864316864 0 0 -1
1084 362 1 -0.8476 15.73952537966125 11.317656174285824 17.07521683051057 0 0 -1
314 105 2 0.4238 17.014580987655464 12.389203271294758 15.599695562748959 -1 0 0
1085 362 2 0.4238 14.998591757187683 10.664579585325159 17.23184439169355 0 0 -1
1064 355 2 0.4238 17.81887293053458 8.914997665541959 13.217747232179578 0 0 0
474 158 2 0.4238 18.59708693751461 11.098301651082116 14.501105585753095 -1 1 0
1247 416 2 0.4238 17.772789196081703 7.135530285526129 16.685026579341013 0 0 0
396 132 2 0.4238 21.073570266766758 6.111729399051462 12.549854393142093 -1 0 0
267 89 2 0.4238 22.952431052130002 7.616348839789856 17.128150894481728 -1 -1 0
227 76 2 0.4238 22.48159098912693 7.545920312427101 13.522219854500053 -1 1 0
226 76 1 -0.8476 23.39873275888727 7.242186823015447 13.780333017154247 -1 1 0
472 158 1 -0.8476 18.890827697794734 10.14645356258761 14.41320842307981 -1 1 0
473 158 2 0.4238 18.786026562657575 9.682689869599516 15.292960727165486 -1 1 0
1246 416 1 -0.8476 18.411414274599203 7.220459905861574 15.920193812081523 0 0 0
1141 381 1 -0.8476 21.78774821462985 7.029099955523722 16.093376478021227 0 0 0
1142 381 2 0.4238 20.821815480303535 7.196119584776055 15.895632968311055 0 0 0
1143 381 2 0.4238 22.327364320752167 7.1718145014972725 15.263634976624765 0 0 0
228 76 2 0.4238 24.056631021254873 7.971420266339151 13.592150330238017 -1 1 0
1286 429 2 0.4238 21.36557159797271 10.830279729877569 17.504260902602667 0 0 0
143 48 2 0.4238 20.277324947397844 8.81596314229464 13.282954149651694 -1 0 0
1285 429 1 -0.8476 20.57823816880979 10.419155476299197 17.963724190323425 0 0 0
142 48 1 -0.8476 20.94717433246597 8.12245424202765 13.017678605726983 -1 0 0
941 314 2 0.4238 18.913191547697714 9.903778973519744 17.56688547069328 0 0 0
1170 390 2 0.4238 21.638004680416955 12.063232011776668 13.811376179571239 0 0 0
1287 429 2 0.4238 20.44798349675515 10.853782865557042 18.854879104587482 0 0 0
266 89 2 0.4238 24.5245354492531 7.916643156361572 17.452190995304854 -1 -1 0
716 239 2 0.4238 24.640272323945723 11.424807300645101 14.560490029782938 -1 0 0
111 37 2 0.4238 4.2219452364035845 12.337313095062239 14.993476502625423 0 0 -1
519 173 2 0.4238 0.12908366769395874 15.357839830087366 14.464070962414365 0 0 0
517 173 1 -0.8476 0.5632549892514134 14.471314985459424 14.30409362736204 0 0 0
518 173 2 0.4238 0.9958870151820974 14.469902820565867 13.40251081215611 0 0 0
1182 394 2 0.4238 2.3760463213221352 13.958033735379415 14.836251938717961 0 0 0
1180 394 1 -0.8476 3.320818923070516 13.908829354670408 15.160301637300883 0 0 0
1181 394 2 0.4238 3.535836827780732 14.73131025024544 15.686910568941101 0 0 0
536 179 2 0.4238 4.938645875160991 16.629235157753705 16.693926358424974 0 0 0
535 179 1 -0.8476 4.942859507353559 16.50658044358589 15.701473252229546 0 0 0
537 179 2 0.4238 5.755015392414409 15.988507843257745 15.433093392342066 0 0 0
405 135 2 0.4238 24.45551394601143 11.408675495955126 17.17660728965376 -1 0 0
1341 447 2 0.4238 6.122862103799447 18.950742851669233 16.655662491623673 0 0 0
770 257 2 0.4238 3.460300977536161 17.604470925703865 15.246616400805141 0 -1 0
1161 387 2 0.4238 0.8645979755488834 17.264719890815748 12.815557006318643 0 0 0
215 72 2 0.4238 1.2134079766617387 17.448609818201845 14.845135483737845 0 0 0
214 72 1 -0.8476 0.3285618934110771 17.102007149820352 14.533787577405555 0 0 0
216 72 2 0.4238 24.58937179728254 17.47130364931219 15.114374458288587 -1 0 0
456 152 2 0.4238 1.6374465082429257 16.176552708891954 17.05004720146657 0 0 1
1453 485 1 -0.8476 24.936460601527735 15.398148529187994 17.68761656642902 0 0 0
170 57 2 0.4238 3.859965328128966 16.489698030780502 18.0086215192891 0 0 0
169 57 1 -0.8476 4.791999292407221 16.364029859274503 18.348539361104315 0 0 0
876 292 2 0.4238 8.368143940457259 16.76763884787036 13.808128306345049 0 0 0
609 203 2 0.4238 8.617962049220043 12.239010108938047 12.218687111096903 0 0 0
425 142 2 0.4238 5.9455351476767735 15.170800471420954 13.603394168047311 0 0 0
875 292 2 0.4238 9.004983127107987 17.415307129500384 15.165203209253033 0 0 0
874 292 1 -0.8476 8.732158717379683 17.60230209543453 14.221474214933593 0 0 0
553 185 1 -0.8476 7.175603126444033 14.872761002484458 14.817142658311907 0 0 0
554 185 2 0.4238 7.805914579669969 15.278167332574702 15.47924327757502 0 0 0
555 185 2 0.4238 7.1014438763346925 13.889920084701425 14.986108536805109 0 0 0
611 204 2 0.4238 8.64369808371964 17.636670905830634 19.032377749365644 0 0 0
612 204 2 0.4238 9.836225224566107 18.63413041095083 18.53273360076183 0 0 0
285 95 2 0.4238 8.833042133986561 16.176520888297098 17.548598777731705 0 0 0
1069 357 1 -0.8476 12.742776909380334 17.242308239409766 16.63565117694837 0 0 0
283 95 1 -0.8476 9.198433137990646 16.245962537880416 16.62032502318135 0 0 0
284 95 2 0.4238 10.007499812654318 15.664275639542925 16.53620315673932 0 0 0
1070 357 2 0.4238 12.453520960707923 16.28542392688383 16.60868114503954 0 0 0
1071 357 2 0.4238 12.60494988635404 17.657655558994165 15.736476973752797 0 0 0
392 131 2 0.4238 12.123008047674588 14.191648632229187 15.847503032759764 -1 0 0
393 131 2 0.4238 11.567560111163761 14.381602620962601 17.371342050194492 -1 0 0
391 131 1 -0.8476 11.51337254400599 14.725182796148609 16.433770472794883 -1 0 0
563 188 2 0.4238 12.406223822718252 17.91997774260873 18.201914196715435 0 -1 0
674 225 2 0.4238 15.18771996767985 16.178918828043727 11.102694871757958 0 1 1
673 225 1 -0.8476 16.06493131302549 16.015657722707807 11.554214868466904 0 1 1
1131 377 2 0.4238 14.777633499201437 12.924129934061618 12.067032940522935 0 0 0
1129 377 1 -0.8476 15.519065471863827 13.264199314358178 11.48853718317965 0 0 0
1338 446 2 0.4238 15.90869332315366 15.285012325518753 13.222403506576581 0 0 0
1337 446 2 0.4238 16.62469155729066 15.664554384049172 14.640142589403121 0 0 0
1336 446 1 -0.8476 15.911569728916518 15.112924765752531 14.207493125164113 0 0 0
1175 392 2 0.4238 12.125735396843984 14.686650658676587 13.345449844815759 0 0 0
73 25 1 -0.8476 13.475996349470037 13.577606613909255 15.093976313152277 -1 0 0
75 25 2 0.4238 14.31095825241151 14.118145276487336 14.990630126906188 -1 0 0
1174 392 1 -0.8476 11.971346460933527 15.557253153141279 12.878288588201348 0 0 0
1532 511 2 0.4238 16.380927856065675 17.26149827479758 20.775891594176173 0 0 0
74 25 2 0.4238 13.716456688475692 12.62097642726551 15.25848015302829 -1 0 0
1531 511 1 -0.8476 16.082633513678502 16.630815807172183 20.059452940716056 0 0 0
1533 511 2 0.4238 16.863230588872277 16.090937395242698 19.74445473787752 0 0 0
315 105 2 0.4238 17.537973418813266 13.544015955166028 14.570541143250308 -1 0 0
313 105 1 -0.8476 17.80001443688826 12.72368484025071 15.078887378209659 -1 0 0
933 311 2 0.4238 11.856726445604517 17.140517206430687 13.763715612080203 0 0 0
373 125 1 -0.8476 17.385977875193973 17.506983351784868 15.095837793032052 0 0 0
931 311 1 -0.8476 12.024568434022612 18.024571706128057 14.199951668454272 0 0 0
725 242 2 0.4238 15.68180465064242 17.282115448368614 18.5899915867451 -1 0 0
726 242 2 0.4238 14.577531759346638 17.261830557261483 17.3871362051931 -1 0 0
123 41 2 0.4238 18.69435358766465 14.53982178949093 12.15607100904911 -1 0 0
1154 385 2 0.4238 22.372224976912833 13.496511727701398 12.392754621062059 0 0 0
1153 385 1 -0.8476 22.653646647396826 14.40407404886446 12.081054333467346 0 0 0
1155 385 2 0.4238 22.25639573568848 15.09999548066257 12.679309790423648 0 0 0
375 125 2 0.4238 17.247618825500574 17.48022909842574 16.085870334235857 0 0 0
1168 390 1 -0.8476 21.263321611175762 12.041806482416382 12.884457794599287 0 0 0
1169 390 2 0.4238 20.305745720908206 12.329276219576153 12.905287092937241 0 0 0
1391 464 2 0.4238 20.012299139165165 16.561823977445357 13.313956482403187 0 0 0
1392 464 2 0.4238 18.507575534146582 16.88071230993436 13.862415967107117 0 0 0
183 61 2 0.4238 19.155572004065704 13.27344424671087 16.1009112736037 -1 0 0
182 61 2 0.4238 20.0199391183396 14.50378561796062 16.737951497884055 -1 0 0
181 61 1 -0.8476 20.022432969679798 13.525395733917964 16.531139813487123 -1 0 0
477 159 2 0.4238 22.29828844857881 14.6389485862342 17.34748831215328 -1 0 0
176 59 2 0.4238 23.034634128884747 12.618756112545546 16.095086500338752 -1 0 0
177 59 2 0.4238 21.63238956590846 12.856149003655098 16.89761095481319 -1 0 0
175 59 1 -0.8476 22.624490626351367 12.775239301497479 16.9935958709071 -1 0 0
1390 464 1 -0.8476 19.058764539005175 16.26066267425402 13.304066600859446 0 0 0
1420 474 1 -0.8476 21.650168237084095 15.660567983931909 14.381889603584758 0 0 0
1422 474 2 0.4238 21.77340835127619 15.748954229278407 15.370335402289374 0 0 0
443 148 2 0.4238 22.136179880934357 17.101974831603826 13.260622790240982 -1 0 0
1202 401 2 0.4238 19.01011483483444 17.005454770909296 17.43888910065821 0 0 0
476 159 2 0.4238 21.405183855876253 15.925541369754354 17.809801998286332 -1 0 0
1201 401 1 -0.8476 19.24782556843966 16.03538385387005 17.488700596633933 0 0 0
475 159 1 -0.8476 22.194125110195635 15.630555735013823 17.270747798902512 -1 0 0
717 239 2 0.4238 24.44073279225759 13.044783226272346 14.50997038062762 -1 0 0
715 239 1 -0.8476 24.013658470490498 12.177043652313753 14.764253009579516 -1 0 0
1455 485 2 0.4238 24.033598160964758 15.358727497832605 17.259470528747308 0 0 0
483 161 2 0.4238 4.870638820552714 20.594521685954632 13.939781432294199 0 0 0
771 257 2 0.4238 3.6513388697906546 18.053142535551785 13.68812723865746 0 -1 0
683 228 2 0.4238 0.8823079643263256 23.278272752388666 13.81083535956811 0 0 0
769 257 1 -0.8476 3.112930469999759 18.195640143924408 14.518690025831939 0 -1 0
47 16 2 0.4238 2.7098682770443028 23.882768502425698 16.762850389732158 0 -1 0
481 161 1 -0.8476 3.885505764563467 20.64128051346512 14.105160884045349 0 0 0
482 161 2 0.4238 3.5187332649160004 19.715560546589934 14.19759719229136 0 0 0
41 14 2 0.4238 1.923745800033931 20.2342571055677 14.998061621992235 0 -1 0
236 79 2 0.4238 3.007077191687543 21.945939008720053 13.274229671163766 0 0 0
235 79 1 -0.8476 2.388357312439286 22.628276483656457 12.884838666920281 0 0 0
258 86 2 0.4238 4.725137786239038 21.384304578278346 17.264917308649842 0 -1 0
257 86 2 0.4238 3.7876014416772823 20.667217846975113 16.136421498684136 0 -1 0
256 86 1 -0.8476 4.1004192028481725 20.62438238849147 17.08528099263939 0 -1 0
40 14 1 -0.8476 1.0218544124744053 20.592676962159295 15.239207546551407 0 -1 0
682 228 1 -0.8476 0.3698148897726005 23.241310687680503 14.668745481807063 0 0 0
854 285 2 0.4238 24.701464668199748 22.67016069581019 18.466853669433526 -1 0 0
42 14 2 0.4238 0.9055158327560351 21.50069706450241 14.836728011579861 0 -1 0
684 228 2 0.4238 0.28862950674156485 24.16285190998134 15.048476854234542 0 0 0
237 79 2 0.4238 2.883151987123321 23.18431474834251 12.216988540893452 0 0 0
455 152 2 0.4238 2.0012942471928996 17.752858275251207 17.2726824655997 0 0 1
454 152 1 -0.8476 2.3691294919162518 16.857605412111575 17.021197648449707 0 0 1
829 277 1 -0.8476 7.557126137865538 23.769644297062122 12.416518705746615 0 -1 0
831 277 2 0.4238 7.634871984629526 22.81975248237172 12.113723032952144 0 -1 0
1299 433 2 0.4238 10.7149663979014 24.81906021659458 12.382781607506876 0 -1 -1
610 204 1 -0.8476 8.846034405277258 18.4987890102025 18.56779498736215 0 0 0
1339 447 1 -0.8476 6.966936666770472 18.92539399898211 16.120013761791206 0 0 0
934 312 1 -0.8476 6.501623987406951 22.546180239367906 17.388218360075918 0 0 0
327 109 2 0.4238 7.681361914355109 20.705647863038692 12.297061850305544 0 0 0
1340 447 2 0.4238 7.732374513370225 18.68132919014152 16.71546420071123 0 0 0
1152 384 2 0.4238 9.363398164424485 19.526871491018888 13.755125235815587 0 0 0
326 109 2 0.4238 9.098505665874178 21.426206197567275 11.92398038989547 0 0 0
639 213 2 0.4238 6.861435778511233 19.721024631635018 14.619041003924032 0 0 0
638 213 2 0.4238 7.290802503647928 21.285920650591876 14.436189076943483 0 0 0
983 328 2 0.4238 11.514835684387545 21.180572511067545 13.884211364401418 0 -1 0
984 328 2 0.4238 11.901374685842654 21.60561803419222 15.412810370033377 0 -1 0
982 328 1 -0.8476 11.793973293531808 21.937197672836348 14.47550300544199 0 -1 0
637 213 1 -0.8476 6.899933644376637 20.48759508488859 13.978017099698336 0 0 0
849 283 2 0.4238 7.725876512546638 23.498261743857093 14.116463100244847 0 0 0
848 283 2 0.4238 8.654415932041092 23.61205259538339 15.454953049954536 0 0 0
847 283 1 -0.8476 7.909405973428928 23.107566742893916 15.018515151435702 0 0 0
191 64 2 0.4238 10.826408859751842 23.686352424366653 15.006360389694693 -1 0 0
190 64 1 -0.8476 10.18722633697559 24.25628839179695 15.522734930961157 -1 0 0
1150 384 1 -0.8476 10.284813601573935 19.773147108862737 13.454515847837058 0 0 0
1151 384 2 0.4238 10.93382872176595 19.079315261652717 13.766606911816075 0 0 0
936 312 2 0.4238 7.018452833854646 22.620268922005337 16.535327453460027 0 0 0
966 322 2 0.4238 8.001148699761387 19.879122802160488 18.777471333377783 0 0 0
1018 340 1 -0.8476 12.051465688766292 21.501097111946045 17.394775420973602 0 -1 0
1045 349 1 -0.8476 13.306815921956092 23.494639760066093 12.705685406459265 0 -1 0
738 246 2 0.4238 12.748219622776116 20.60908913244979 11.957247280416558 0 -1 0
932 311 2 0.4238 12.77481260586426 18.49060417435173 13.730939998938705 0 0 0
736 246 1 -0.8476 13.541627946782272 20.006637463556615 12.044307841779629 0 -1 0
737 246 2 0.4238 14.336556049530472 20.541615697086144 12.330511070168097 0 -1 0
1525 509 1 -0.8476 15.606882596909026 21.66012605511392 13.314020530945532 0 0 0
1526 509 2 0.4238 16.196656100373346 20.93525731275099 13.670049895842585 0 0 0
1173 391 2 0.4238 16.071530520101454 22.37351673762757 11.804806443061565 0 0 0
724 242 1 -0.8476 15.421878086952598 17.686939960524377 17.71330431237773 -1 0 0
1527 509 2 0.4238 15.538758785734334 22.39563051351854 13.98812508590107 0 0 0
397 133 1 -0.8476 16.541128618451495 20.22741480364973 17.493722473302363 -1 0 0
374 125 2 0.4238 17.9993329515913 18.262409253294358 14.865292994877962 0 0 0
398 133 2 0.4238 16.01564946331053 19.378408919438783 17.549272629120203 -1 0 0
1213 405 1 -0.8476 14.11571175488446 22.908830419675894 17.041194223894692 0 0 0
1019 340 2 0.4238 12.732826146563658 22.196477398509927 17.16625759155732 0 -1 0
399 133 2 0.4238 16.066079276953133 20.947165607615958 17.999994414539792 -1 0 0
1046 349 2 0.4238 12.830747473591883 22.957248615353443 13.401812466882854 0 -1 0
1215 405 2 0.4238 14.64907365377877 23.28628287839171 16.28417453514127 0 0 0
1214 405 2 0.4238 14.371935816481287 23.368803569934073 17.89136951581156 0 0 0
1421 474 2 0.4238 20.75576650503985 15.25538833373724 14.192418351465829 0 0 0
1204 402 1 -0.8476 18.78604344096167 18.708226562509665 17.17480792936223 0 0 0
1206 402 2 0.4238 19.49637006841951 19.24521147362021 16.719718040986344 0 0 0
195 65 2 0.4238 18.645979687511037 22.630075431607622 12.723841612296292 -1 0 0
661 221 1 -0.8476 18.828467583065624 19.33718689830758 13.866732119079094 -1 0 0
662 221 2 0.4238 19.028642869802276 18.98543024125523 12.95228084035914 -1 0 0
663 221 2 0.4238 18.741925717281802 20.33274507947445 13.829336476766532 -1 0 0
1205 402 2 0.4238 17.890365149399848 19.10909615092813 16.982225745522463 0 0 0
193 65 1 -0.8476 18.798264314342354 21.99633965444231 13.482269144802343 -1 0 0
231 77 2 0.4238 21.801820525627534 20.90348192307725 16.012274072464727 -1 0 0
230 77 2 0.4238 21.405545702263943 20.501616244759127 17.54464545280115 -1 0 0
229 77 1 -0.8476 21.256254182942747 20.28653688663791 16.579514472232255 -1 0 0
457 153 1 -0.8476 22.63374495674652 21.755093024882875 14.773169322130867 -1 0 0
458 153 2 0.4238 22.487012757403555 21.702004984347845 13.785406601512143 -1 0 0
194 65 2 0.4238 19.2755296336542 22.47050804834484 14.22213937885072 -1 0 0
1486 496 1 -0.8476 18.72146258001454 22.782469009419927 18.94496267037396 0 -1 -1
1488 496 2 0.4238 19.538376470303497 23.33919043261544 19.095753388988435 0 -1 -1
459 153 2 0.4238 23.548118848368844 22.116690083439124 14.955355612129665 -1 0 0
972 324 2 0.4238 22.866897501584177 19.151421798248656 15.962650482403777 -1 0 0
855 285 2 0.4238 24.447183933229063 24.00895123026787 19.36667133730535 -1 0 0
971 324 2 0.4238 24.34523910811925 19.423420192870033 15.324517110575913 -1 0 0
970 324 1 -0.8476 23.784025202854146 18.773225350709886 15.836679519915245 -1 0 0
431 144 2 0.4238 5.189120379506221 24.034667186525425 16.322320165506717 0 0 1
48 16 2 0.4238 1.2220581464648939 24.555903068820427 16.76382047945168 0 -1 0
1297 433 1 -0.8476 10.034058969533747 0.030781779297693677 11.677718013994072 0 0 -1
1298 433 2 0.4238 9.232686979218169 24.435075526093797 11.815248311445472 0 -1 -1
192 64 2 0.4238 10.598614480957488 24.509081260923637 16.398451472215854 -1 0 0
773 258 2 0.4238 16.542085319418376 24.45923415136552 15.634887102549355 0 -1 0
255 85 2 0.4238 12.299284011766272 24.237516807752158 17.905281604203715 0 -1 0
1047 349 2 0.4238 13.625422325269898 24.35315826772051 13.107505795734047 0 -1 0
772 258 1 -0.8476 15.689357617453425 24.098164874166827 15.257382751283945 0 -1 0
423 141 2 0.4238 22.150290654108566 23.692699738896707 13.286137950604388 -1 0 0
821 274 2 0.4238 20.762998692166505 23.726914172664806 15.05458210652064 0 -1 0
822 274 2 0.4238 20.592804314175176 22.318935434210424 15.864100836677592 0 -1 0
820 274 1 -0.8476 20.10521642124943 23.095992983939567 15.466025539660082 0 -1 0
620 207 2 0.4238 5.251844700097064 0.8799206415333116 18.940059199094392 0 1 0
812 271 2 0.4238 5.2237504586214385 2.8798228882404078 21.491821194937643 0 0 -1
1388 463 2 0.4238 1.8312560713862434 4.203870826442025 19.149590020117394 1 1 0
566 189 2 0.4238 4.263566500288986 4.901848609441678 21.23960742194049 0 0 0
1471 491 1 -0.8476 2.9215356245371216 2.9838492403079284 19.580213759243556 1 0 0
1472 491 2 0.4238 3.3893558160522366 3.274782346211808 20.414795270234258 1 0 0
1473 491 2 0.4238 3.5005991068053173 2.3393260711466097 19.08091476062536 1 0 0
1016 339 2 0.4238 1.774861118114154 1.788416927146665 19.53512011239924 0 0 0
1387 463 1 -0.8476 1.1294796486044407 4.894456073399054 18.974587641812732 1 1 0
1015 339 1 -0.8476 1.248587299173321 0.9416713931246463 19.45713466075329 0 0 0
1389 463 2 0.4238 1.543521206691449 5.804366399571061 19.000214688827 1 1 0
81 27 2 0.4238 1.5125549478332472 5.597330479370763 23.274741640309394 0 0 0
813 271 2 0.4238 5.618832739929936 1.2964980714162728 21.43113239916937 0 0 -1
811 271 1 -0.8476 5.956342721913449 2.2280274941451226 21.295618694568667 0 0 -1
80 27 2 0.4238 1.3978140635554128 4.025246908062715 22.848033944277482 0 0 0
79 27 1 -0.8476 1.8793934193023434 4.680154914709214 23.430444377369106 0 0 0
1410 470 2 0.4238 0.2554454900430906 3.6756982397751936 21.247431210479256 1 1 -1
1324 442 1 -0.8476 4.430571320042325 7.613271311580261 21.150812456403678 0 0 -1
1326 442 2 0.4238 4.911694554196659 7.745907510699274 20.28423762530798 0 0 -1
1446 482 2 0.4238 3.860477121296304 0.5264737494134942 22.679950900072022 1 1 -1
567 189 2 0.4238 3.547324931568388 4.300309248134941 22.578202843860197 0 0 0
565 189 1 -0.8476 4.089198046063793 4.071815095713363 21.769384590038477 0 0 0
951 317 2 0.4238 5.561370010097539 2.2424280639824756 24.295400771462674 0 1 -1
254 85 2 0.4238 11.213258869019105 0.328471456512722 18.47661868407817 0 0 0
677 226 2 0.4238 10.030232409765052 2.115851353544193 23.1634864469625 0 1 -1
676 226 1 -0.8476 10.093598577483872 3.1025373838029218 23.0136218685453 0 1 -1
678 226 2 0.4238 11.042082161776515 3.349241098100061 22.814774468033008 0 1 -1
77 26 2 0.4238 7.251430690115309 2.9687908131447887 18.54652196895399 0 0 0
76 26 1 -0.8476 7.79780999412258 2.724574932822544 19.347678786870013 0 0 0
78 26 2 0.4238 7.191238649624217 2.537861933568949 20.12048761938032 0 0 0
1419 473 2 0.4238 9.602964345275046 2.261488405884593 19.438190492150035 0 0 -1
1418 473 2 0.4238 10.810473406822 1.420721309001383 20.146513940123683 0 0 -1
186 62 2 0.4238 9.904498481757043 24.75824438430316 21.38733954625819 0 -1 0
185 62 2 0.4238 11.358177139116204 24.738882372707174 22.13107018673645 0 -1 0
184 62 1 -0.8476 10.85650825173162 0.07192284620205722 21.327158233266083 0 0 0
1417 473 1 -0.8476 10.551697598019825 1.9594912914241147 19.344774779128464 0 0 -1
1239 413 2 0.4238 7.811633199052411 4.597851738767003 19.300748800732563 0 0 0
521 174 2 0.4238 8.562706064495323 4.1703789542391325 22.911370563695456 0 0 -1
920 307 2 0.4238 12.471320681767756 2.620557403563516 19.338376746759963 0 0 -1
520 174 1 -0.8476 7.967085666228953 4.968446396426607 23.00274226443934 0 0 -1
921 307 2 0.4238 13.945610895989484 2.4709979863242024 20.024518564512668 0 0 -1
919 307 1 -0.8476 13.17036148560442 3.0861784565909725 19.881113383453275 0 0 -1
950 317 2 0.4238 6.403760579944885 2.81780272714886 23.020248493537416 0 1 -1
156 52 2 0.4238 16.833339653706773 5.742442929629821 23.775518344144942 -1 0 0
1078 360 1 -0.8476 12.116523995961177 24.606716292160726 23.981014293021758 0 -1 0
1079 360 2 0.4238 11.976545181188431 0.46414854994484356 24.498974022887204 0 0 0
1164 388 2 0.4238 15.773955887052423 1.875818581839291 1.4312005185227572 0 1 0
168 56 2 0.4238 18.251529563257535 5.450593504264089 20.160760256125762 -1 1 0
1080 360 2 0.4238 12.947163668778494 24.68765611594884 23.430096285344035 0 -1 0
1295 432 2 0.4238 13.920153447786225 4.461237593142819 18.674937308385672 0 0 0
1294 432 1 -0.8476 14.023912580257846 5.396617688889635 18.33682167331031 0 0 0
1477 493 1 -0.8476 15.273614265726414 1.3420669613287444 20.22830040494322 0 0 0
1478 493 2 0.4238 15.48154679963881 1.3426026538526665 21.2064558319895 0 0 0
1296 432 2 0.4238 14.424657186761898 5.967536020131027 19.053396928008375 0 0 0
1479 493 2 0.4238 16.113077133593684 1.5022295446321607 19.70899783062383 0 0 0
379 127 1 -0.8476 15.859494487752814 1.8570452718601764 23.147327827954918 -1 0 -1
380 127 2 0.4238 15.64510388498458 2.1798772424051087 24.069196208804073 -1 0 -1
975 325 2 0.4238 13.289095619308954 5.194894292521613 22.230367269461276 0 0 -1
973 325 1 -0.8476 12.500646054163928 4.579885449152352 22.218729145745087 0 0 -1
1233 411 2 0.4238 14.898075835651097 0.5809613523661233 22.767127589203483 0 0 0
1281 427 2 0.4238 14.99361839328176 6.609186926844906 23.33430797506947 0 0 -1
974 325 2 0.4238 12.523540662253069 4.0242842942211166 21.387581234868208 0 0 -1
1476 492 2 0.4238 15.903206825155353 4.562184026918009 17.32575204800493 0 0 0
381 127 2 0.4238 16.77987285415719 1.4661299053188355 23.13669704482942 -1 0 -1
1451 484 2 0.4238 18.46199005216151 1.0504385600402921 19.89238967804505 0 1 0
1450 484 1 -0.8476 19.180145277698948 0.7756920392538177 20.53175851176956 0 1 0
1523 508 2 0.4238 23.169550163193975 5.409855200222337 0.25221473989187965 0 0 0
1409 470 2 0.4238 0.6069441717423708 2.0874187742876247 21.104225903405926 1 1 -1
102 34 2 0.4238 19.05176965156076 2.0086224452103654 22.14641989571335 -1 0 0
1314 438 2 0.4238 18.215866053232595 4.129901080944305 22.138378137806313 0 0 0
1312 438 1 -0.8476 18.385029163740036 5.075618805165676 21.86084446265137 0 0 0
166 56 1 -0.8476 18.484997589121342 5.444262866697332 19.18840404152317 -1 1 0
1207 403 1 -0.8476 21.21916728196684 5.343245102909634 18.45025335744507 0 0 0
1209 403 2 0.4238 22.057711275546566 4.923278644500146 18.797380764688448 0 0 0
503 168 2 0.4238 24.549526034844973 4.8351297413441285 19.5307050311161 -1 0 0
100 34 1 -0.8476 19.33018380011039 2.5003271036877983 22.971487708400616 -1 0 0
1307 436 2 0.4238 22.823154086080116 1.6629065700282648 19.99760062945675 0 0 0
101 34 2 0.4238 20.268016249724553 2.8299259927432234 22.86258700928971 -1 0 0
1306 436 1 -0.8476 22.311876860244396 2.34562803799092 20.519626031757902 0 0 0
1308 436 2 0.4238 22.72027914044338 3.2474912888036838 20.378649681798862 0 0 0
1026 342 2 0.4238 22.384137219251343 2.40228694223898 22.722610884667574 0 0 0
1184 395 2 0.4238 21.220027774381187 0.5605983354172549 23.880227742105973 0 1 0
502 168 1 -0.8476 23.59930898629633 4.82083242897148 19.842004228717464 -1 0 0
460 154 1 -0.8476 23.31382452641718 6.739653171010774 21.70416497340573 -1 1 -1
504 168 2 0.4238 23.373565238364954 5.6988851904923585 20.264007497869187 -1 0 0
1452 484 2 0.4238 19.901612468957936 0.29296905304410603 20.035282304937766 0 1 0
1024 342 1 -0.8476 22.12663193920846 2.4089179227125452 23.68887761720633 0 0 0
167 56 2 0.4238 19.479547345116586 5.452485008720085 19.084349838162915 -1 1 0
462 154 2 0.4238 22.459965280010614 6.407448686712079 22.104899850408252 -1 1 -1
1313 438 2 0.4238 19.338411684455025 5.31244044972192 22.0479316424477 0 0 0
1554 518 2 0.4238 18.49248046641604 4.130649174051648 0.853992738001971 0 1 1
1552 518 1 -0.8476 17.93177288554748 3.5358724167003515 0.2779098846449462 0 1 1
1553 518 2 0.4238 18.46863626285792 3.231471512859626 24.477510316240092 0 1 0
1025 342 2 0.4238 22.41576113447295 3.2710646399175176 24.104970232777568 0 0 0
18 6 2 0.4238 24.482429455520922 1.1695085886876047 19.0321355804573 -1 0 0
1408 470 1 -0.8476 0.5775950369322662 2.8636278328039686 21.734037379616204 1 1 -1
1530 510 2 0.4238 3.295052389703729 10.001220457161596 24.352699917585753 1 0 -1
1528 510 1 -0.8476 3.535203074203633 10.97196783883584 24.351614933914263 1 0 -1
1529 510 2 0.4238 2.856524313169016 11.482640065590475 23.82375819072886 1 0 -1
939 313 2 0.4238 24.643482744634845 9.789348190367903 20.481168750255847 -1 0 0
89 30 2 0.4238 2.6515025351243904 7.726704852754632 20.031536729532988 0 0 -1
1325 442 2 0.4238 5.045870158503544 7.18274249716205 21.811173188514196 0 0 -1
937 313 1 -0.8476 0.5383421538847262 9.99901432781018 20.057674844750366 0 0 0
938 313 2 0.4238 0.3865788405959333 10.44418407171228 19.175169485394058 0 0 0
88 30 1 -0.8476 1.7409894618861697 7.486443628766515 19.69498987501207 0 0 -1
90 30 2 0.4238 1.1640460405436905 8.303145755258663 19.682424503406203 0 0 -1
272 91 2 0.4238 4.102913369430145 10.814988879715067 22.039123506230816 0 0 -1
1375 459 1 -0.8476 1.056468115606688 7.281906279716824 22.499060407975833 1 0 0
1377 459 2 0.4238 1.3278992413392128 7.230918595259491 21.537941262013568 1 0 0
561 187 2 0.4238 1.7481900305729647 10.596537968404062 21.048459723829403 0 0 0
1329 443 2 0.4238 8.356739548505523 9.223217613907048 18.243755244010657 0 0 -1
273 91 2 0.4238 4.906552772781154 9.395442235592203 22.114896599223435 0 0 -1
271 91 1 -0.8476 4.9944779820721905 10.374765088597254 21.93263154714122 0 0 -1
1563 521 2 0.4238 2.4657250804673025 7.945790189950312 23.217120368544087 1 0 0
559 187 1 -0.8476 2.3774681719568185 11.214795578493508 21.51940624097844 0 0 0
1328 443 2 0.4238 8.115448176932592 9.648607405753074 19.801802975426646 0 0 -1
1562 521 2 0.4238 3.9248199107177935 7.944068215766194 23.950420426757596 1 0 0
1132 378 1 -0.8476 5.387688324434616 7.148990973261619 23.724111937726086 1 0 0
1561 521 1 -0.8476 3.0123515703079202 8.353240827425807 23.948699083953755 1 0 0
1374 458 2 0.4238 7.550529945410965 6.276005437701682 21.982743423706523 0 0 0
252 84 2 0.4238 9.52718428097103 6.140413918326956 22.770129778916676 0 0 -1
1327 443 1 -0.8476 8.655073907084551 9.830834488811393 18.979841080730658 0 0 -1
251 84 2 0.4238 11.13000983844469 6.027603329825041 22.478729122022493 0 0 -1
1258 420 1 -0.8476 6.0308584088995465 7.593915327181233 18.894233168285993 0 0 0
872 291 2 0.4238 7.663833392104612 9.072476817186567 22.86709943503955 0 0 -1
1238 413 2 0.4238 8.555410750228274 5.8635334216220265 18.585532082517354 0 0 0
1237 413 1 -0.8476 7.82301799645792 5.59373622132252 19.210699579926647 0 0 0
11 4 2 0.4238 7.823295624509452 11.66081637717874 18.52972564259167 -1 0 0
1260 420 2 0.4238 6.5310336656569925 6.731544193506692 18.815711732087635 0 0 0
1373 458 2 0.4238 7.578646145217195 6.9420374875061635 20.492004804972986 0 0 0
1372 458 1 -0.8476 7.666354378589633 7.127197390654422 21.470803858413447 0 0 0
12 4 2 0.4238 8.56132582765642 12.933080357929095 17.820256886493574 -1 0 0
10 4 1 -0.8476 7.701527572417936 12.599390698385886 18.20680884745773 -1 0 0
250 84 1 -0.8476 10.425674866736168 6.5208170405292565 22.989294459107725 0 0 -1
420 140 2 0.4238 6.556496387054312 10.296565739156465 21.474335109641217 0 0 0
418 140 1 -0.8476 7.545720153625511 10.243229193753342 21.33789613357601 0 0 0
816 272 2 0.4238 9.669030064685 9.630103976242982 21.00300220859988 0 0 -1
815 272 2 0.4238 10.002639232362252 8.355887201346833 21.96828297851426 0 0 -1
814 272 1 -0.8476 10.349268594502085 9.224151675939764 21.61333240529426 0 0 -1
419 140 2 0.4238 7.921461912183014 11.166532999789172 21.258194805454046 0 0 0
51 17 2 0.4238 11.583421417394554 8.818864524528315 20.143669522228684 -1 0 0
1123 375 1 -0.8476 9.5814101911158 12.017332425179003 15.959821582705214 0 0 0
1124 375 2 0.4238 9.686700376131432 12.730545903761376 15.266810358834576 0 0 0
1272 424 2 0.4238 8.749124358330581 12.006900596894878 24.515568151561318 0 0 -1
1271 424 2 0.4238 7.12750474828704 12.052502381351136 24.32858963925014 0 0 -1
942 314 2 0.4238 17.732655584558998 8.901777342263706 18.08555510804002 0 0 0
1077 359 2 0.4238 10.882195807111772 11.024223391507519 17.486321968212515 0 0 0
1279 427 1 -0.8476 14.317126319802549 7.0084157827260425 22.7154381230215 0 0 -1
1076 359 2 0.4238 11.330896448940655 9.66733403689265 16.69625243220714 0 0 0
1075 359 1 -0.8476 11.320721301440152 10.130642057798976 17.582405424770066 0 0 0
69 23 2 0.4238 16.1211527116141 7.917043789622828 18.961627791035696 -1 0 0
67 23 1 -0.8476 16.84048182084768 7.42481918068855 18.47141884342154 -1 0 0
1280 427 2 0.4238 13.764691904389899 7.6776315415161305 23.212420569723868 0 0 -1
49 17 1 -0.8476 11.992101817605903 8.38084692586326 19.342954230187267 -1 0 0
50 17 2 0.4238 11.798907871395132 8.92820653025458 18.52864614073401 -1 0 0
287 96 2 0.4238 14.371440681000092 7.22664454491879 20.999355404012228 -1 0 0
286 96 1 -0.8476 14.579429890357654 7.69013887421224 20.137997599895478 -1 0 0
288 96 2 0.4238 13.727622397827698 7.977541174573374 19.699993026083824 -1 0 0
113 38 2 0.4238 16.01609363912879 9.282777441900814 20.685533637279825 -1 0 -1
68 23 2 0.4238 17.222042368175607 6.71525936080848 19.063838632600977 -1 0 0
112 38 1 -0.8476 16.766264831603188 9.863482784268474 21.001838678130916 -1 0 -1
838 280 1 -0.8476 18.416215141367267 8.659922037193915 23.548274366130173 0 0 -1
150 50 2 0.4238 14.515844218429269 12.555213702847103 22.564010509305895 -1 0 0
149 50 2 0.4238 13.416863499343624 11.772027559470956 23.483549432852584 -1 0 0
915 305 2 0.4238 16.738058517313554 9.315374739322936 23.88171531901544 0 1 0
148 50 1 -0.8476 13.904810679494748 12.634885785872559 23.35161121782395 -1 0 0
940 314 1 -0.8476 17.926943363826176 9.738573372037512 17.57364831031701 0 0 0
1277 426 2 0.4238 18.727964085642277 9.10097268321179 20.57395596161286 0 0 0
265 89 1 -0.8476 23.597734381364475 7.923295005054958 17.827716924379736 -1 -1 0
114 38 2 0.4238 16.49229217950507 10.33474527439526 21.84021511217258 -1 0 -1
839 280 2 0.4238 18.89406969389941 8.877753416227048 22.697258142148677 0 0 -1
883 295 1 -0.8476 21.463075640881563 11.423518343297575 20.866919986179603 -1 0 0
885 295 2 0.4238 21.9627898664152 12.18451477649261 20.453164032704947 -1 0 0
461 154 2 0.4238 23.188902119911802 7.679095909855894 21.385000720302983 -1 1 -1
1276 426 1 -0.8476 19.502444370235672 8.84073052045722 21.150565453937915 0 0 0
1278 426 2 0.4238 20.26720047356833 9.462668460025396 20.982144763285802 0 0 0
666 222 2 0.4238 20.15960159173021 7.272932288945233 21.83999305584959 -1 0 0
664 222 1 -0.8476 20.704428968682564 6.59449899422326 22.332857554137462 -1 0 0
665 222 2 0.4238 20.63809319744977 6.764234846847599 23.31612421822407 -1 0 0
1266 422 2 0.4238 22.467631574679984 10.120038150811743 20.600849965686635 0 0 0
1264 422 1 -0.8476 23.128303661136755 9.370882143611716 20.552856510565846 0 0 0
1265 422 2 0.4238 23.06868039341513 8.930771694468818 19.65688073090893 0 0 0
840 280 2 0.4238 19.084900429276168 8.498465270991684 24.274095066936766 0 0 -1
584 195 2 0.4238 21.86986118938094 11.650269631083033 24.290313718103356 -1 0 -1
583 195 1 -0.8476 21.259975030038106 11.434851863498276 23.527648504752726 -1 0 -1
884 295 2 0.4238 21.43220294179354 11.545193522040801 21.859021762538475 -1 0 0
585 195 2 0.4238 20.328454051781748 11.718423955533822 23.75542118432943 -1 0 -1
1053 351 2 0.4238 0.5170706681474697 9.634549159327628 24.449564758369064 0 0 0
1376 459 2 0.4238 0.07866019501505567 7.482692850798729 22.559068695171895 1 0 0
1052 351 2 0.4238 1.1365973086795673 10.343724259461105 23.11541784824047 0 0 0
1051 351 1 -0.8476 0.6422459689304135 10.503075490714133 23.969963388139533 0 0 0
387 129 2 0.4238 2.8123577037913265 13.062253944026496 16.74624153002786 0 0 0
560 187 2 0.4238 1.8969939650500764 12.057247322929877 21.763215320632895 0 0 0
403 135 1 -0.8476 0.25566294885979957 11.276237153700965 17.779713033267456 0 0 0
385 129 1 -0.8476 2.4420714286656797 12.661587455584863 17.584321947059564 0 0 0
386 129 2 0.4238 2.4535126847413244 13.345325813162049 18.31397589277733 0 0 0
99 33 2 0.4238 6.559304270786347 13.592658947383502 19.093032900225452 0 0 0
311 104 2 0.4238 5.674618647131361 13.884344683430077 23.630560672090596 0 0 0
1380 460 2 0.4238 2.825660315981415 14.255475109572135 22.174420424296365 0 0 -1
98 33 2 0.4238 5.900401270072581 15.08460609004729 19.174463474923826 0 0 0
1379 460 2 0.4238 1.567315714546672 14.17707956610669 23.21226158040512 0 0 -1
1378 460 1 -0.8476 1.8956644477873756 13.91208394674142 22.30562562699204 0 0 -1
629 210 2 0.4238 0.6079980241755405 14.31556688814804 21.088074335140575 0 0 -1
97 33 1 -0.8476 6.142771785984562 14.269253010833461 19.700276895410745 0 0 0
1454 485 2 0.4238 24.83424047856699 15.390900177260074 18.682364008764814 0 0 0
404 135 2 0.4238 0.859105305971691 12.071417609245982 17.719959946367638 0 0 0
1137 379 2 0.4238 5.304503885037837 15.302462444591182 22.545671056398895 0 0 -1
1135 379 1 -0.8476 4.68260522592634 14.972951224452466 21.835256816476672 0 0 -1
171 57 2 0.4238 4.929251207843045 16.929472765070948 19.1618411509858 0 0 0
1350 450 2 0.4238 4.30134928572559 17.010189474042456 21.50653232259541 1 0 0
312 104 2 0.4238 5.3655204703971675 12.369606354349465 23.104521501731377 0 0 0
310 104 1 -0.8476 6.0204875825269335 12.946832424096183 23.592222710262853 0 0 0
299 100 2 0.4238 7.623937677727149 13.370646771813002 22.34427980448943 0 0 -1
300 100 2 0.4238 7.608805528350682 13.323260768436853 20.712037055043773 0 0 -1
1136 379 2 0.4238 5.190395798567041 14.837143994219206 20.984534133914046 0 0 -1
836 279 2 0.4238 9.748248030400188 15.627622416370555 19.315291785479033 0 0 0
835 279 1 -0.8476 8.772663316311506 15.846878100925057 19.328908854074896 0 0 0
837 279 2 0.4238 8.458351424650482 15.909748576765956 20.27615718561715 0 0 0
995 332 2 0.4238 8.543205614194736 16.01863621411433 22.921741293059384 0 -1 0
298 100 1 -0.8476 8.147144821290267 13.119733263823147 21.529834325299873 0 0 -1
903 301 2 0.4238 11.046681479871676 12.203871461932254 21.191234223850557 0 0 -1
1320 440 2 0.4238 11.66245844947191 15.126169140625455 20.451146425848677 0 0 0
901 301 1 -0.8476 10.704046728815303 13.143088286026991 21.16893886617941 0 0 -1
902 301 2 0.4238 9.7046097505134 13.134154066006111 21.201646308275514 0 0 -1
1318 440 1 -0.8476 11.444149546934137 15.520107366436177 19.558298159202863 0 0 0
1319 440 2 0.4238 11.86322576731099 16.424834034731155 19.481686120571382 0 0 0
994 332 1 -0.8476 8.476189821407113 16.49253327910617 22.043700486023376 0 -1 0
996 332 2 0.4238 9.005948020577113 17.339877010039267 22.08097776930658 0 -1 0
906 302 2 0.4238 10.999412761121862 18.044382972831315 20.68035516713646 0 0 0
904 302 1 -0.8476 10.718390968883638 18.247227228914703 21.618387969984674 0 0 0
905 302 2 0.4238 11.524063776103835 18.47188871432794 22.16651499575981 0 0 0
1044 348 2 0.4238 11.122831489134134 18.28824154276751 24.356762349359784 0 -1 0
261 87 2 0.4238 14.725267682566088 13.386011717239688 24.7392495290798 -1 -1 0
468 156 2 0.4238 16.782542335168877 12.057904892633092 18.45107922485075 0 0 0
466 156 1 -0.8476 17.15822675560554 12.253187004527193 19.357032157231743 0 0 0
672 224 2 0.4238 12.54885882679692 13.82008057966231 23.512250869324006 0 0 0
670 224 1 -0.8476 11.923071876047288 14.567141895028172 23.287943455072117 0 0 0
671 224 2 0.4238 11.397544187230787 14.32795290123027 22.471467560791957 0 0 0
562 188 1 -0.8476 12.052925061839705 18.193679998566466 19.096504130296786 0 -1 0
893 298 2 0.4238 15.618902375885556 14.342810613178017 20.946808079553968 0 0 -1
467 156 2 0.4238 17.3936278202523 11.39456329936346 19.812417899348098 0 0 0
892 298 1 -0.8476 15.780675713020841 13.414314906194143 21.28109716706475 0 0 -1
805 269 1 -0.8476 15.348414267977338 17.93160540187514 23.225131401116393 0 0 0
806 269 2 0.4238 16.201518690837446 17.83929072398861 23.738663170446287 0 0 0
894 298 2 0.4238 16.29764417036035 12.899237472812624 20.597384593681582 0 0 -1
282 94 2 0.4238 18.14821943017794 16.83064215802483 0.33750576525546416 0 -1 1
807 269 2 0.4238 15.53498831990257 18.366852302838495 22.344350959432738 0 0 0
1094 365 2 0.4238 16.71095784816977 14.231753834065772 22.928441521759467 0 0 0
428 143 2 0.4238 12.974823145418382 15.917044347519687 24.035356483804506 0 0 0
997 333 1 -0.8476 12.858415824002094 18.93438551129961 23.446218572631366 0 -1 0
998 333 2 0.4238 13.588238092804632 18.436317595165505 22.977911464181936 0 -1 0
260 87 2 0.4238 14.861255984296543 14.925332830368413 0.28070259770983386 -1 -1 1
317 106 2 0.4238 23.519722317995303 15.8003584720758 23.729522048818147 -1 0 0
1095 365 2 0.4238 18.200379621464528 13.75870225075294 23.402293346749715 0 0 0
280 94 1 -0.8476 17.528188959959763 16.85632873522173 24.539789665779146 0 -1 0
281 94 2 0.4238 17.711269533255923 16.074053605719165 23.944346382085868 0 -1 0
1093 365 1 -0.8476 17.65613606722536 14.527616587424511 23.066743378368415 0 0 0
590 197 2 0.4238 18.89285654029711 17.871353662678345 23.58002779638828 0 0 0
5 2 2 0.4238 22.8160041640729 13.333726995819918 18.656708662979923 -1 0 -1
4 2 1 -0.8476 22.74671467330677 13.519564583021792 19.63685524489059 -1 0 -1
6 2 2 0.4238 23.63693323135486 13.81467421435845 19.983907098263856 -1 0 -1
1317 439 2 0.4238 21.725653453536076 16.252864465211374 22.727263793941532 0 0 0
1514 505 2 0.4238 17.99190159687084 13.89383737012042 19.581996459675892 0 0 -1
1515 505 2 0.4238 18.82629852926376 14.692228620636202 20.736571481589316 0 0 -1
1513 505 1 -0.8476 18.4739610583605 14.741917331140414 19.80200566762155 0 0 -1
151 51 1 -0.8476 22.034328907078894 15.96246405748746 21.009187432664433 -1 0 0
152 51 2 0.4238 22.497543591102044 16.848350237776117 20.983451577916433 -1 0 0
153 51 2 0.4238 22.492102922207167 15.328729384631893 20.38561142636135 -1 0 0
1057 353 1 -0.8476 24.189323057722476 17.62209826843658 20.71671715246252 0 0 -1
1203 401 2 0.4238 19.175509061850327 15.722690757426923 18.43581112805085 0 0 0
1315 439 1 -0.8476 21.991417063458442 16.54063671520911 23.64736194643939 0 0 0
316 106 1 -0.8476 24.478160486242402 15.518087184540484 23.771290712811947 -1 0 0
628 210 1 -0.8476 24.80919743460084 14.657007572914416 20.57153370872136 -1 0 -1
630 210 2 0.4238 24.625087991564712 15.604642000279208 20.832525551583622 -1 0 -1
46 16 1 -0.8476 1.901410247202961 24.075856321111004 17.31885110319614 0 -1 0
1022 341 2 0.4238 5.8407653009379255 23.321467484699298 18.626701620895886 0 -1 0
487 163 1 -0.8476 3.0096869225783185 20.042470435185045 20.4690180183891 0 -1 -1
488 163 2 0.4238 3.0785809353124756 21.03215471518191 20.343309751340257 0 -1 -1
489 163 2 0.4238 2.624217450188386 19.62780538790725 19.644706023841245 0 -1 -1
1353 451 2 0.4238 1.8928048752142301 19.973022544202124 17.490438139283114 1 0 -1
1157 386 2 0.4238 4.118324174362593 21.895585073203925 22.473094642103256 0 0 -1
1156 386 1 -0.8476 5.043520977061618 21.61355891547771 22.727054634148487 0 0 -1
1445 482 2 0.4238 3.8838956836353122 24.35977551595603 21.523933011239848 1 0 -1
408 136 2 0.4238 1.3531596955442395 19.162760861643363 23.30501704614906 0 0 -1
407 136 2 0.4238 1.9739305597109598 19.974664276819063 22.031381366817158 0 0 -1
406 136 1 -0.8476 1.407017627532529 20.05239303248684 22.851499032515605 0 0 -1
1349 450 2 0.4238 3.937734242502198 18.487167418217304 20.912384444505967 1 0 0
592 198 1 -0.8476 2.1666762186584365 22.600470773504547 22.885399143012442 0 0 0
594 198 2 0.4238 1.871628230753108 21.648058869806306 22.9620956136754 0 0 0
1348 450 1 -0.8476 4.56922088889216 17.714363439151228 20.848954960259356 1 0 0
1424 475 2 0.4238 5.7475380296804355 24.315770524075255 22.157917569691698 0 -1 0
1351 451 1 -0.8476 1.5645199211340055 19.322895428487023 18.17570293069668 1 0 -1
478 160 1 -0.8476 2.7971272581981186 22.741691163743305 20.310666962671 0 0 0
480 160 2 0.4238 2.1806370021342203 23.087601593861258 19.60334147091342 0 0 0
479 160 2 0.4238 2.3890304395904742 22.892085306494664 21.21114593190387 0 0 0
789 263 2 0.4238 8.390872697479127 20.163377241033423 24.936882229674346 0 0 -1
787 263 1 -0.8476 7.683066026673071 20.32618501750538 24.249475240574704 0 0 -1
935 312 2 0.4238 6.8560494152541285 21.782212724456805 17.927439851948172 0 0 0
1158 386 2 0.4238 5.375954619268879 20.933652098735934 22.0734191717872 0 0 -1
964 322 1 -0.8476 7.4595666701003065 20.672362796371104 19.055829176441527 0 0 0
965 322 2 0.4238 7.036852561260852 20.4922764519901 19.94403273067769 0 0 0
1020 340 2 0.4238 11.333139455894887 21.910466076795544 17.957313141125056 0 -1 0
761 254 2 0.4238 10.366308969257213 20.11828877657493 21.88880584911628 0 -1 -1
588 196 2 0.4238 9.109686306418125 21.782188806553094 18.976048743023533 0 -1 0
586 196 1 -0.8476 9.984055718049689 22.19282383805333 19.234663025757364 0 -1 0
587 196 2 0.4238 9.858394100961384 23.172121063142164 19.393440177271188 0 -1 0
1220 407 2 0.4238 6.991072410536176 19.72710094948892 22.20974355249477 0 -1 -1
1219 407 1 -0.8476 6.531516365572627 19.692619079357222 21.32225072256847 0 -1 -1
762 254 2 0.4238 9.218599998300354 20.68286238932943 22.904045452742587 0 -1 -1
1221 407 2 0.4238 6.117607786501393 18.79108019725436 21.1960296926485 0 -1 -1
760 254 1 -0.8476 10.039765724336188 20.92218726976691 22.38593867466937 0 -1 -1
1425 475 2 0.4238 6.539934407223037 22.94151863868248 22.5455128879388 0 -1 0
1423 475 1 -0.8476 6.592011620772446 23.940157355807408 22.5397603285749 0 -1 0
293 98 2 0.4238 7.699057561320426 24.41705402406275 21.378993917508232 0 -1 0
788 263 2 0.4238 6.837881783321677 19.869138797407437 24.52659765937635 0 0 -1
711 237 2 0.4238 17.131005623390386 22.321805250383818 19.555137765237397 0 0 0
446 149 2 0.4238 13.425601714296455 23.436682082424213 20.02127322657425 0 0 0
445 149 1 -0.8476 14.120423401121364 23.924135472283794 19.492466279336675 0 0 0
564 188 2 0.4238 12.589074254815781 18.962200087458413 19.44571027872521 0 -1 0
1232 411 2 0.4238 14.727332106609573 23.963691331781206 22.51100019381952 0 -1 0
465 155 2 0.4238 11.67329533080437 21.90895518045958 21.805425336301226 0 0 -1
1467 489 2 0.4238 15.374547864729928 19.3141229508644 20.517784170152673 0 -1 0
1465 489 1 -0.8476 16.154395000739157 19.360851104267603 21.142026510037198 0 -1 0
710 237 2 0.4238 15.546416476302126 22.590888058286936 19.843863203015886 0 0 0
526 176 1 -0.8476 13.455120686013286 20.187544299495755 19.854208801099873 0 -1 0
1466 489 2 0.4238 16.5109935281058 20.294937490815045 21.160578286524697 0 -1 0
528 176 2 0.4238 13.289778886450664 20.779669748519105 20.642925165859246 0 -1 0
527 176 2 0.4238 13.154837664510307 20.65115700289781 19.02059178645333 0 -1 0
463 155 1 -0.8476 12.604912072645526 22.146117305627072 21.529982049948273 0 0 -1
464 155 2 0.4238 13.19990233162931 22.14782422521254 22.333728076779472 0 0 -1
302 101 2 0.4238 15.480493629763714 21.57718097098087 23.130055816805857 0 -1 -1
709 237 1 -0.8476 16.30641008301089 21.95702650238355 19.98757589938129 0 0 0
303 101 2 0.4238 16.077708515213352 22.805624981442747 22.2350979996854 0 -1 -1
301 101 1 -0.8476 15.24458838479348 22.396173060897127 22.60696432858269 0 -1 -1
999 333 2 0.4238 13.130177675942557 19.11260749144759 24.391949145339225 0 -1 0
1487 496 2 0.4238 18.992950411133982 21.855804878672345 18.684939258805237 0 -1 -1
589 197 1 -0.8476 19.794329479334607 18.304036391774197 23.592536766228157 0 0 0
1058 353 2 0.4238 24.217959503490455 18.289958307244248 21.460469007711417 0 0 -1
1059 353 2 0.4238 23.984481879697995 18.089511319322128 19.856723467911046 0 0 -1
1140 380 2 0.4238 19.106793761279647 19.62082046054043 18.773577274160658 0 0 0
1507 503 1 -0.8476 19.22683631963588 22.28916906943501 22.897333007519293 0 -1 0
1139 380 2 0.4238 18.226562023802096 19.98762530388926 20.099223225434287 0 0 0
1138 380 1 -0.8476 19.110618448164544 20.107151407885354 19.64735791410525 0 0 0
1431 477 2 0.4238 20.28910447137553 19.119422578831013 20.534414025891245 0 0 0
1429 477 1 -0.8476 20.97739310099704 18.8252102118122 21.1975293154143 0 0 0
92 31 2 0.4238 23.648706083654233 18.815226977779425 17.501408077470238 -1 0 0
1430 477 2 0.4238 20.549519288665948 18.712587824951477 22.09433706670275 0 0 0
1127 376 2 0.4238 21.604351699099247 20.645438893568333 19.697523636132757 0 0 0
1128 376 2 0.4238 22.621468294216747 21.88707436808148 19.396682446915754 0 0 0
1126 376 1 -0.8476 22.23642298774285 21.039911326618018 19.030513999311047 0 0 0
441 147 2 0.4238 21.533350099519375 24.117799078348824 20.023470682776434 -1 0 0
91 31 1 -0.8476 23.592524616279967 18.932820330772834 18.49289150128981 -1 0 0
95 32 2 0.4238 22.589230189401654 23.078725590621985 21.96501807371756 -1 0 0
94 32 1 -0.8476 21.775633142559727 23.507342922185025 21.572117295014664 -1 0 0
708 236 2 0.4238 23.492672080697375 20.581735051313764 22.281080013299352 0 0 -1
706 236 1 -0.8476 23.252991478734984 19.6416726956513 22.523691527011188 0 0 -1
96 32 2 0.4238 21.399815995426664 24.167659867591617 22.222322037622746 -1 0 0
707 236 2 0.4238 22.438757580477372 19.363225558294474 22.01426470402287 0 0 -1
93 31 2 0.4238 23.059758461843195 19.752952927781664 18.701616904805356 -1 0 0
1509 503 2 0.4238 20.172198286688904 22.140965412610477 22.606901568772095 0 -1 0
853 285 1 -0.8476 24.60868029380685 23.02256625364116 19.39810318731722 -1 0 0
923 308 2 0.4238 24.69812708220902 22.762192537498308 21.20985116346973 -1 0 -1
1352 451 2 0.4238 0.5974264131516407 19.495560663106225 18.36262812511687 1 0 -1
924 308 2 0.4238 0.07845563399002277 21.746816151032974 22.435073913499174 0 0 -1
922 308 1 -0.8476 24.37873328527128 22.380044429999657 22.07701615672434 -1 0 -1
1444 482 1 -0.8476 4.268789690689339 0.2509507755438144 21.809667599795716 1 1 -1
1021 341 1 -0.8476 5.351634342505539 23.87136761788178 19.303742788818838 0 -1 0
1023 341 2 0.4238 4.537399584773557 23.377503663712083 19.608938084990896 0 -1 0
1017 339 2 0.4238 1.6754696428148812 0.3453148309193612 18.777315356073693 0 0 0
292 98 1 -0.8476 8.309002262657962 24.8604381038987 20.722180995016522 0 -1 0
294 98 2 0.4238 7.852720775650708 0.6728830748010144 20.330277828814467 0 0 0
447 149 2 0.4238 14.368400766777729 24.76891379215568 19.966683758829987 0 0 0
1288 430 1 -0.8476 17.51671620071157 24.189185118460642 22.198197850318998 0 -1 0
1231 411 1 -0.8476 14.244755216461524 24.837919800003483 22.564568109152944 0 -1 0
1290 430 2 0.4238 18.06040564216574 24.74764598097032 21.571662143009156 0 -1 0
1289 430 2 0.4238 18.08310541933505 23.450149894482053 22.56296371481605 0 -1 0
439 147 1 -0.8476 21.10021751724036 24.13411351302903 19.12227501336003 -1 0 0
1183 395 1 -0.8476 20.924576299012813 24.60146064176498 24.01655455336678 0 0 0
694 232 1 -0.8476 2.786455032523996 0.2618539647958251 24.178309614492676 0 1 0
696 232 2 0.4238 3.3961011014262787 0.888682384028371 24.66353405070916 0 1 0
651 217 2 0.4238 24.906226031789412 2.2394182259282593 23.859262254710707 0 1 -1
801 267 2 0.4238 1.600521079069715 4.5449178578928136 0.27909895682043245 1 0 1
949 317 1 -0.8476 6.474604616407199 2.461905243654308 23.952097467055275 0 1 -1
522 174 2 0.4238 7.542191142848942 4.965352820922529 23.907993005407242 0 0 -1
1163 388 2 0.4238 16.3283984578963 3.166981046231496 0.5992259254710036 0 1 0
1162 388 1 -0.8476 15.5172167580585 2.6263827642669844 0.8222984285301806 0 1 0
1522 508 1 -0.8476 22.834552612273917 4.467807283980853 0.27086522801308544 0 0 0
1134 378 2 0.4238 5.197688550552415 6.4414331692541955 24.40476316661701 1 0 0
1133 378 2 0.4238 6.227789568956296 7.631997219567619 23.971012248403156 1 0 0
911 304 2 0.4238 0.6741209600578092 12.181793918970742 24.450824836444347 0 0 0
1056 352 2 0.4238 11.037121712026284 10.061687929566835 22.897681896136504 0 0 -1
873 291 2 0.4238 7.792900784257196 9.744215207716012 24.349934519192963 0 0 -1
871 291 1 -0.8476 7.6476457580676325 8.89026647322261 23.850237995049397 0 0 -1
1270 424 1 -0.8476 7.891289983223262 11.53039049506875 24.708135933772986 0 0 -1
913 305 1 -0.8476 16.03171441656781 9.98181627393479 24.12037350184147 0 1 0
154 52 1 -0.8476 16.714146193552047 6.6319558902779665 24.21663452953762 -1 0 0
155 52 2 0.4238 17.296202299155944 7.308439925867615 23.76541015294884 -1 0 0
1054 352 1 -0.8476 11.695715283241015 10.424052725302083 23.557204615789388 0 0 -1
238 80 1 -0.8476 20.723471816316597 7.303787001538264 24.96175765696779 -1 1 0
240 80 2 0.4238 21.61269330398877 7.712767356899954 0.18034795345822263 -1 1 1
158 53 2 0.4238 6.999965541902979 15.284337792348676 24.650450665101687 0 0 0
157 53 1 -0.8476 6.105821617004732 15.58755026249148 24.320915069700185 0 0 0
654 218 2 0.4238 8.754913716731231 15.17669199290168 0.4789175800680119 0 0 0
1384 462 1 -0.8476 10.395112581817761 12.689931182397801 0.16631540221359656 0 0 0
1042 348 1 -0.8476 10.435567583748934 18.009173904739683 0.04098728407558597 0 -1 1
653 218 2 0.4238 9.348137535830388 16.519729946681757 24.750513203919894 0 0 -1
652 218 1 -0.8476 8.879939889494773 15.650159573914816 24.59346701176645 0 0 -1
1386 462 2 0.4238 10.513514353724569 13.525142012665793 24.6157162030213 0 0 -1
1385 462 2 0.4238 10.911966751794196 11.945615188610748 24.729829209579613 0 0 -1
259 87 1 -0.8476 15.05325575740268 13.968035454097189 0.49690110181168673 -1 -1 1
427 143 1 -0.8476 13.659650098801464 16.234291734073615 24.69139839612265 0 0 0
429 143 2 0.4238 14.338669821066476 16.79619820513954 24.218938465585765 0 0 0
516 172 2 0.4238 18.026519570844727 12.073575822257881 24.834221356888108 -1 0 -1
514 172 1 -0.8476 18.77888172717757 12.447412610637256 24.29179940489393 -1 0 -1
1316 439 2 0.4238 21.63569882930603 17.458124493337735 23.825419871090666 0 0 0
515 172 2 0.4238 19.29478086976645 13.102218574884452 24.844159546689156 -1 0 -1
162 54 2 0.4238 21.350572786582816 15.041137612610624 24.384978736522363 -1 0 0
1484 495 2 0.4238 0.3468097740263905 16.907678725885397 24.273107646931244 1 -1 0
318 106 2 0.4238 24.53385599978128 14.574762878808333 24.0984927081305 -1 0 0
224 75 2 0.4238 5.246009323338321 22.24596296354793 24.38786520860942 0 0 -1
593 198 2 0.4238 1.969605052250438 23.080343990877125 23.740331014433394 0 0 0
969 323 2 0.4238 8.594516574658149 22.797131211245812 1.4814274062107686 0 0 1
512 171 2 0.4238 7.306054415740258 24.61887853920406 24.070095725197064 0 -1 0
1241 414 2 0.4238 19.184126837175555 19.365577755043176 1.3880812921841892 0 -1 1
1485 495 2 0.4238 24.986379771699433 18.307686836225287 0.052378502969347096 0 -1 1
591 197 2 0.4238 19.794847878400887 19.054196969793708 24.25381119674264 0 0 0
1508 503 2 0.4238 19.16555739025791 22.19928713684726 23.891410636425498 0 -1 0
189 63 2 0.4238 22.971124817127915 20.300921814194268 24.04493141021409 -1 0 0
1185 395 2 0.4238 20.17914278316932 24.577916566167836 24.682736691294835 0 0 0

Velocities

879 -0.006053378372185292 -0.006961247744698421 -0.006185246463210621
877 -0.00017949480683397744 -0.0022782515208984084 0.0017925942904403387
1039 0.0018202453282573489 -0.002455555435595596 0.0003471114838915153
1040 -0.011078786343297942 0.0017531252686121537 -0.010716394603878356
1041 -0.027812172616586254 -0.0008197686327421073 -0.0012927201500413966
745 -0.004611066110491012 0.006965187493766128 -0.0004789238782484786
747 -0.0057110355398879 0.014098401738336177 0.0012228040037042035
704 0.0061410950272652596 -0.030898011580906173 0.012752950674440693
1458 0.02561134248168926 0.010509263903517614 -0.005550924257974891
705 -0.0010823869651895223 -0.008513966858580881 0.019280765634805595
1275 -0.029566372022637226 -0.040960642723178425 -0.0019264154519024307
196 -0.000684071107466761 0.0024353631821486185 -0.002858231403098846
1273 0.004051866257708454 -0.004074428022632305 0.0006487863107691845
703 0.00025852734175177286 -0.0017727898689434206 0.005063781366699889
197 0.005253993452359334 -0.02223731672854101 0.01439621861793395
1511 -0.0010154101373759886 -0.006298539080613407 0.009905679284957874
746 0.0025868305733744972 0.008503277096537096 -0.010334684745220509
1457 0.016598362999183075 0.0013561379125847557 6.946564637111115e-05
1456 -0.003391789313722569 0.007163315772416192 0.0011013660246936867
198 0.010404244479836141 -0.020755443862286276 0.027748819756864544
649 -0.0018436957192628708 -0.0015225512048544128 0.0023167216884561847
799 0.007179263815357795 -0.0013170791274952774 0.0019463760031975203
800 0.008592283992023069 -0.0052148842063510625 0.002667781689403251
695 -0.007514724498127251 -0.008238397677271385 -0.01666540224898916
1510 0.00046710263854575317 -0.004520971752592886 -0.0005710022994616376
645 0.018862676064994296 0.02297023659583388 -0.006664341899465351
342 0.009657053201852268 0.0052391262600962295 0.00016224096467159962
340 -0.0011333001000309005 -0.00014237521000875564 0.001638616589409411
341 0.01210502866116294 -0.011012592682552074 0.003352999015914723
322 0.0002813466633079692 -0.0036913033716844436 0.00026706877383275707
29 0.006699389611283801 0.007320352896255533 -0.0058147806908084515
513 0.021248900101324728 0.005943899762072956 -0.01521650767456365
718 -0.0037039395362111227 -0.00013271083357078398 0.005100893665197449
364 0.00617552632097833 0.0030080684608345455 0.00010758760652063157
324 0.012446644510022954 0.0024264881618938057 -0.012374313353802343
1493 0.009139939766879535 -0.004312845073032379 0.018247854080779974
304 -0.0017856947414649025 -0.0003370763646981475 -0.0019600582210340246
305 0.0002901928792908969 0.012564145524044678 0.004380321184476045
1512 0.002220781036350813 -0.0006188515247449746 -0.00418755141296015
720 0.012481652762003559 0.013194553646970466 0.00508900456984614
719 0.01120911471393459 -0.032812516028058715 0.016812448989685782
366 0.0060775131932390165 0.001906904129736712 -0.0033861056209477346
844 0.008058253548336433 -0.0013098071770218558 0.00045589808158661495
845 0.013963434226282694 -0.0019722449032540893 -0.0004956530240601216
333 0.005353251335873645 0.005860653557481181 0.0013625407950390391
952 0.0007357191779084249 -0.005709985869505958 -0.000849847314683906
954 -0.012312001949859217 -0.022531662246007556 -0.007384236133516745
323 0.007451721204270682 -0.020888301637497324 0.01542476600655582
1177 -0.003433379675985654 0.005375186782354145 0.0032603587557551335
1179 -0.013173934500773669 0.005833467821633439 0.008006480951330336
1178 -0.001017754955040707 0.0038161167322414303 -0.009393822126390356
785 -0.0016018838654828197 -0.005120375897940406 -0.015962417926986272
28 0.007457355664960894 0.0008469804272307755 -0.003150758486671501
784 -0.0008656330929171624 0.003448865217663552 -0.00693008106628495
30 0.010442692200346762 0.0017489602424131938 -0.006851026611823731
786 0.01796933471180518 0.013967398614769859 0.007876159928534004
832 -0.00023566562131430274 -0.004322431560818155 -0.0018680219766420288
1027 0.0023730343645592318 0.007677528632120699 0.006294419845448213
834 0.004393943152170923 -0.004751423018123682 -0.01910897513521122
986 -0.010891763981127274 0.007308985228879509 -0.012715488940797878
987 0.025083826103259304 -0.019367443977826235 0.02632388696454783
846 0.00027691358798516977 0.0013334465682954785 0.004748548363110489
1253 -0.0014003175041365106 -0.000967129706677667 0.004894706663885864
1506 -0.020997884612474878 -0.01099128942836152 -0.0012885035598748154
1029 -0.013119141398705327 0.02275425180993695 0.0025112508131668048
1504 -0.0019783804754394552 -0.005525981682686407 0.002223605471994932
1505 -0.025543561952690114 0.0015007486082167748 -0.0009744641559916244
1252 -0.0019517857041050557 -0.005214891012370253 0.00041187918771274
953 -0.014831651485588128 -0.0037561654040745 0.02931439583434151
833 -0.00432745199124899 -0.01515731308416822 -0.008717765839646879
1112 0.004396025791455145 -0.02305252056889557 0.0030373874504663954
1243 0.00036146787595808 -0.0036724114419236275 0.001970527439234377
1245 -0.004285493877226437 0.0006222972897864398 -0.00021253195340629018
1244 0.0013097846507640276 -0.01199329758310983 0.006871553191464014
204 0.002866260723793266 -0.006287718066487923 -0.0003055208685330486
202 0.004394890418254813 0.00018462218441981707 0.0006954695939603945
744 0.0007502199478485741 -0.003453095857319894 -0.009414610236983798
742 -0.002472821483581534 -0.0026388709901532 -0.007462659173644937
2 -0.011346809618221706 -0.008148949266849092 0.005766458394601219
1524 0.009015381415358455 -0.0021717020072320706 -0.003984625132983492
1 -0.000656626856940715 -0.0007910017477517204 0.0011922555747612173
136 0.005157902392348482 -0.0002452514223977908 0.005000689641894345
138 0.005242812749091025 -0.010638850480037949 -0.012447365174526789
743 -0.004096159714254611 -0.008539540307954471 0.001099425943405216
1196 -0.008913074152756946 0.0048307748126875626 0.006721331468321538
203 0.009726998252398322 0.00337999923609489 -0.001595415020862209
1218 -0.011694318741508626 0.005745609941585301 0.00977868153791106
1216 0.004209516883147971 -0.0015795369085446678 0.005126941270265762
680 -0.005781685789683472 0.004696709782828714 -0.0030792292693161884
1113 -0.0076630192510550674 -0.004671569399725956 0.03740209603435373
1224 0.004364089164468496 0.00018087722146457237 0.019519776955881807
1050 0.011115218392081775 -0.01256356253971604 -0.002224283833115295
3 0.008708976889981209 0.01502718174361314 0.00812408692249213
878 0.01585153888778778 0.0184367440996289 -0.016037723278893797
679 0.004398017120421222 0.0020699305842195805 0.005004781846818444
1222 -0.004974019906853636 -0.0030866025605983355 0.006824143330084469
681 -0.02763789918731935 0.02091181341182412 -0.010915561163388009
1492 0.005588779258854368 -0.0037272735978706546 -0.0009625412714675453
1494 -0.0026971134158947346 -0.006281505907146865 0.0016245741245419438
8 0.014391369572850372 0.007691632906252601 -0.020532105136253885
7 -0.0008521375238777582 -0.0013657340216214327 -0.00028524990501360876
9 -0.00869926064166245 -0.001575235696539756 0.010286079444535136
642 -0.010547660008240686 -0.01588174694797269 0.006289293800476535
633 -0.005325233781451523 0.02447599244015777 0.010671879606470888
634 -6.085918783753137e-05 -0.002121314953777722 -0.0009148902270547039
635 0.0023113342862088834 0.002358868545717808 -0.0050649374700217666
636 0.013074622605149935 0.014442948538225742 -0.005898330755468706
641 0.008613329648847154 0.028528710704801303 0.011090738088924482
640 0.0025249070894332024 -0.005188314160169225 -0.00036254640944211443
926 -0.007964482863809094 -0.015094829811320763 0.019966478799937893
1536 -0.004284310292322436 -0.005034176788843534 0.004281082351391769
1535 0.007725082022511971 0.016960909347408158 -0.005330587113160181
469 0.00044248455584415964 -0.006916765197877336 -0.0007294504027732481
65 -0.029826337139757162 -0.023466840664359414 0.015397497134967927
306 -0.0005725729873284905 -0.004001954030538619 0.01778530236859673
372 -0.008553238411871214 -0.0013050837787720326 0.003595406604586388
1332 0.009634511880782815 0.019561016655438985 -0.020782732554907576
1330 -0.00505301158872095 0.0025272234526969033 -0.005762189213475384
817 -0.0028541907912063625 0.005412185689300094 -0.0011154480445804804
1331 0.01931240894971239 0.013194724721112366 -0.03109797592387463
632 -0.007962051092997734 -0.006241229691008602 -0.0022209096637159577
925 0.0025926003015206583 -0.005984381761116887 -0.00034057420617613054
927 -0.007085679839009388 0.01003792307555431 0.018674219259278153
370 0.005226673581283608 0.002098920001096628 -0.0037305350193810602
371 -0.012773045847758078 0.01774330878008403 0.014142555896400719
818 -0.015923499160041606 -0.016399096334081105 0.0005054805765937057
53 0.0031324349999873515 -0.0028540376087696937 -0.0023088816099521197
52 0.0020294333058081026 -0.0024562472431133367 -0.0033572120899338096
54 0.015586666735883378 -0.002055704915457973 -0.001576220444872992
1490 -0.014152107385083188 0.008310461278271836 -0.007121155810288245
178 -0.0016756073416012653 -0.002553614227701087 -0.0010398010536730232
179 -0.0010917277292734299 0.003921482313554237 -0.0005611705853370393
180 -0.004580794995396561 0.0030857393278604663 0.002113718702231416
1491 0.001472850875570208 0.00921673137501519 -0.012625830171783526
365 0.006340554267242881 -0.000230472207922987 0.002575110932255325
470 -0.0005260336161123391 -0.003795419855814931 0.0005476251645244492
819 -0.009210062756809915 -0.0030753766015739485 -0.005963840549866028
1489 0.0011463652337269112 0.003883406392297199 -0.002390326141133636
1055 0.004997776779277573 -0.005373324896733946 -0.006991306979784982
985 -0.002638019506974608 0.0013233836742517744 -0.0030066204013945714
978 -0.0010592074715806738 0.00401091478677843 -0.0015573236674306476
976 -0.003209077952385396 0.0023182392227917513 0.005081848048824469
977 0.0010861220197088738 -0.00637314385961335 -0.013880558069972179
1497 -0.010608467604557859 0.01848539245335195 -0.012871716486523199
722 -0.023798270836250395 0.020254609951578795 0.00026447447021954744
1234 -0.0016749137822068268 0.004364409387887872 0.005039953046750657
721 -0.0013051010259427774 0.004516762432164878 0.000421495627777361
1254 0.0034988185121850647 -0.0047156974793912555 -0.0002295360739063212
1496 -0.010507646732557569 0.019860127957902114 -0.015904767860651634
27 0.0007253520325827491 -0.005666313956652954 -0.001994947691029406
25 0.0034105182460870327 0.0017656047860917267 -0.0036881670028251316
1236 0.0013218441591132813 0.002817535006690866 -0.007042592096652474
1283 0.0082795071165262 -0.00787932611883571 0.0009444734442510871
1382 0.003127867750080914 0.0036051590540468106 -0.0002055929061639172
1381 0.0029503646742807497 0.005954206361497561 6.038006114935081e-05
914 0.001958181096109948 0.016978202807942214 -0.007939027839937902
26 -0.0024356764427552876 0.015424452004616673 -0.0034989241358393728
1211 -0.009366771516978421 0.012573064404870831 -0.019479885539436397
1210 -0.00041063987269411746 -0.001436913614639 -0.0009557742357196983
1235 -0.0027381577029860263 -0.002198187668298056 0.010318376632073915
1268 0.01130488826039895 -0.0007757515063943279 0.00820509679501091
378 0.011793915665363357 0.006145457097924387 0.014729208003912303
376 0.0016590862884913412 -0.006591983314912891 0.003203887695731313
377 0.006521753942437874 0.0075672718803935545 -0.016643841327329403
414 0.006771702569484667 0.00042619427492684867 0.011905407711238
1212 0.005019839602373592 0.003518593856975274 -0.011943384859750411
412 0.008819019779199128 0.0048273023354909895 0.001771028837102959
1166 -0.0015996559450102664 0.022520474786491194 -0.01209454666832146
1165 -0.0006366430126812241 -0.004706681584607333 -0.0006723100419404757
413 0.016809532355642864 -0.0011914817321531331 0.009026563357701956
1267 0.0016422367056172767 0.000221608904766893 0.0015449909425260544
1167 -0.015208423514955143 0.0030041728445782704 0.01776665520086873
1358 0.007344091370564246 -0.005038998986122318 0.006675884875168359
1435 -0.0033056769864799568 0.006009165089987842 0.00240642927715729
1357 -0.004329482193001564 0.007832797794099787 -0.00017214034036007665
239 -0.0005309849245672245 -0.002422407523199072 -0.0007468712766191655
1534 0.005514038521443232 0.0015452885746687188 -0.004152511423114908
1269 0.003475306124349071 0.006251497326472734 -0.015181108247123723
1463 0.006344926488615113 0.005660032866189201 -0.014101134606894395
1462 0.003421657408078703 -0.008766510087815486 -0.004181873539282027
1464 0.00010280560804089625 -0.0030179162264996904 0.010365487893800544
606 -0.00028719039318373 -0.0002365673065780012 0.015950048225611902
605 -0.003222429535086355 0.001775542546006874 -0.005140187108233194
604 0.00455357011524241 0.003824890493774241 0.005257661267189879
798 -0.0003043301849718094 -0.002835956694223659 -0.001414358319465142
631 -0.004435070869434694 -0.005065108409020328 0.0025197954315032472
55 0.0011278008138145752 -0.0015130084436573788 -0.002723759367688249
107 -0.01056718384267157 -0.014650798195482973 -0.0038218485691432448
106 -0.002428143866343356 0.0005096184197777044 0.0043324145043745635
108 0.002753873088760753 0.0007690781872615619 -0.0025907615305188893
57 0.01695016838852253 -0.024232572789840062 0.014556852815213565
690 -0.0059416653980250925 -0.01877036368411132 0.017906757918837807
912 0.0006566847546973959 -0.004120677270795606 -0.001948981595590492
689 0.01717153041473139 -0.01664529408175249 -0.018580676760550134
688 0.00164316691913117 -0.0010566765699172413 -0.0032321269709278968
147 0.010232392840407561 -0.02302954223241926 -0.0034708099999651585
545 -0.0005954921340841859 0.002148356637878627 0.00569542157952829
141 -0.008785889891210014 -0.00011935874799408374 0.0070107275630178646
804 0.000276684896382547 -0.006160946342530878 -0.0015057439712381064
910 -0.0026131394566415215 9.921762792021429e-05 -0.0007338417065722626
544 0.0008418723162609573 0.0074438447095789215 0.0009371889644007571
796 0.002329044164498871 0.002985272734217783 0.00010414939107755637
1362 -0.004598846707218218 -0.009133739437009743 -0.0009443310848220171
268 0.0011096445516685658 -0.0003492993172453238 0.005480122034186814
159 -0.0033863315547545017 -0.0012586885451443131 -0.004352947660506458
802 -0.002407132803079323 0.00385566175099364 0.0024106886510404293
1100 0.010128420549820955 -0.012464218596658931 0.0074526669216019945
390 0.005608483829990464 0.00043817644961318937 -0.008357179703557774
1099 -0.0016768054884596566 0.009544794260971297 -0.006724787380207422
546 0.004306799073480095 -0.0023802668359294296 -0.003225231385159814
930 0.03160148736513691 0.0020124345038767012 -0.012258590643394712
928 -0.0011898598741496018 -0.004410875130349178 -0.009559372192520996
887 0.019607831112165075 0.020566090479975808 0.005263567578408672
247 0.0012744645606556435 -0.00037199130263071574 0.00015178101014712145
248 -0.002298969362723607 0.012614003047266746 -0.016167531897260362
886 0.004973955495263997 0.0008368529498612864 9.739706686799553e-05
888 -0.011179710355710753 0.0016455274426922474 0.013705384392739665
550 -0.0018042975542898981 0.0030833975899812833 0.004623186979734292
929 0.0061346223314166165 0.0033884860459478753 -0.011437087628068452
880 -0.001431667584845687 0.0018794913634280692 -0.00033750366125419995
881 -0.01178169177297032 -0.007091986948053141 0.018172954364014515
551 0.0013365152110878784 -0.00105352831311357 0.004088961386650205
882 -0.0029386501816688333 -0.011363535912726217 -0.005411859674082019
1101 0.0020221565277835146 0.031127587708119873 0.007340730656553391
388 0.0032523284256507903 -0.003693243538470398 0.0007674084846206216
1043 -0.005829329630281434 0.0033838680860998863 -0.02275732215659831
510 -0.013452276600379834 0.02107976472023603 0.008118184306369406
723 0.015435111826994847 0.012826175356017759 -0.01814101292157131
508 0.0032592624822206035 0.003225062142705874 -0.0009530660918875232
509 -0.003446013222852243 -0.00019271125318688666 0.01662693577536253
552 -0.005519656871539804 0.002931672396454661 0.01102748519572081
1448 0.015367728968597522 0.008775970460372602 0.0030714934634755832
1447 -0.0067368152936323625 -0.001672828629611446 0.00343592405917769
1449 0.014972307699123647 0.009423877533762002 0.003653738464026452
351 -0.01892467883842169 -0.006886482262590428 0.006838247809831311
750 -0.015359857555987332 0.005696093617876563 0.0075928250943226895
748 -0.0032032851291390976 -0.0002477939535790945 0.003894281314336502
349 -0.0052695088939110415 -0.001837341630385899 -0.000661472737174833
749 0.005019614323189398 -0.004051206888876906 0.001983664752767527
350 0.011920443847438773 -0.0109002448734033 0.006410480811093202
980 0.011828406679332286 -0.003211807516623307 0.018315478210208277
601 -0.0049259870368381885 0.000201497677120986 -0.003385189065686596
727 -0.003243381639655165 -0.0008533287105765369 -0.003471074429018173
625 0.0024576651506255935 0.005387989182039017 -0.003745905252350558
626 0.010418637313218166 0.015077383005999423 -0.001631833166528276
129 -0.0031970034273324536 -0.0002081165185990155 0.010860249328299376
728 0.009221931792841597 -0.0029963246219920983 0.0038195833471726805
1427 0.002490167489537324 -0.0014959069581077975 0.012476187495302656
1293 0.006852283864802291 -0.009605578585392367 -0.01399139470282174
541 -0.0036842223155051286 0.0022388632427398454 -0.0016537640692777054
542 0.008991903680681628 -0.011465186172925981 -0.005680646889293963
1426 -0.005657463892033296 0.006674355796226969 -0.006356891111811884
602 -0.003333926005133489 0.013993623384964217 -0.0073457339253580325
596 0.005169085574615305 -0.010452568013287228 -0.018046765289795853
595 0.0008171648747944928 -0.0025056215977747195 0.006824775769049419
161 -0.00017127422755295997 -0.00021946061003774204 0.018874697443284377
1428 -0.014378893199126039 0.009621643094165652 -0.014663605293604708
543 0.006280290058879563 0.017564103254114415 -0.027269587539599967
160 0.0006231413350096612 -0.005544731811943387 0.003958361671290622
627 -0.015271430349963103 -0.01610025321113303 0.007697899085650999
1001 -0.004846732574678903 0.01585505595898904 0.007599422206501849
56 -0.00030803292612830503 -0.009655201013355577 0.009223180072648772
1483 0.00013199137814397593 0.0006267977696903536 0.00110752298525286
729 0.0031056908998772057 -0.0010184974482822758 0.0016318239637425217
603 -0.004882580879784428 0.004600146922958724 -0.005111098031621946
145 -0.0011160403030395613 -0.000353525031552788 -0.000999128572098208
146 0.0010709479030586683 -0.0011720154417078025 -0.002141182847793329
1103 -0.02024782523921816 0.005786058371009016 -0.002913385814125393
1102 -0.006193893176851505 0.005152152591747127 0.003416150561661473
1104 0.019652659307300487 -0.0059155456973316875 0.008244061254525472
140 0.012226104423571067 0.0008121345743771891 0.004944776167000759
139 -0.0005509735403831141 0.00445956873994407 -0.0026120357881079916
219 -0.01155591834280053 -0.0035416088947938175 -0.011134453981255319
217 0.0023984569439526923 0.004457348965082848 0.0028617660533814303
225 -0.005054690907257597 0.016257693419645506 0.016822594837318683
223 -0.0019506659987654628 0.0021677159524659574 0.0022090463737485066
534 -0.021649076285968787 -0.0029389525539982547 0.0018435666977510983
218 -0.0015830490465512485 0.005307226952461921 0.01443440829492639
416 -0.002825128270234271 0.0009212373950358839 -0.015638681478618945
895 -0.010224286718083224 0.00041007577055844304 -0.003957105092172668
897 0.014304829911116954 0.0019515900134113187 0.002662398344161977
270 0.0033855744756540215 -0.002993283706463012 0.001204309471605017
174 0.008360957835060525 0.007337070210466748 0.007810346922006269
173 0.007343986551204062 -0.006152023573790861 -0.009755500724015058
382 0.006384620477614485 0.001464465953923646 -0.0019840757550220207
384 0.0026688738704063763 0.0021914802513895095 0.006728644189310932
383 0.003686114376637094 -0.0025737634208525986 0.0013857433376933622
803 -0.010321045969128972 -0.00243427532658223 0.00756117397989054
249 -0.014767321690398844 -0.00418413853036687 0.0020050853042802683
1109 0.0051718957175645175 -0.003842031535327337 0.009166781725337173
968 0.001467143694260647 0.001810540569671838 0.004718756666507766
1110 -0.005037497032057559 0.0036058983174481174 0.0030177341882795176
1108 0.0028079987439570612 0.0006616771862699857 0.005246310768760668
1406 0.019033213246495664 -0.01838481826495787 0.0071611149686748015
1405 0.003029510631317976 0.00213255977889917 -0.002015180664770035
945 0.007524986156529172 0.010036039722762256 0.0019086599377619994
896 -0.003916931334294635 -0.015698443724812935 -0.018296843411618646
967 0.002653283656025156 -0.0034301788037270514 0.0008032415711114702
1439 -0.0005001617264284457 0.009832709389933839 -0.002060657041959634
1438 0.0013470440792920859 -0.004718662725760738 0.007131670581418405
1440 -0.010888420030707072 -0.005202344192937827 0.01143151576240123
943 -0.002607709890263836 0.004649234729816671 0.0005491165148591494
944 -0.010588710525898756 0.004723483923552888 -0.0003404704131121025
61 -0.0025210757834399403 0.005133842353303747 0.00018054215967163356
549 -0.0011466722996957258 -0.013619488147610265 0.014179203568473483
62 0.01253099437223018 0.00837366380692714 -0.0038668908293665585
63 -0.0011028425117077716 -0.0011080315941162607 0.013210159250260178
899 -0.007481209961393727 0.012083259900326207 -0.0210353582747862
1407 0.015279665617138956 -0.01255789150757336 0.006044939411458602
898 0.000821956275679715 -0.002439144854169973 -0.0011131212230013235
1192 -0.005667764511909241 -0.0014499917935375968 0.0005332155584688946
1194 -0.0010856514277767335 0.014355184265885385 0.001753898834883841
547 -0.0032866297454947936 0.0010231345867828842 -0.0010383638340739723
644 -0.0025854648454125767 0.013013051040616116 -0.0013626527770857315
1432 0.002543409549331116 -0.00607301545662477 -0.0025993057942405276
1433 -0.003908572173325473 -0.021373128574867457 -0.005744364877736052
1240 0.0029043740396598777 0.001068312266616358 0.006045897792793708
1107 0.009514190055762789 -0.00732999007000514 0.004275288027270965
1193 0.007741748290743326 0.001704494908980652 -0.012660807010106523
1105 -0.0037291280022167866 0.0012884560770906831 -0.003232495969322326
1106 0.0019296795448034447 0.007663507702281077 -0.01987915522063872
647 0.00464640035590445 0.009397541343711423 -0.01498906660463404
1147 -0.004181659547338658 0.0013915105030141625 0.0016511263586795335
1149 0.007701588105047102 -0.020867280768119143 0.003862081788543893
1148 -0.017908772222515117 -0.013441311729776908 0.023558348638786874
865 0.0022954787545989086 0.0037947514734305 -0.003118261837096374
866 -0.002304291397446539 -0.004783325097206048 -0.0004674349353797548
867 0.011593634547060576 0.0030215019939445237 0.006089605716667973
1003 0.0038842945862449193 -0.0013451226506322825 -0.002063272903828464
1005 -0.004494294026848724 0.02746113345404585 0.009280888039949175
1004 0.014479759821170923 -0.013164582960705346 0.002112932981881149
768 -0.0009570732447014027 -0.013532392633393496 0.01973746485057908
766 0.0008757997928621576 -0.005941291415971532 0.0014476397604204546
767 -0.016310079320534472 -0.002795148547833218 -0.00857551509525557
809 -0.004278538710533827 0.008453596239474163 -0.014662829734114778
646 -0.0037526280269677605 -0.0002824765394065031 -0.001855320682500846
916 0.0029367156638531746 -0.0013735928303362822 0.0031571898369629797
918 0.0145091530596067 0.0017824868077374544 -0.0005049569981773361
128 -0.0007497497980252813 0.0005823564814777842 0.0009723215588877422
1242 -0.014744348487116149 -0.001810612550729422 0.008388803319779288
841 -0.004292757919858485 0.008185499455355528 -0.006181857208326067
842 -0.006012246636706688 -0.001038244576814591 -0.008784324052012195
417 0.01928730308193467 0.011620856530617257 0.0027035921923186644
127 -0.00012068256565426242 -0.0025430231451045236 0.005963406742509564
1060 -0.004331871522889401 -0.004530334762662196 -0.0005938386651619956
808 -0.002952373986727926 0.0069723008182965415 -0.006688449439992749
1062 0.006631081334927677 0.0015390729726077847 0.0007599148782119687
1002 0.0016434026954778933 0.02019723573610441 0.016219159757386338
1000 0.005296626432708256 -0.0007353426270466613 -0.001570606834495709
1061 -0.00791101207808721 0.004600385427099239 -0.010678957465531488
810 0.0012366716625982913 -0.003705851764450639 0.017275617613537606
22 0.005245968066999912 -0.005641076372744379 -0.0001110582282666616
23 0.013986646972717074 -0.004224773983402306 0.0010814541312905532
201 0.0006942457261247585 0.003596600183873706 0.004184803287420739
199 -0.0027785285928680773 0.0006248390504468846 0.0038357708367170898
24 -0.00564057875343147 -0.004626464253182226 -0.007759287307343042
200 -0.0018725611568680008 -0.002799152648987879 0.005720947044824234
597 -0.005671036543650841 -0.00958499718442297 -0.026432672560684867
188 -0.020915063439372085 -0.023589129156170053 0.015337543455100924
234 0.0029080760857519007 0.004681312370470296 -0.003661930241651127
1197 0.012912396770391313 0.0211915105300689 0.00010363653858487095
233 0.0019694428932132157 0.001012471002683538 -0.0033271992024112972
187 -6.215043879570768e-06 -0.002195287359951617 -0.0035887561262511166
232 0.0024229265766050993 0.003316927324140886 0.003121283235322404
843 -0.004857073863245237 0.0036863967970782534 -0.005774552841520787
415 0.001031917682453738 0.00794177946897432 -0.0032847203117883222
759 -0.009246835442783203 0.005309269334478071 -0.0001717851879554312
533 -0.011025739010959181 -0.016531989259707842 0.002601381664846167
532 0.0024867000138496273 -0.005636714499257405 0.004641455505812575
757 -0.005136444352022978 -0.001805476420972094 -0.0012611708460166162
650 6.535032653563932e-05 0.005003884664726377 -0.004245395891632996
643 -0.0005947116248673309 0.004838261687421047 0.004469778626382281
511 -0.0021948294474449987 0.0021889605478121457 0.00073112232919444
548 0.011326261427157007 -0.015974912214773523 0.016325619379187133
900 -0.0019246554553906 0.004976629049539523 0.02092385146557719
1434 -0.001045030287334044 -0.002455095923719866 -0.005581059260538227
648 -0.000860733018247629 0.0034673554998420285 -0.004875930980691428
1028 0.020862324885912005 -0.00900502876828017 0.011626708518805255
917 -0.0037862120652371514 0.000532862338049577 -0.0029576733271630975
1217 -0.01662299940642217 -0.00042301552334713364 -0.005323459683727622
1111 0.00459995201260226 -0.004863286540458924 -0.001085782137570336
1195 -0.0004246400326668956 -0.0025725953743245015 -0.000212696885031401
1223 0.000839620562965426 -0.0025077644094909585 0.009038184970034197
758 -0.0008848616758014198 0.014582773303116409 -0.008167308318734082
1544 0.010578964042804988 -0.017254323435724372 0.00659892088017663
1274 -0.0009906080782616411 0.00700666825110522 -0.013639172610705387
1543 0.004103364712835993 -0.004567376861424609 0.005935443856656299
66 -0.0005970547863837263 -0.0003059639181937068 -0.02554504475086058
1363 0.00653135783514272 -0.0008776356215597013 0.003124982651228908
1365 -0.012677520692548882 0.012267673761433 0.009784463121726471
1364 -0.017744444514644502 0.013289416541096947 0.002774940737244649
763 -0.002267522730744038 -0.0008944059260773653 0.0024686106184048694
290 0.006357818194698815 -0.012890949476298994 0.0049537011645967395
764 6.602423825490021e-05 -0.0019655814716310334 -0.0002315956765328285
765 -0.0020262741099084775 0.0040164996796860745 0.0033088880188945242
1354 0.0049459688038738766 -0.001458711381131129 -0.0013267389443552128
1355 -0.012883810284362432 0.0022382902979595854 -0.012718601815210992
289 -0.006980704432597066 0.0034449091928073273 -0.0005217879961813362
291 -0.007170965525714398 -0.009185082900275648 -0.004145093033621795
437 -0.02151656480002383 -0.007895473242880001 -0.009675505464949444
436 -0.0014519433792997867 -0.005609738428807343 -0.005581607386854439
1356 0.012941610324893191 -0.008712067175674501 -0.008522431283512898
438 -5.099319457367411e-05 0.013504201484759807 -0.001946158585504052
330 -0.008655494795706244 -0.011420673778242896 0.004837998912077744
524 -0.022256774938722305 -0.0028946008698398505 0.017745498271142815
525 -0.006613138562195485 -0.019179774085928664 -0.0017806758035803175
523 -0.0028216137246167517 -0.0041994926635353065 -0.0036967326906663872
332 -0.0026726251329722162 0.012314664310491599 -0.0009598428406805725
331 -0.007424580403697852 0.0006671761082696028 -0.004419191852556602
1030 -0.00589140775999301 0.006356995214262736 -0.004190676086620985
1032 -0.010102005285361072 -0.0008504410012381127 -0.016102136894821276
1031 -0.016607630494757167 -0.022513706817743562 -0.048419045484058024
274 -0.0009067824057306947 -0.002790435275482668 -0.010232832078870354
863 -0.005088102218049973 0.020445737399436347 -0.011697829339831408
862 -0.007644482418374094 0.003310758011022907 0.0003323467460984673
864 -0.025109278740136135 -0.0025002545130715344 0.0072966264708984796
825 9.97429789934628e-05 -0.0023493054753507547 -0.004196168854354767
823 -0.0006426846499122532 0.0005133632306723966 -0.0009806255531589914
824 0.024401816359762414 0.020187698773236444 0.01765603993496087
210 -0.008673674316487894 0.0015411485000593338 0.0100291968799614
120 -0.00968220392605585 0.002927038617718682 -0.006323689122257272
119 -0.003789131894588819 -0.013860603812288496 -0.0023747126066871686
1251 -0.0046153964825841115 -0.0046945334160977585 -0.0010770401738264754
1249 -0.0020374409204051403 -0.0033190715175275922 -0.0017007970593965877
957 0.01512237990925578 -0.0025805730235606214 -0.0003379964531960623
955 0.0021140792568233847 -0.0007709367186238961 0.003979494926328052
956 -0.0014071985596393532 -0.012014538668118475 0.002438000702203237
491 -0.0009929963936550605 0.00026599337830748735 -0.005898975248678958
993 0.008090578084523492 0.006479785689164732 -0.008182321147620691
1282 -0.002674226104502458 -0.0063285693841711056 -0.0012968513987512038
1250 -0.011854762625402285 0.010414157221967951 -0.0019588354554472658
356 -0.0030960533188484156 0.007988530731936293 -0.008609192824704922
355 0.004448432619649239 0.007023008310989664 -0.002478863708285642
1188 0.018082428640692122 0.019406774477345366 -0.008647124760511025
1010 -0.011543849117872889 0.0034767990030979386 0.0015635001896255468
1009 0.004407175909872621 0.0011016129109389598 -0.007207922486733781
1187 0.006431117939516839 -0.007655201981149447 -0.009955633866731255
1186 0.0017008070132539374 0.0011680764799836636 -0.0007806232977766532
495 -0.006172484526562266 -0.005273268934519829 0.0012535079258942337
493 -0.00017493377677158022 -0.007026467491711759 -0.0028037546500746142
658 0.0024615448630405457 0.005030687850056703 0.0002783182249965973
494 0.0018133053636247216 -0.008722204203864117 -0.0010443980299779697
697 0.009205650004551424 0.008978542592961368 0.003992196879874441
1011 -0.0088366783173551 -0.00043687119097817416 -0.015028804307261131
699 0.02442731445826003 -0.003403729647761852 -0.0037868668963049997
740 0.013316960761285766 0.0032054271150787675 -0.01364698036869245
992 0.009364634368512625 0.0067460309953974755 -0.011679788106887327
991 0.0018136811866331637 0.0025206010440705076 -0.010104157236876738
1229 -0.0037170258230834635 -0.01385617587252938 0.00024968689016124
87 0.02765315173821637 0.022989647124459774 0.0022162759249003496
1227 0.0016030053219683843 0.0046931070031059705 0.003540012980061696
137 0.005498247454974066 -0.009253449480014084 -0.009002111187412266
1048 -0.0013713071323365263 -0.00013503196618899494 0.00038278575248807024
1228 -0.0006020176719691228 0.0008345732037840012 -0.006004552882065126
1230 -0.003786622353026993 0.0065443309258045 -0.0068744084943715205
1049 -0.009230958589143565 -0.00017541392048690216 -0.002003369115380248
989 -0.005420401039775959 0.0018317553734187228 -0.00612452878200787
1519 -0.0011292291078420474 -0.0016242307438715054 -0.00426653939577663
1520 0.014416931011724948 -0.010396967768477518 -0.012306139381092256
1521 0.015008807392162055 0.017593719401603453 -0.002578233023580864
1368 0.014679919926640875 0.009344299385766733 0.014762749676865876
221 -0.020081386771471185 -0.007564946805080637 -0.0009054956544088034
1366 -0.0011844764308492006 0.000909276750643499 -0.0009259869465977504
988 -0.002413857577963016 -0.0003836824520530716 0.0009063743590169404
990 0.011550608002248938 -0.010874313576047444 -0.009475613430274324
1284 -0.008425853828809763 -0.016899002269566518 0.003688656320125395
1367 0.009633748419020885 0.003406577426386444 -0.02179864941103507
33 0.01205624053386212 0.006536297960924813 0.00929126756897652
220 -0.004306223853879475 0.0014723729596531512 0.004419589785504953
222 0.008160973868831117 -0.0017168358471732201 0.0018272052795204332
962 0.01814165595994653 -0.009971893961168404 -0.005430450935921648
1033 -0.0019050274425960357 -0.006926525599000955 0.005826214411212086
1034 -0.01427550849907548 -0.012499685670245814 0.00961463584729934
31 0.00366533475846548 0.004554863536802087 0.0023101470086870266
500 0.00242584595996451 0.0020330144432370153 0.005632148111997975
32 -0.0007846954565225465 0.020639039759812475 0.0033870094110176902
499 -0.0010174781485349231 0.0009890012776266298 -0.0039628439114363255
134 -0.01287407677564997 0.01262062332839096 -0.003558703210452969
209 0.0006928226789846714 0.012594484755254811 0.005103398406973298
64 -0.0017914206483883055 -0.0008486373429218057 0.004002156956036153
1545 -0.005444548738336682 -0.004581229826229614 -0.005833477068188329
471 0.0009276291672765662 -0.005721110048623001 0.007270829141089229
948 0.014594163872081525 -0.020475275542175212 0.014166776272823936
946 0.004312420404020825 -0.006735700369312548 0.0033799683326182195
947 -0.0016933402099279557 0.011496483133792111 -0.0021294099098662974
1539 0.0059487766162065955 -0.00374673863327285 0.03150632328596662
1538 0.0015448317268298999 -0.0012352715105366618 -0.002739144425156658
1537 0.0016101980822300916 -0.006795071238023704 -0.00427938484420369
362 0.007465620905113692 -0.006417979897790311 -0.025549366645487306
39 0.02948725840516472 0.002636402729743876 0.007243281954671153
37 -0.00039142260442511065 -0.004907444362408663 0.002394960610571217
361 -0.0026767535123882174 -0.002767302293489471 -0.000457953336384644
363 0.00877948016519376 0.002745994781111271 0.006824768390922148
38 -0.015692761576135677 0.0012555394425759264 0.024123239377674105
1342 -0.0037672473958443257 -0.0008159014432944621 -0.00037596321423678385
1344 0.005088724672442816 0.020289433240394866 -0.015804729624273227
347 0.012884401422847193 0.004552174187021642 -0.011607359404317848
133 -0.005525466731758027 0.0016968017281500532 0.0047361130356555654
1343 0.003605269097791459 -0.02385253175110862 -0.012194260800316365
367 -0.008710078627214455 0.003946412274150516 0.0055850022819490044
208 -0.0036407612768885557 -0.002128435256544742 0.004490297986253699
207 -0.012328644038913556 -0.004939586148745547 0.00247396370226041
118 -0.0007249087917077574 -0.006185311938802494 -0.003796560829901384
615 -0.004207328566554198 -0.0055305478591627455 0.0023355057277325776
613 0.0018971440919324468 -0.0022141544593381815 -0.002763369766600032
614 0.01548211400600464 -0.0077927510953619845 -0.012443488760615743
581 3.923642490233254e-05 -0.002216587379724058 -0.0038068341960173875
580 -0.0015719003558110508 -0.00042756219891789917 -0.0016575435057948698
582 -0.00029437990631936385 0.000309148680254034 0.0035092409481986375
205 -0.0001633915164249479 -0.005648289309185216 -0.0035640259093243365
206 -0.012913436636611247 -0.01195904382774479 -0.002617986770717664
569 -0.0007572207945175935 0.00909246738238353 -0.01639777124483007
1558 0.0014373510652983868 4.2867580808963066e-05 0.00016494278294433413
1560 -0.025810106984884777 -0.01765842052455645 -0.018942682982006256
1559 -0.002052852859647492 0.016454502623429443 0.026806803078243898
83 -0.015311451330015402 -0.008623679492015182 -0.0016693748388792093
568 -0.005792306093799912 0.0003693965060998512 -0.0001497951448798436
82 0.0013947230814387202 0.0032107788009847114 0.0004918837383752297
1495 -0.0020378405576469347 0.00153494154095382 -0.0017153424779917134
1370 0.003934758654773224 0.000574374302933018 0.022125076077928275
1383 0.001439638337135177 -0.004576724068633969 -0.009042937369503738
570 -0.004491597902176362 0.011121266796515749 0.012874860159433657
85 0.0025319928786615904 -0.0018198740387704846 0.0022904298150887214
1369 0.0028178084932878175 0.0005773608285964041 0.009212319582578697
86 -0.0002413713295485147 0.027291751366948964 -0.015535222610921893
1371 -0.011269319660191091 -0.002757487071850032 0.008303861443253355
1191 0.006216957358409143 -0.008605019107233384 -0.013833225632970743
1091 0.014902590763702477 0.0014462471795693144 -0.0008266645072044801
623 -0.010270645388679504 -0.00589700181749637 -0.005921411885719507
622 -0.0027692280702587115 0.0022465602025473564 -0.005950368908502747
624 -0.005301477132012397 0.0016377867761721149 -0.006081521962887499
1189 -0.0005312913704891622 -7.483359174518589e-05 -0.0009018799542980853
1190 -0.0065251656880698 0.004443184588151698 -0.004398259453723528
698 0.0070866095068350034 0.01082229747171272 -0.01773773093331651
163 0.005011641679420594 0.003473521747264109 0.0017246218697978492
164 0.030840695334592015 -0.011597403118399846 0.004862000427468262
1436 -0.007181312708613985 0.017760583672785987 -0.021372411491508588
1437 0.018355330558440568 0.024603018905894954 -0.0031727942379263345
309 0.02108221655750668 0.0042982882952974765 0.007352542786200975
963 0.002758584174596714 -0.013686235470184242 -0.018135578395677972
308 -0.0033033556100275203 -0.008704701300261894 0.0046680128115365515
307 0.004359426135675692 0.005988849064017254 0.0024715871911618376
961 0.00031785305609196803 5.242070408910665e-05 -0.008655462576148947
486 -0.0033586746847982414 0.01123287127062122 -0.009107518702202649
484 -0.005201244209106923 0.006061481055358971 -0.0003194740793564389
1323 -0.017660608837086502 0.004181966688040236 0.0033701963831553354
1321 -0.0012160723388532843 0.0002726907222586873 0.004813016797444803
165 0.013009335780859386 -0.007946781231894592 -0.0031084387915797005
1322 0.006709516065981035 -0.0008415054668911184 0.008599203775193003
574 0.0005056167137997806 0.006967484627068666 -0.007235137278378683
575 -0.002713281906429677 0.008834782027010579 0.0016626588671798152
576 -0.0038863316784531416 0.013856464257526404 -0.0004268621191169906
144 0.02118102309612912 0.00178450296568218 0.005643961566261286
1303 0.0015425058082416312 -0.00022298895844074276 -0.00015232859848328344
1304 0.012328979349971587 -0.00580460871429348 0.007046371208188116
58 0.0050361207549798346 -0.0051389697592813316 0.004472178933100117
59 -0.011473999656435507 -0.0037580302410589552 -0.006606073299384805
60 -0.0004935528332323768 0.0035946305519226353 0.008447751968630447
135 0.0019415467240993676 -0.004159496075140291 0.011548687224822345
485 -0.009586609503948344 0.009735975344217305 -0.030883775652088597
1305 0.014619771861888163 0.007338867795148192 -0.011537339578852314
269 -0.0021214017333744365 0.009093521129357298 0.011815197882010145
295 -0.0007321142244788301 -0.0027186928649051284 0.000863714512400279
296 0.011640131461969122 -0.009191777717559118 0.02386088007396403
450 0.0064899999794957456 0.0026377990654133984 -0.0046113747234288426
297 -0.0026381119133816193 -0.00404124035326666 -0.00770217017612639
685 -0.0007277350986971597 0.007093907242174372 0.004683859325700444
687 -0.00797938124006423 0.008767975877939052 0.002970154836172257
686 0.003338093611279597 0.005087656440083623 0.004037866442514975
1361 -0.002227497722446529 -0.006077762673478532 -0.0008464008543189157
1360 0.0027637141049368006 0.0018240588122779772 2.4435743102253846e-05
449 -0.006638899850596973 0.013682846781747977 0.016397651426915065
448 0.004983603335737913 0.002704010771290375 0.0004278972523217278
411 0.0030144435662273874 -0.007932147921046854 0.008643883105269694
1160 0.008059262599873654 -0.026756374573684377 -0.00306307844267741
731 -0.00212480032950304 -0.011779154785128145 -0.004351393381818568
1159 -0.0011743737144815085 0.0014676888034048214 0.00020547990541881184
701 -0.03537159330070104 0.024590865967945453 0.00864690680836338
700 0.009641488217137022 0.008517428819284767 -0.0006499764315093832
369 -0.00402238053140845 0.0054193943087187165 -0.009808588467163993
797 0.003838013318917642 -0.015360754910787033 -0.003295639434147559
1262 0.01307820807179293 -0.00839904243674773 0.004653361686577629
702 -0.016981482112017048 0.008321144699153649 0.012259015748332193
852 -0.007745567077286451 0.007520150323825791 0.007041201305031925
84 0.01753867438142544 -0.00898025394128311 0.006081057202987072
389 0.011932675881829486 -0.00010046640845234826 0.005513958521787031
851 0.010062935050833144 -0.011146780338874309 -0.016490674650220912
1402 -0.0034746218239861517 0.0032622905817085734 -0.005545397854485688
1404 -0.006365979670644763 0.002233797049840849 -0.01622377851400533
1403 -0.004077462499701132 0.0152663532278992 0.022232104478082583
850 -0.0010380579565329759 0.0016216127415691999 -0.0024934523429430136
1263 0.010093473236905254 -0.025331409465681055 -0.013123797960838998
795 -0.0033613507520180693 -0.0020039212799480705 -0.007116246932650374
793 -0.003967691744482731 0.0025058606678157193 0.0013304901322758135
794 -0.005150318766561329 -0.04250442956373793 -0.01311869063145542
1261 0.008365714861979826 -0.0021601991959497692 -0.0030564047303744874
1556 0.017953429643828414 -0.00914347613937116 -0.010913568368360936
36 -9.657704288237072e-05 0.0018932643549305552 -0.006365944410629408
34 -0.003212651613263896 -0.005282393960064076 0.002180801407988192
1200 -0.0020539841705750355 -0.003717779123185033 -0.0005606202490362496
1395 0.009470309250526828 0.01039278540233282 -0.01748009977633564
426 0.002581542081488328 -0.013128553170563209 -0.009844487112716495
424 -0.00016852898873758997 -0.0020816800281565897 0.005143756716384889
35 0.0006874672152895576 -0.0025182787565015915 -0.003954122012327971
572 0.0011780094609565941 -0.0005029386485821864 0.0009559403474811454
571 0.000391054352736767 0.0021162582307031413 0.003143996360746562
1301 -0.007238387841924683 -0.00034728027921201993 0.009426631957281932
1090 0.003340854906399833 0.0010405725878256057 -0.004973008547130793
1092 0.021821675459831814 0.0034805903080600393 -0.0025054040665742584
1300 -0.0026978685249140688 0.0018433598618562987 0.0016053054247062804
1302 0.0027916866649346237 0.004941678613613557 -0.0033985034690464707
1557 0.002276112033710229 -0.002330490144877794 0.0006895292849477433
981 -0.02700492416142264 -0.009530679277529337 -0.0034028164190765026
979 0.0010211964346503756 -0.0012056216439234068 -0.006573227763415492
103 0.0012877984084881367 -0.0009415185179524303 -0.0007043306641957378
20 -0.012924693324311702 0.0001276132777942209 -0.01972745656517427
105 -0.005773150629259851 -0.0075884825677180546 0.0052868942093662755
21 0.0024483975310842184 -0.010364409140736552 0.00595631490781202
19 -0.000709845318895893 0.004772291063380671 -0.005112992523235995
104 0.010993108909774283 -0.007755864369994549 -0.02043947154188779
1555 0.0019633288198312006 -0.004889333626623005 -0.0019471472216131172
675 -0.012122462838029745 0.01659071484584293 -0.015679638186276813
124 -0.0010063431705416802 0.0021802166694047044 0.005362756325844962
122 0.0018181830115019681 -0.007384526784172044 0.012088032831599142
126 -0.010417716410730759 0.019925050584734386 0.017869016450305687
573 0.0034962174227162177 -0.006224341642865327 -0.006025198976309112
1459 -0.0006649862585168289 0.002324974893750714 -0.00047179613406968436
1067 -0.009799375691143633 0.0015485276455072042 -0.011625161303413173
125 -0.012605653971522192 0.004537448607769233 -0.012251996831986479
1130 -0.00982442923660459 -0.007104641712942802 -0.014657262719140514
1176 -0.0015869407131414413 0.013557452115143937 0.0037077234609968254
242 -0.00021459574666641206 -0.004093323470644907 0.0031347232549222975
451 0.002110288607943598 -6.800496479611798e-05 0.00040258835588644553
452 0.008491926180803614 -0.005171100215768989 0.005646207616822741
1291 -0.0022980540493791075 -0.005290842502905422 -0.0027310465879579206
453 -0.004934404286259332 0.009731913565402744 0.0037707750618979205
1292 -0.01957149095338293 0.0019257356043908922 0.0022839955825098113
121 -0.00024007547044328157 0.0036656106836699992 0.004012641110699246
1399 0.003203459682003926 -0.0026593136625450288 -0.0005873359459864891
1400 0.00869803709420034 0.0017594798196926443 -0.015140466269066103
1359 -0.00890460687758864 0.013402698613273464 0.002478066829201109
1115 0.004258023629826274 -0.017443263663355902 0.0012084745684159636
1114 0.011590175589626845 -0.0020484231862054865 -0.0018158285295628129
1116 0.012946614256391603 0.008398264539825402 -0.00023903254476789719
1499 -0.004466871755328968 0.001806700308587115 -0.004315040433035784
1460 -0.012982202497495744 -0.011334184260554318 -0.03334921284493696
1500 -0.021582919871213583 0.006475437268361696 0.008695296224907162
1498 0.0016786660946351518 -0.0036509181281180357 -0.00015650766852030756
1401 0.018067854528486905 0.009606971890107568 -0.032902983377941966
751 0.0027131815848013153 -0.0023660437035806065 0.00015941821991022288
410 0.014737612106952588 -0.021295541013690356 -0.0016150508430853026
752 0.0006477461928284099 -0.006743629006361847 0.022480354446631618
730 -0.0017486150170681676 -0.010435721595146602 -0.005489235079009825
732 -0.0029905096836331225 -0.009570788990635551 -0.005404721158620403
409 0.004658429399982584 0.003264693071140161 -0.0021590736393547914
753 -0.012785533693274499 -0.019275731571205906 0.011000110161697704
890 0.002766094322187951 0.008254374862636301 0.01806852645502587
889 -0.0037096134978802636 0.0011841721187677743 -0.005104527620029718
1121 0.016789973529491183 0.015215122037548903 0.0043774004696931395
1120 -0.0020840620633667214 0.006057624887783387 -0.00487197071812781
1122 -0.006863302212224731 0.0036837864345087667 0.011525538589303297
172 0.005392627691246798 -0.0002986023385211935 -3.756138466738816e-05
401 0.01680234863842494 0.0030802482079318643 0.01121064568820613
353 -0.0027303252223912365 -0.009410068932649535 -0.0122425127987503
352 -0.005238348748235289 -0.004298302664466387 -0.007856135315035897
402 0.00891541345516403 -0.012583404626965177 -0.0011744268522355583
433 -0.0002071979884361433 0.00015526138623875058 0.004692674870706864
400 0.0005381456196368085 -0.008276590922038486 0.0009161547955631396
435 0.003161489978008077 0.000186393513141838 0.005747280227246347
891 -0.00087956854713353 0.005637722533622241 0.019848052898839286
354 -0.02030389224975356 0.022636362117417028 0.016934506036035666
434 -0.0005344930597226521 -0.008934268250402966 0.007778187235114198
531 -0.0010944573345983094 0.0017604300804192764 0.0031005640966735534
1117 -0.00028835789492117546 0.007216091478166829 -0.00176481453918484
1119 -0.004118652097675331 0.007570573683801181 -0.008012554616900381
1118 0.00791653284939356 0.011623608764188869 0.016984381871126587
497 -0.009736392334805525 -0.025655027447316667 -0.0006323307067836243
496 0.002757940987906452 0.0011901585243108547 0.000722146626605704
498 0.006398454155365063 0.016193716136406324 0.00447093324119805
325 0.005488085985421371 -0.000805947446842372 0.0032436000714955054
712 -0.005232270401308515 0.0026515086054884106 0.003584158370720226
714 0.003012905442501121 0.0015217962006713944 0.0059839786509668
713 -0.009627127797167465 0.0033941786456984997 0.0023970029013820897
279 -0.016438665174234132 0.011367642801961873 -0.0005147301187125174
278 0.002890846422032559 0.009027818732239937 -0.01434447794913762
277 -0.0033290500870345762 0.0050029160421687525 -0.001720320846488451
1416 0.001232656420825437 -0.006348745023757496 0.002023821155189007
1415 -0.0005919726752142714 -0.018822852670923044 -0.0087938322406185
492 0.010706984906515869 0.001673494106772734 0.007161360891984377
830 0.014696306929163122 0.007312821369452181 -0.004371595308260495
869 0.037307778611566256 -0.02568082141232395 -0.012048341044007534
1414 -0.0013223962704682277 -0.006270973970983425 -0.0031729575180858035
1198 -0.0019253381617007216 -0.0008003112399332157 0.004582738599113711
1199 0.0017276966785070283 -0.005316837967558854 0.007915346322125085
870 0.007745491307289997 -0.00401851498392866 0.0022845626001353047
868 0.006738686013864051 -0.0005256635262278491 -0.0018271252493595581
1066 -0.004424563413249589 -0.005030257768789651 0.00036357325444220646
1068 0.0020256010333710053 -0.011362399376220552 0.016607615522656664
600 0.01753860090569009 -0.017805307335639346 -0.0005298212301960653
598 -0.002971364976437005 0.0025685512792597916 -0.0026941848972448397
1548 0.02453054065903818 0.030814778126881284 0.011048888383881229
1546 -0.0044959854083934745 -0.005781608116653678 -0.0037728326501081976
1547 -0.0008810550207869323 -0.0017596267582986004 -0.004147127492144685
1097 0.011756783235463699 -0.004107961124076267 0.0019507427983719572
1096 0.0016977758113149823 -0.0028031786576150756 -0.00378523202162701
1172 -0.004140234451597797 0.006234502579025458 -0.0009926027843638451
1098 -0.002110823026836886 -0.0010810236422306668 -0.0072403492102393815
1171 0.005174474743885521 -0.003009270217451524 -0.003842550603844973
599 -0.006440658977027214 0.014045582936767494 -0.01997878300540365
1411 -0.0017003323099741713 0.0025070579254242034 0.00449280026107128
263 0.005467278672621498 0.005545022956922525 -0.006650090689493243
1461 0.024108361454610903 -0.001983465850004026 0.02298680860047545
1442 -0.0003439059418830848 0.0073422290288832565 -0.0032217226917946678
241 0.0019471896529370983 -0.0017106713559570377 -0.0004398122762071264
243 -0.017574035659674137 -0.012584841073688553 0.004855907176812569
1443 0.0019809233815151696 -0.004101271050148362 -0.004262050547589068
692 0.008522615294633882 -0.005282837122700011 0.005637030910070392
1088 -0.000559649908965857 0.00980955368059283 -0.007993915894358548
1089 0.0009514699111699076 -0.02987295575602452 0.02997134469763054
1087 0.0019876755651219314 0.009283895656952564 -0.0016652332401905195
1413 -0.01778213944084163 -0.020634713876271752 -0.019957624031145472
262 -0.0010353929924496632 -0.0003691731390619363 -0.001955062369788546
264 -0.0017847872270001287 -0.011394621548118444 0.007807426833265401
1441 0.004157879661390687 0.0022821254158278065 -0.005477995504300125
776 -0.013803548244178612 -0.007541971728191041 0.002785744692346127
1470 -0.014796954577221695 -0.0008820764407137915 -0.009713966730646291
1145 0.0074110902299674266 0.00026252134440212107 0.001227824340338906
1468 -0.0063732782291913035 -0.0038902389498745083 -0.00024258392747175436
1469 -0.0037754000894228614 0.00833777051511563 0.011055443204519854
1144 -0.004344004768212629 -0.0005327578788391509 0.0041088227594262
775 -0.003930199144949258 -0.0007698925935271955 0.003482563836876353
1146 -0.015639083656022543 -0.012906678215975742 0.0056970347289024515
777 0.011826916662435334 0.00957546366021744 0.004715200255375117
691 0.0058160108372098136 -0.002347557919957636 0.00459200001207702
116 -0.0032144680626977453 -0.023480539634147035 -0.016154420630207285
117 -0.009708825234829707 0.02150685600309324 0.010193919574982039
115 -0.007758868421199884 6.722759445640993e-05 -0.003018277964514134
442 0.0028833870694655954 -0.006300193657691786 -0.00498072296353717
444 -0.005099472446462144 0.0018553766216826413 0.003420326917609175
1481 0.010610710029119803 0.000917263573600444 -0.011361745595650535
530 -0.00973224992177911 -0.0009669029730406915 0.0027439437178362423
529 -0.004318883206187745 -0.002682037120980466 0.002579504495488954
1482 -0.01555150558153905 0.015294494198231472 -0.009945017080165635
1480 0.0016411530275349305 -0.006671420517978883 -0.0025032992642595895
505 0.0022267183458718025 -0.002622341309336018 0.0015601788352080327
506 -0.012783951869555282 0.004463848064995134 -0.01956893400338374
507 -0.014059587102171372 -0.029677676960551513 -0.008095204295579509
490 -0.005075202250943989 0.0022454150494527394 -0.00013274525416563798
357 0.007871210381798738 -0.004121315652083657 0.0059712020052825636
659 0.001211762243971222 0.004435667827869752 -0.0004497367512209847
660 -0.009002124802664274 0.009649379638553203 0.0016638794418055048
1412 0.01050428158447292 0.015024616889002364 -0.004218429636055559
693 0.007217751756454206 -0.010462459463726544 -0.008446049288545646
501 -0.00038419889996308125 0.0014895125943386782 -0.002083987213188851
345 -0.00968047732115928 -0.004020867658702424 0.021545412140325834
960 0.001466789008075653 0.0104165027636455 -0.002915747033177344
1502 -0.008762699918955941 -0.0167464599601517 0.017671685843846856
343 -0.00391960527662797 -0.00908658734587044 -0.0038220396016226087
344 -0.01189653653165736 -0.01383664976368578 0.02009897784828005
14 -0.019952798000743295 0.015627018132765062 0.007976440162357303
15 0.004017910958378268 0.013381919527708208 -0.0044199710972068805
13 -0.005352243458928939 0.0019489445680734721 -0.0012040493944242535
328 0.0006307597253039661 -0.0032416706397828438 0.0093882590482986
246 0.016851133296005346 0.010234869507604476 0.0004314987775840285
245 -0.0034319659013511733 0.004399603109857485 -0.002001643061560055
244 -0.002916945142181762 0.007450030160239312 -0.0008661711294051822
779 -0.015101310508750763 -0.0049018903415268406 0.007828795781718316
621 -0.0005083061050004503 0.006818459820722768 0.001674190313695993
432 0.011287692868892142 -0.00790293783604467 0.007913098846280548
1518 -0.007813334793930296 0.0084514653616676 -0.006109246654693834
619 0.00010155185741396871 0.005545601111804611 0.0023773521905616282
430 0.002513981168353589 -0.005174785362786765 0.005749391269308504
618 -0.009895292611008473 -0.007974461130413566 0.003792374203024652
958 -0.001925919965002 9.418866004659468e-06 0.003923316901621836
1310 0.024714349261301925 0.004096931228561283 -0.01979442124966026
1516 0.0030618540806136947 0.005883925390570677 -0.006185897818666563
275 0.009920803360314251 0.0009377187349794548 5.368603679310289e-05
1517 0.020279212914879188 -0.00017788943294208412 0.005140727710049087
861 0.01798110970237921 0.018058028869293696 0.003423119431037003
276 -0.01549754991746337 0.00939248102571172 -0.011655778807695897
71 -0.005888147166599522 0.00815078304701432 -0.0145297875805727
329 0.005597495831163612 -0.0020856877677177536 0.0064182762566229136
70 -0.004154113365447563 0.001348417256423784 -0.00044297384611516495
72 0.003407842640747754 -0.02777554698093863 -0.002129049146402485
43 -0.0014645073394656297 -0.0014521159012213403 -0.001889428516657592
45 -0.001439099790024745 0.00034671911063734916 -0.009159174935182467
44 0.001878788509132107 -0.0004224393413280447 -0.007940664630654527
337 0.0022802214547202903 0.00016608330653146528 -0.0012291189459645434
339 -0.006227303306678651 0.0012471161692473858 0.007737103521291584
859 -4.343355519577326e-06 0.003946917088286029 0.006575009430251652
860 -0.019152456359899424 0.015281195141273194 0.00597474578455195
1397 -0.010034046556936675 0.009507386068746515 -0.007184262933048416
1013 0.004589847527960361 -0.007663714205942337 -0.013950861876415775
1082 0.0057319984265376414 1.8791848361929416e-05 -0.012065853623498737
1081 -0.004842323222043812 0.0004496759707962984 -0.002592406875654888
338 -0.008694888398477986 -0.0006746880222874164 -0.008099095966741028
253 -0.004299090795869824 0.00013513155456022723 -0.00043996082822960917
1083 0.004637391933159891 0.0030063500692908496 -0.006723840865177186
733 0.0004980821929270356 0.0014644674280911137 -0.0005161135912441499
739 0.0021282434176667525 -0.0021856343515121264 0.0023725366791092065
1038 -0.026236717240637288 0.005475357614729969 0.003789775915992814
1036 0.0016009258545326866 -0.0029975768045921274 -0.002043654111325286
1007 -0.004909634435905419 -0.00776431626364282 -0.0033674812604898305
1006 0.005767026912122873 0.002935454362021824 0.00573307034208856
213 -0.0061687922051883014 -0.00631918285204578 0.008692230703478028
828 0.004428483665219973 -0.029829619980780837 0.005633064400198975
1037 0.03051792383942616 -0.005874628205190636 0.0221595132077763
826 -0.0034835449671063823 0.006488677879849201 0.0066345208712578615
1225 -0.000735776054598712 0.008506821714645762 -0.0011004768363355268
1226 -0.0009458753793699678 0.015940236114026354 0.0032237023310408017
827 0.009904559443443357 -0.01858990453673128 -0.019834227212563643
735 -0.0028545535813938733 0.0008993086082758924 -0.003707379297662564
734 -0.00473382645466629 0.00020047675201764593 -0.007027278446020675
358 0.003986975331121434 -0.003296520664401372 -0.003788452593092078
774 -0.005662831954904733 -0.013112374199363312 -0.0017042396440506257
1474 0.004347488087459694 0.005808142614074912 -0.0018103917308957612
1475 -0.0032390270352177855 0.005449524045503486 0.01141730760738683
360 -1.8008063756643944e-05 -0.005647254653386503 0.001962216602672465
1396 0.0022186842681475097 -9.28783612188557e-05 -0.0031400440389355395
1398 -0.0032902340497681704 -0.004919953723805339 -0.016638900983678824
211 -0.007024248675782582 0.0031694085146721906 0.00221485772590844
212 -0.005049867973865006 0.0002996994796319609 -0.008842552582680015
1008 -0.004525107386368792 -0.004386914303567436 0.0016156340655762182
741 -0.002689006989513354 -0.004502112895606506 0.011742085995837879
359 0.010525781604475603 -0.0004838723407104972 -0.010617485884932228
792 0.008300834590035304 -0.02075498063983773 -0.01018515801659597
394 -0.0008329087374332148 -0.0002797680749453452 0.002053168811284689
395 -0.0008244416062726213 0.010211556438460008 0.003639170483937521
790 -0.0019273260752742498 -0.0013496675384144024 -0.0026239244798822807
334 0.002118280670770418 -0.004312126195227614 0.0026146122287159924
336 0.007238027941477746 0.019865409796030888 0.0018340208159026623
335 0.01683326359527013 -0.013351997493470361 0.020254799077276692
422 -0.0008776375860845732 0.011740566528766667 0.02731397453827881
421 -0.002360079588572353 0.0026648433192925838 -0.002844318547374507
558 0.0042584985576815775 0.011440802488904068 -0.0019186716018761703
791 0.03542745922807099 -0.014777418125316862 0.02943562959885301
1208 0.009296328018143101 0.0011021068679508276 0.0042513754647168075
1503 0.022376388926523782 -0.00036299346525578815 -0.004206441962257023
17 -0.0032689609604248907 0.0036442182880305402 0.011114566915315616
1248 -0.013285545423107217 -0.00540065542568203 0.007300827654259611
1035 0.0010071518401736982 -0.014891532716462492 -0.0025580161157419488
16 0.003135835883927607 -0.0017976497591802021 0.004207837156400113
440 0.0061594664345729685 0.020736415566860365 0.009939726444313771
617 0.02186124376294106 0.011122902666204132 -0.006654295046749744
616 0.0017246209942375402 0.004154990793195745 -0.00032606619350282457
1501 -0.002195462547938462 0.0011116750463548047 0.0013258397752889722
556 -0.002092356665108423 0.002453117153036316 -0.004694989720388707
557 0.017856460051052788 -0.00871853083589271 -0.005181086962794184
778 0.0009210610301500978 -0.005122210416911728 -0.00693363899500038
780 -0.018720061137123573 -0.0021840850871740155 0.020243179790083596
346 -0.007070463366937347 0.0016098688381043658 -0.0021147610321756182
1311 0.011933489650904874 0.0183103761325773 0.011745215832262302
1309 0.005889839374763493 0.004202794690221523 0.000646158212866663
539 -0.012670678829680631 0.00713060854499213 -0.022084066664358887
319 0.004309487042790342 -0.0005916750737136039 0.003615973510783905
959 0.0007611189464104346 -0.009786111222063505 0.0008029830844990425
538 -0.003127367615939628 -0.006629074493695884 -0.004026299287836762
540 0.0018643532053322636 0.005378562784167233 0.01979505086088074
669 0.007782539285854075 0.002289847577504192 0.004236396612223285
1551 -0.008966424003774263 0.008636608669948921 -0.001101925450495266
1549 0.002992823216548713 0.0038064521181605947 0.0017712084988734007
1550 -0.010228553061453143 -0.004665582180477717 -0.0018201844114898917
908 -0.001864034889976771 -0.011445494072916123 -0.004658808567582425
907 0.0032918744527689115 -0.005111230047676344 -0.0007279679994004668
909 0.02116344619975072 0.002802294338262119 -0.0011836960519806393
667 -0.00019190418008662347 0.00012023983614890524 0.0004002610916830198
668 -0.01773137766608357 -0.005054079415242578 -0.0031642663416322748
321 -0.003548963207303568 0.0015114987749526641 0.0033726229982348186
1347 0.00986051151831562 -0.0027929090746505038 -0.013261432518452765
320 0.012669826823551963 -0.008038918082718711 -0.0034814871805833366
348 0.013655301490374895 0.0023241298121557696 -0.00045300358902949955
110 0.03554812599037531 0.0031246998038687275 0.0033627216973213555
109 0.0028899837442503155 -0.0003292361812585177 -0.0066845420879385106
368 0.028840230357850882 0.004170709406711927 0.007340641174109601
1073 -0.00461819604253468 0.01683645440154159 0.005278974829632472
608 -0.0005480879307389825 -0.03200952738410061 -0.007051473696902811
1012 0.004883501109763928 -0.0023266717241236536 0.006062901807413568
1014 0.007346911246431964 0.0009712794771331516 -0.02270571039956638
1345 0.0009595766609480069 0.004802522327756827 -0.00022601542182688008
1394 -0.0055673259707044575 0.000616410925629247 -0.0029601880692986635
782 0.015951216376974345 0.01072132130800956 0.0016210745748676035
1074 -0.0032428533972732447 0.015174518361027893 0.008125834676550519
783 0.00823225679468014 0.00610752612173341 0.0026275722070683975
781 0.004439743950949273 -0.0030914544476433234 -0.0005340228509159485
1072 -0.003173165478243347 0.003955848610548126 -0.0024451579843837706
1334 -0.018044736551884745 0.0064977367361385985 0.00025370639490552476
857 -0.007778979613724745 0.007094980031699165 0.013366114333598023
858 -0.0003936869128204166 0.002563564591239057 -0.01127072304319442
856 0.0002553051043828919 0.008467404826534469 0.0022769883357092
1335 0.0024610412743558486 0.0046504613358635555 -0.000938136537272123
1333 -0.0009122052830780424 0.003744746826057009 -0.0010219836249843134
1393 0.0006739393998905964 -0.0012273126384224238 0.004697553038512922
607 0.0023938887190085014 -0.003711727909155231 -0.004293987017826944
1346 -0.00788079612746353 0.007025180108870143 0.00650768265562622
1125 -0.0012872098818139314 -0.004999345421359842 0.027851670015899156
1259 0.02095367444025748 -0.005693542914862075 -0.024509625614088017
755 -0.003938569603034216 -0.012964865575879048 -0.00281674682917968
754 0.0017796146791155254 -0.003288949640779744 0.006926760240053928
756 -0.016551440652472882 0.0032517039596672366 0.022734245165972056
1065 0.013963115216648118 0.0017434513030234419 -0.001364469653528694
132 -0.007007435431286449 -0.0017600299369436724 -0.00042136606740631046
578 0.022862399650835745 -0.010495210497114884 -0.019097063857139763
577 -0.0018347652193349494 0.003954438060840532 -0.006447792917707365
1063 -0.0023779932650906 -0.005075854025540762 -0.0038693572052274283
131 0.016655842589055683 -0.0022333726799028436 2.5091164764174452e-05
1542 0.005039126253382883 -0.008576092909550555 -0.0022421040957312736
1540 -0.0020421154527696596 -0.004933480513001009 -0.0035148337329234175
1541 0.010290501318619107 -0.019218110870298555 0.0023096601536155437
579 -0.007551542451820096 -0.0027021952230126796 -0.015018108911257684
656 -0.005091671156903476 -0.0036702095934113763 0.0014353691480900913
655 0.00012623152313375006 0.0016172636182835362 -0.0010396111363721215
657 0.002388336588718896 0.024349820489182567 0.0304863552470931
130 0.009264997876221984 -0.0010492780923623463 -0.001791613575922715
1257 -0.012617946791207948 0.009002480013574662 0.020663867457373964
1256 -0.00737375106817665 0.00036044630435062814 0.005217741959508993
1255 -0.00284405542761395 -0.008137354605700966 0.003331970918353151
1086 -0.008279115559159264 -0.010853400458388698 0.0028388234757030324
1084 -0.0035589714804362452 -0.0015475984117658082 0.003649344795125236
314 0.0045998876099356155 -0.004682976139428756 -0.008152547026354434
1085 -0.009836534259564296 -0.00017982390900466062 -0.020708626656646023
1064 0.006756165616072973 0.0044720298402261115 -0.022391730944868047
474 -0.024860358796831815 -0.013505169736496039 0.024475802205850546
1247 0.0009846515518898318 0.007035139906726973 0.006263581374245959
396 -0.009475776969517916 -0.009414797483540446 -0.014392918725482911
267 -0.0068129870424513805 -0.007111858597353346 0.017548011865791555
227 -0.007486510506615426 -0.0006051414946883583 0.021854605825421293
226 -0.002666592557895281 -0.001544777270415157 0.0036467620755484035
472 0.0039334390348373886 -0.002324332881999024 2.2075560993119825e-05
473 0.015309640509860925 -0.028867274977152184 -0.012645838507425147
1246 -0.0017181319863765854 -0.004537289230432098 0.002736946815887054
1141 0.007701595785429567 0.010021284846278948 -0.0034151982198397995
1142 0.005118717769759428 0.022441991062021705 0.01972407640950062
1143 -0.013047761013164176 -0.01907827580227119 -0.021866476038464047
228 -0.00892229771936175 0.006277187129170816 0.012109642459922467
1286 -0.017453144931140172 0.02449161397776078 -0.014487690223351854
143 0.007095181551183287 0.009784659175347139 -0.009123178399716929
1285 0.005157879074890432 0.0026874672471041985 0.004754841399364578
142 -0.003932403703095561 -0.003179475559802067 -0.0031024562315963298
941 -0.0007110816906907988 0.0072244176731426175 -0.0034506565521036205
1170 0.0023829353253542475 -0.012049103802510815 0.0030231725201859184
1287 0.011862398444314965 0.0025510593598427884 0.005783138902161731
266 -0.004309662898992453 0.007178411825164724 -0.007946845685072614
716 -0.007157258040111434 -0.0008057719970704249 -0.021449640735129887
111 0.007106098248777611 0.0002407210980819522 -0.0062574815244403875
519 0.021640298712525624 0.0093030236746073 0.004001845026192574
517 -0.004762436574643022 -0.002824628909084214 1.745963697089392e-05
518 -0.006760044612616441 -0.012465473687748271 -0.0009194595614527192
1182 0.004124319378473573 0.0035468312467251298 -0.015453173281589742
1180 -0.0031426436702797944 -0.0034132401643188134 0.004563566571534094
1181 -0.005876386428354037 -0.0016592722755962416 0.002914251093745496
536 0.005932609784905591 0.003990452054130903 0.002933305949378938
535 -0.004802556307230653 0.00609742163811864 0.0026435759254796265
537 0.011490489906865797 0.03882647070676765 -0.011103270744535472
405 0.001040755615339275 0.0049236553845455 -0.011735743487824886
1341 0.01102964440048976 -0.006414565747806061 0.014605728873815988
770 0.005796736841495231 -0.002329390072387338 -0.0008294562695088647
1161 -0.001194532451074029 0.003562734781068825 0.0006213329740052878
215 0.0029530062741347533 0.005494582778985808 -0.027009113302572493
214 -0.004818871916504656 -0.00443880110506702 0.006254138634136544
216 0.007920803888276581 0.029709502295625606 0.0003996961880301435
456 0.011814138472392158 -0.009393627494229223 -0.002839663110825087
1453 0.001461169281661364 0.00828212854493187 2.4482216462293223e-05
170 0.002471845372493749 -0.001794904819632928 -0.013872056538529961
169 -0.0036892561737579964 0.0010104436340425602 0.004008417331486145
876 -0.006577149522467404 -0.006304226375695481 0.009127653546536989
609 -0.021919609403985147 -0.0020027949305022412 -0.011865723655091927
425 -0.0010275246855325445 0.012400181691865771 0.008550188761695509
875 -0.013188095384736438 0.012923381403391694 0.003035270471645368
874 0.001881368769696169 -0.0032507927027260923 -0.0045063606646495325
553 0.0012424182102551372 0.000213041381160859 -0.0040200271469044155
554 -0.01781435644735517 0.017233073635763985 0.0037194603568339816
555 0.02741659923894982 -0.0021339048735935745 -0.006333761239027415
611 0.015865478959234264 -0.005169672319345127 -0.002293698692815268
612 0.0005777189011799435 0.009291022657557862 -0.009837640643240471
285 -0.014727401731748049 0.02082436074385359 -0.004801657385510539
1069 -0.0006705577021749458 0.003533138066891667 0.0009164135752470903
283 -0.0018677796941777612 0.0004790499674377791 -0.0012537113941928292
284 -0.008285133102232457 -0.01138005223435776 0.018967039838012085
1070 0.0021558906394708575 0.003129160697678693 -0.014731497908402254
1071 0.01504772745047643 0.01281022984508692 0.002793829479770935
392 -0.010522691630058213 -0.01865187232058618 -0.0024433118987364877
393 0.005545050181105177 0.005076682248364574 0.00044999081246724294
391 0.008551518884281899 0.0015869975842470198 -0.0009883597888737604
563 -0.01601374915283293 0.008903887055584975 -0.009962964934210172
674 -0.007785477039237585 -0.0017270071408669763 0.01391651113607023
673 0.0029324995749696625 2.6207543811129454e-05 -0.0062778923758765705
1131 -0.008088407409845098 -0.0012475609605606913 -0.0011224318670921178
1129 -0.002574066064595745 -0.005022295786748319 0.003753309220968315
1338 0.0013560822893362143 0.022027571606764048 0.002077730738194479
1337 0.005040930709337832 -0.019292553251321825 0.011272873515164948
1336 -0.006411818160984239 0.004985238827553542 -0.0009040629683832122
1175 0.013605112301632073 0.004793589369129594 0.0037472656611557305
73 0.005010273831145895 -0.0034811776723351825 0.005199053090525722
75 -0.0033800130790489877 0.005809439312547494 -0.013776092288846352
1174 -0.001250815700421202 -0.00020886505603289932 -0.0006214693620162695
1532 0.01281161856391319 -0.012217843601174278 0.0009351120112563356
74 0.019448356861750497 2.5530081844330813e-05 0.004413826120242302
1531 0.003556309632299824 -0.007610072643597283 0.0007408453450061082
1533 -0.005167589277505551 -0.02170630505132227 0.0033277988055575337
315 -0.002527945827337443 -0.005803800530671839 -0.012998820871676812
313 0.005560412487705415 0.004315863488146119 -0.0008882478699255835
933 -0.021162889925952232 0.011097503556058208 -0.021263586381986728
373 -0.0008543002835148536 -0.0033283217674587675 -0.006823545920717453
931 0.0012297152955983717 -0.0016089919240565287 -0.004167262467839407
725 0.0076109292791247205 0.02253037217935335 0.011678958980879521
726 0.00021718203104383992 -0.009616117667475235 0.018993513481578038
123 -0.006760002981187485 0.007556355845376677 -0.003928186693267671
1154 -0.004199356980341812 0.011804217071906889 0.015004983088897422
1153 0.004425964568121695 0.005584976909570163 0.004699400452287363
1155 0.0020757465186632983 0.016683982633368375 -0.009743930057396717
375 -0.03611634371161552 -0.006266167745102382 -0.011855757813293349
1168 0.006127878010985595 -0.00116516297934393 0.0012868887784487876
1169 0.004881850451173828 -0.005376361285298417 0.0013472288125413118
1391 -0.005305695249968867 -0.012504021459540833 -0.004527215453642422
1392 0.0055276519784605484 -0.008538204724714069 0.02286531642993884
183 0.009089668226090399 -0.014666203581652167 0.002159037804465967
182 -0.007131281655638175 -0.0059081191664836635 0.007125052718024246
181 0.006353510934771155 -0.004696043203213524 0.0017720173011636284
477 -0.019392468604148602 -0.00695441182668575 -0.020438872216192557
176 0.000630907325412802 -0.02531393171544102 0.0024152887495670046
177 0.0025986262129108497 -0.013566430062473432 0.002331242969201094
175 0.004094375955863636 0.0013035264133749213 -0.000662814443319732
1390 -0.008755933097056634 -0.001801776298780904 0.0012701287472047346
1420 -0.0036891592989291805 -0.0007718125693178934 0.0035153647750010833
1422 -0.010884069990442287 -0.010168535821409648 0.005254039492433324
443 0.013257432453917318 -0.017773886898326638 -0.015580057970096432
1202 -0.01835264325294001 -0.007657901258692077 0.006135833610921773
476 -0.006349654575005733 -0.001731613487562016 -0.009861644845954134
1201 0.003372598135443365 -0.002328120326745631 0.006133690714484109
475 0.007776466505713818 -0.001697619457880171 0.010820222497342684
717 -0.0001217003233153702 0.0009965766233929598 0.009638377430253166
715 -0.0002828247175534493 -0.0012967089151517132 0.0014659951190051717
1455 0.01696055185857539 -0.02409824289449801 -0.02979268838225445
483 0.0042551799416069 -0.013925303136957648 0.01106771858525808
771 -0.0238638250355724 -0.022725697861452968 -0.010276448582020844
683 -0.01035889760440403 -0.014569028981172363 -0.009705568612893118
769 -0.0007683684374037302 -0.0035495499619535606 0.0013332767191023508
47 0.007208539573285307 0.00667845114704035 0.003921539650554748
481 0.0027958864347031576 0.0006334929139348712 -0.0017396966399388402
482 -0.011157969649418547 0.006235303632781074 -0.0010314430665488337
41 -0.0026257560125885976 0.004560547590594016 0.0006780485947220529
236 -0.008706175559818782 -0.010775830865495979 -0.005965793696931005
235 -0.002851130848299831 -0.0030774927378124785 -0.0017420502973370625
258 0.004855150799658309 0.0005570383315853898 0.010754994539157804
257 0.020588456030532536 0.0017098246932187881 -0.0030052378718994775
256 0.005339689594527911 0.002245498399384815 0.002015179051887016
40 -0.006870515345265279 -0.005146341642417945 -0.0008180331689235515
682 0.0013675560330865424 -0.00012486879223779694 -0.00206973239091225
854 -0.0045457727256332766 -0.003032926844463502 0.003078127861142158
42 -0.013312783155734172 -0.003546128779752659 0.004701150590198729
684 0.019560726871686956 0.0042246538907777095 -0.008796914419723398
237 -0.00023461343481434002 -0.008648998075207808 -0.004426157336815374
455 -0.0025108041926781995 -0.008768929982883535 0.01605007889922091
454 0.004621402800715259 -0.0015193385946672521 0.0007574246778175776
829 0.004607579155195967 -0.0016867904137894876 -0.0028001701480908376
831 0.001793736631845129 0.0003770818192037577 -0.009961714034700435
1299 -0.013099504429225476 -0.0032830421111788213 0.011186046090195844
610 0.0023782044275730313 -0.0016268368360957321 -0.0015580455795788095
1339 0.001779460572533613 0.0015800976582875034 -0.0003275324551798768
934 0.000793930345154088 0.004116337636176862 0.0009383686734971788
327 0.008555119348330987 -0.015225564462566642 -0.00723891087058225
1340 0.010107909950966627 -0.019386569160138672 -0.019662055599707295
1152 -0.0057859608041617066 -0.0026683836952777393 -0.0010570537872836494
326 0.004996911378477942 -0.0017628207243933953 0.005258892302403709
639 0.011007713900499799 0.0066432392943260345 0.014714422646814015
638 0.017578945320642535 0.0009420853776681348 -0.018410051566196392
983 -0.007771413868138984 0.012711708133228236 -0.0008849696435289001
984 0.0007586044267553783 0.004855223079820718 -0.0008899914398634314
982 0.005157323923493184 0.007534096333202191 -0.0004329343286371079
637 -0.00015726905505895818 -0.002627260257547941 0.0029944427731254833
849 -0.024703395421841065 0.010310788613035362 0.013171685927064736
848 0.020990396457179625 -0.011022886248226211 -0.01680582456139115
847 0.003637692191754538 -0.0017052052470193978 0.002205313704644942
191 -0.013062070026502212 -0.014587102374937794 -0.005047452024638292
190 0.0005558334648921217 -0.00045461161869168567 -0.003872788472541972
1150 -0.0031292731162803887 -0.002520851837759396 0.00724630438671776
1151 -0.004865672522998542 0.001159871678495053 0.018993109918719733
936 0.001410483527982505 0.012143909874270716 0.0020289846616758284
966 -0.001551777274277132 -0.017559164569530432 0.025141284418996136
1018 -0.0002461184009745905 -0.0023401484855852823 0.0032009035280723937
1045 -0.0003304800535606904 0.0017746778799930631 0.010808312756442484
738 -0.0131081876870216 0.002155446186756189 0.016648219292507836
932 -0.0042450504743154335 -0.00019238617829348158 -0.011485849707267926
736 -0.009163820190188032 0.005156214299509064 0.001343463498457603
737 -0.010372476037679577 0.004737302089691077 0.0054235796868847734
1525 -0.0057951031813992596 0.0018871812552959117 -0.001232378723604734
1526 -0.0026776798569421965 0.004485182783311616 -0.0011451865174632752
1173 0.00500922720150604 0.02072514563652465 -0.0031204227462275536
724 0.000808312269372753 0.0009383904933855116 0.0037287344652701285
1527 -0.024048546877869385 -0.006814368291095551 0.006395861522479059
397 -0.003556389608806399 0.00013791292558852606 -0.0010474038065347688
374 0.012644872023185033 -0.006733996615383497 0.017865501092256767
398 0.01785617534387464 -0.011831772265371257 0.018636024522921277
1213 -0.0015380085367317144 -0.0031593092293923978 0.001726994130347913
1019 0.024477957302212878 -0.027903555346325413 -0.0006070531025352069
399 -0.008777004185213245 -0.006716573438489139 0.00378386814692739
1046 0.03332803890054848 -0.021834068918074094 0.015552739274447403
1215 -0.004522890307023701 0.0028814867147288156 0.0026483906840012636
1214 -0.007194460102148436 -0.0012391443820419649 0.002376299060448331
1421 0.006859212693337007 -0.019520163591972253 -0.006155253282170619
1204 -0.0016077092342808737 -0.00218096270049185 -0.0005963046522547849
1206 0.0058129280470729325 -0.029569096646107795 -0.0212546458937102
195 0.014677541872407444 -0.014076567375207473 -0.012290581729002109
661 0.0031107630358851858 -0.005324090081587675 0.003479383486739252
662 0.008485677178802565 -0.014553931454389149 0.00821923692695846
663 0.015558092899886626 -0.004570354802484832 -0.004844149800669092
1205 0.0062994601023154215 0.01846941963114432 0.0059171884998652415
193 0.0019448511691638232 0.00030510828752061605 0.002284859309840101
231 -0.0005945655410309321 0.009700386377941989 0.0030549191799483367
230 -0.005305482468496763 0.0015397591885731349 -0.0003124919216420699
229 0.001459646758101163 0.0034448402271225727 -0.001779173842825637
457 -0.0026536318269560727 -0.006176778076661528 -0.0021103017206336415
458 0.00047312271378020213 0.01664937915681028 -0.003779227427251051
194 -0.007845807441644821 0.013543765127993145 9.160478736497828e-05
1486 0.0006267961079193682 0.0031758219909129434 -0.0005706822452823371
1488 0.01043657942091814 -0.008109019550335864 -0.01218329913126325
459 -0.011487266278214463 0.010356418002750712 0.009275128766546108
972 -0.0017460380149754366 -0.005557983067958962 -0.00949598115230296
855 -0.021937914964794098 0.0015170283574828629 -0.008657385889150146
971 0.00505804220560511 0.005620468794850196 0.011172340576701316
970 -2.490918588278399e-05 -0.0027873224196622633 -0.005142905865571226
431 -0.0013287703123639211 -0.004189158774520282 0.015958244644463514
48 0.02149338939243752 0.038218757789036634 0.010302114024120554
1297 0.002516517046158175 0.001683837653201373 -0.0024962944607710186
1298 -0.008223652041458857 0.01396569373170839 -0.013182726805047926
192 0.0018844158376592848 -0.021836838206038666 0.0016539579518053934
773 -0.0013509574976975655 0.005764780233727118 -0.00037957745542072536
255 -0.013194678731737753 -0.008868552115562095 4.720389627762287e-05
1047 -0.028501745309513604 0.012261865315569062 0.010668821013687728
772 0.0003404256493543481 -0.004330260201139675 0.005491421711765705
423 0.030333345146120835 -0.00043790305086347837 0.017571393998280206
821 -0.004062248338654459 0.003977634765088337 0.008796057147042829
822 -0.009652155847093826 -0.0025630934877801646 -0.0037969832732148573
820 -0.006859540270395569 0.0009014235694292139 -0.00041977058428348284
620 -0.02406868293735223 -0.009094614966045108 0.011353113744944065
812 0.002156342329572565 -0.0026682686910079944 0.008371806489877143
1388 -0.006602824114401723 -0.010262012186624233 -0.0023303424904859986
566 -0.01915152616758715 0.019963626544174894 0.012527212359180352
1471 0.0018698105432758533 0.005743196589726046 -0.00475347122228126
1472 0.005665649441426704 0.005972703881525688 -0.006973722402812075
1473 0.0004026556145223937 0.0071054329982818175 -0.008186325210217478
1016 -0.026495545322603724 0.009672281546365666 0.0031402265727644386
1387 0.004181308072586268 -0.0004467454614264525 -0.006862140451321505
1015 -0.008412350601846749 -0.001743219638442945 0.004972887416980254
1389 0.015327020315506723 -0.005804030783554772 0.0031961102273573667
81 0.011213030923089184 0.0024960374899173285 -0.012737602170824171
813 0.014315843412831472 0.000310373368058061 0.01000088951339575
811 0.004731123292615121 0.0024642727491308368 0.0009429869278931959
80 0.000574057904513677 -0.0006479214937293708 0.0018198153463094091
79 -0.0015182680125485953 5.821741794801167e-05 0.0027343158618491734
1410 -0.0019199740957116756 -0.005627394447193448 -0.005056193596401099
1324 -0.00035959450514472864 0.0008726985803754146 0.004030681186651716
1326 0.013838462356703113 0.01841562927434139 0.014656241681458173
1446 -0.010450551804442171 0.00039966314415509 -0.0029113585099004116
567 0.024046926675226215 -0.00808846076129448 0.023017103807776808
565 -0.009603065896355905 0.007479830041500042 -0.0039181978491421195
951 0.009508279985218686 -0.00031215012000932894 0.012305590325240328
254 0.007232953492087766 0.012214026316071021 -0.0009271959530826318
677 -0.006633081007389586 -0.003787951193763323 0.009989165701193814
676 0.0050479336433701194 -0.006193429795204693 -0.0008738365927715519
678 0.00555269826315109 -0.021574922116316706 -0.017540568662731557
77 0.014078440813271406 -0.010160003589421854 -0.0036337955852509683
76 0.006979301240075507 0.0010930746881031757 0.004614462226819694
78 -0.0005863846021191109 -0.004767356146752778 -0.0027479687480747193
1419 -0.010861008528506865 -0.026909853463970176 0.013100351286478058
1418 0.018932696650643566 -0.009191868973030235 -0.016620209168213055
186 -0.0013641164132720217 0.003930367196855785 0.007156900070817402
185 0.002594038744431391 -0.004211184239713513 -0.0008311175361714614
184 -0.0017162476238889233 0.004662575891962007 0.005404720489752838
1417 -0.0034393478576825206 0.0012005714369034417 -0.0024140035424845673
1239 -0.016874332524587022 -0.00148307914013856 -0.006848370309316472
521 0.004303754304894275 -0.0035979814141877224 0.0053890824863983946
920 0.002747549954133004 -0.0033649377907824384 -0.006686624190452961
520 0.004792199413373415 -0.002520573253404597 -0.0009630120325420657
921 0.01480881787413466 0.017405749801663897 -0.028145508770564175
919 0.0005136461749255785 0.003663442890916292 -0.009865102134837399
950 -0.0116787542590223 -0.0018600595722468726 -0.002352379894366188
156 -0.016975618830076825 0.005150111026867827 -0.018254699225453187
1078 0.0025034234202883244 0.004514391843809281 0.0022654297269497203
1079 0.008474550442030465 -0.0035612613026272657 0.0170394975793458
1164 0.025231019467075035 0.017727544773074023 0.017270952623753333
168 -0.003027984127207898 -0.01860410233770238 0.0006431742337914056
1080 -0.0022369252051374125 0.011985371872740526 -0.003747884592622586
1295 -0.024617778074304313 -0.001888672562488558 0.023044192161182562
1294 0.002177058940037507 -0.013444965178015402 -0.000511593026350748
1477 0.002276504285848367 0.0006391439706255375 0.004024033525296678
1478 -0.00335991987014832 0.008116099524434414 0.005207412394358992
1296 -0.021537311731654765 0.0029185295787647818 -0.00034545192828885457
1479 0.002855620629050863 0.01107632855166727 0.008157183062836975
379 -0.00026747759432497423 0.0029553809770974113 0.00524173463681578
380 0.0004684917072867845 -0.010008636361830553 0.009938265296353782
975 0.007590851716923497 -0.001193930429143993 -0.004214226761632121
973 0.001418930822856221 0.006716442224583697 -0.003373662428034216
1233 -0.00012445107382068777 0.005474667900787593 -0.026162748870379827
1281 -0.015242547019968848 -0.007343151509809529 -0.004387903631415343
974 0.012812983966178368 -0.016706836701858397 0.01262796515594615
1476 0.0019791694535972793 0.0032637843443238286 -0.0017679088248910332
381 0.007323303653822318 0.021121267602053594 -0.005522863492479899
1451 -0.0013922017075169105 -0.003564177033227084 0.005257921705490557
1450 0.003605823386694373 0.003999491460358193 0.002868454312449592
1523 -0.016680155109473432 0.00037188266112093087 0.00489970124481794
1409 0.010144451151036512 -0.0035925961437150763 0.0023625184738248197
102 -0.0034810990176594447 -0.008366787985673588 0.00557570712394904
1314 0.043697307264860714 -0.015265537281626091 -0.02068077993738979
1312 -0.001015069401005012 -0.0010478108336110117 0.0006497720007629833
166 -0.0003603891906989717 -0.002411673129267862 0.001205519987685742
1207 0.004343008400943927 -0.0019331256433680775 -0.001721335576179159
1209 0.001294872770137623 -0.000834104606570821 0.006919404918912807
503 0.00020120585538140686 0.008363242088056694 0.011965528098174425
100 0.004085335558255827 -0.002803728758907546 -0.000309371367617945
1307 0.012239008864062274 -0.004293647457737024 0.02138781679417475
101 0.003509254390163766 -0.00457822916762136 -0.010656371341944968
1306 -0.00388310212692187 0.0028253712813540717 -0.0036430816910740715
1308 0.0013866877776918505 0.0006572378533956214 -0.00218871158174553
1026 0.007204520728926064 -0.009020382044996594 -0.0007307753206348972
1184 0.0013199900060976955 -0.007728086050330325 -0.02146461315795349
502 -0.00343402945904676 0.005047782685374843 0.0007128685048527662
460 0.002396603802768156 0.006369460319427157 -0.0009705386165104957
504 -0.017962132545081774 0.01189393294296263 -0.021225244613773106
1452 0.0005611315410923532 -0.00030224901567974503 0.0026528063946593874
1024 -0.0010566458038519099 0.002630419344268852 -0.0030254844943012277
167 -5.6661560563530766e-05 -0.003484060944403031 0.004102355268672581
462 0.009432596814590353 0.011611560379646571 0.01835447576453413
1313 -0.009486638564658667 0.036411249451847 -0.003854031215665029
1554 0.00732649667362366 -0.011230468650807596 0.019501586638073908
1552 0.002524846799239236 0.008304578079122353 0.004064407179143505
1553 0.007402010124872043 0.005434271897348082 0.008521806036210553
1025 0.015788809440801257 -0.0018690660168917974 -0.005439381537302483
18 -0.0046514937214854205 0.012627121000926831 0.015326780705461349
1408 0.006443850607934868 -0.0003529804151257398 -0.0018310503021919788
1530 -0.008050859848506241 -0.0016963172946100973 -0.012841748851904608
1528 0.0023764099852923125 -0.0042775169411526015 -0.00455974132545767
1529 -0.0024942562642059365 0.01004987627235777 0.0155471734582079
939 -0.013622854943503704 0.010149583210498267 -0.007728533066584417
89 0.009052713957071041 0.003485763635129002 -0.043059671092958975
1325 -0.009165998363290465 -0.00634053749706522 0.007521496267462359
937 -0.007862565485870878 -0.00203243584781897 -0.001726435020272257
938 0.004358173755122862 0.017886136231494227 0.006256903017311756
88 -0.005618292681590206 0.005833657149556663 -0.004920243186204131
90 0.006858946546007544 0.0144528472139502 -0.015509406628622496
272 0.005585481765011626 0.012697467152309141 0.0013141249958663506
1375 -0.005282150451470118 0.00030789761390368636 -0.0010257688623382373
1377 0.021802323874572607 0.026668069397400407 0.0052228986355199935
561 0.0011177545675313963 -0.0034792700810419176 -0.0011424477865116453
1329 -0.005378201663901552 0.007903252290875172 2.4186973975271594e-05
273 -0.016852250604785242 -0.0002325418256447562 -0.0032273361397667506
271 -0.0015261231207508816 -0.0011832361493815877 -0.0008452100376666315
1563 0.004930337336321173 -0.017118570044235205 0.007505712933849121
559 -0.005303626251537517 0.0012521236380561857 0.0011963527424471224
1328 -0.0029970526642736205 0.014893469867457888 -0.001542007557681988
1562 0.014102046913932239 0.02626837294651097 -0.010754221440589967
1132 0.005349642258524359 -0.002653989262762079 0.002753653257888282
1561 0.002107282179536112 -0.0004992353733513416 0.00033614991578306315
1374 -0.017825909526093815 -0.0011255976268790143 -0.005348472826116318
252 -0.003902070711909293 0.018817753381667992 -0.00601228167144005
1327 0.0061692895969905764 0.0006190591222661477 0.001341255691577467
251 -0.0025063791019723945 -0.0164491347832728 0.015513726260808951
1258 0.0021451708975974816 0.0008813870622956928 -0.0029406009761268215
872 0.003927432185864912 -0.006817537780616414 -0.003408437432047715
1238 0.016577355050006848 -0.010105905322465072 0.012713831093164539
1237 -0.0043252347163591585 -0.0017585120856410676 -0.008218360670555614
11 -0.0062667527858532015 0.01634170348347589 0.02065911213779662
1260 0.01439087895381682 0.006964439213009054 0.008636871406230694
1373 0.007686581885696098 0.003387734286001017 -0.002847541016396863
1372 -0.00532658995200409 -0.00021394013817132941 -0.0010120696574199791
12 0.0020212549370195467 -0.005437203378125699 -0.009720897265789627
10 -0.0002813018719188697 0.009249443714764294 -0.002214643845125442
250 0.0012138072359821443 0.0012094552170421454 0.003528558504963548
420 -0.0028356378564177833 -0.0014482399628238743 -0.016191020555194204
418 -0.0006709755150538874 0.004439386059107414 -0.0027145063820466367
816 0.005264122266028517 0.014557967164494283 -0.0014978292587535776
815 -0.00558810742687574 -0.004186188991506931 -0.022506192471762228
814 0.0013306400080215842 -0.000736384998770426 -0.0072963728504391815
419 -0.004857968558848493 0.0067107343754359465 0.004123284918063855
51 -0.010062073922501644 0.010620163035994142 -0.007798120230035298
1123 -0.005627636325802747 0.0010450207556719862 0.0061700810803748864
1124 0.015158325427402456 -0.008284407989598055 -0.0002811139874628493
1272 0.002666135347194293 -0.014001839704834252 -0.0016292109582969581
1271 0.004300824418988313 -0.0012338972678278323 -0.012476031211236074
942 -0.0008769225592015923 0.012960789731915305 0.007235493015406498
1077 0.01147596419323486 0.0038647258502509355 -0.0024231378475266883
1279 -0.00964148715311918 0.004515752289908502 -0.00287195636715311
1076 0.012638304204262988 -0.001102096135340276 0.006790220588145012
1075 -0.004188300821934806 -0.002772017080615778 0.007456835761673799
69 0.0175860235721846 0.01465072633843255 0.004056846764235941
67 -0.001455756341851903 -0.003053672696453564 -0.006194135113671556
1280 -0.01442083219886629 -0.005346198959439605 0.005088483137976093
49 -0.007655519699690109 0.003944423048648542 -0.0029129345264190527
50 0.0015664044966135417 0.0013055690345249557 -0.006864332469082596
287 -0.011675591086755194 -0.015682468600441198 -0.007031262705452202
286 -0.004251764819695932 0.001562663780812107 0.003995713417866688
288 -0.0007740506932788981 0.004955740916376272 -0.0005263651076552742
113 0.01174353614936269 -0.004143837748280138 0.0056581837746510375
68 0.002341580373784733 -9.721463690983502e-05 -0.0051202615243542285
112 0.005122993990230277 0.0029182752245626954 0.008347892977029233
838 0.0018317656855143369 0.0026307201594227814 0.0015565064365831518
150 0.01816230776348646 0.002933132272992985 0.011316109636095719
149 -0.001456040825014134 0.004092140021125808 -0.011191767545823336
915 0.012628152071220214 0.008826432622862248 0.006272442554033716
148 -0.00046979143911866044 0.0047153554266944715 -0.0033265939759191663
940 -0.00023593946860105648 0.004332998802265689 -0.006656494081216495
1277 -0.004457926611630294 -0.013505675650793478 -0.010129325671704473
265 0.0006417431048440606 0.007467029166562162 0.004235760067126001
114 -0.0011662008745254818 -0.002100063030667978 0.009100205590667251
839 0.0048694020121838235 0.005464429321199004 0.0039975179033560765
883 0.0020089590361140855 -0.002615983815108693 -0.0030207317425274744
885 -0.008706547697249916 -0.005911708152814597 -0.02200752982024421
461 -0.0014940846155615227 0.004224093662718059 -0.005727602451938439
1276 -0.003136014166755753 0.0005484416824395274 -0.005565459065306921
1278 -0.01169565195196679 0.011236159700312403 -0.004833291683340291
666 0.002825677033041045 0.009392698883724395 0.011384729005689731
664 0.0034204803517930717 0.0017437736667502985 0.00016724896505048578
665 0.016185488470375035 -0.004804777477059447 0.002140829710187584
1266 -0.006955391694720187 -0.0011829101082237734 0.00364079096459264
1264 -0.00432541127788894 0.0011870929969318392 0.0030674806793565897
1265 0.011259003294611814 0.014500832351256529 -0.004480256809962736
840 -0.0005146804283742612 -0.011305900137552406 0.000603453094564825
584 -0.00601597048831796 0.00844772688066228 0.0012866865630682236
583 0.0025292301898200906 0.007759624860314224 -0.005332769011956969
884 0.012930955801336828 0.014126798913127772 -0.004732147116079825
585 0.00142467770930041 0.015233845808944083 -0.019212352228894152
1053 -0.009104662391830306 -0.0035037134265424063 0.007829901787872661
1376 -0.008174669836566442 -0.007266493835948891 -0.023159566723460187
1052 0.010897808433988288 -0.013362915537244531 0.01190292679220668
1051 -0.0008014487722671406 -0.0068811906229905954 0.003913040800643078
387 -0.007171757943080916 -0.0012118867327834157 -0.008840973594897336
560 -0.021219180039224243 -0.015511955096831103 0.028042182681584052
403 -0.006867128793659516 0.0004985851662327474 -0.002427782892689592
385 -0.0007867005459368759 0.003712226541035547 -0.003677693334056221
386 0.021795881605519717 0.002460009822601212 -0.0028992132532476675
99 0.003913973068586417 0.008760700009238573 -0.0006302220588806152
311 -0.0004112899730182021 9.137527403639623e-05 -0.0029318944231851085
1380 0.009065719138324465 -0.017723617165509957 0.015817826874005656
98 -0.021699938846866523 -0.002744333511608913 0.00221569354471416
1379 0.0026363944755620878 -0.008909251172668832 0.008655961029604283
1378 0.0007680827267470209 0.0007081153668300512 0.00517941999970733
629 0.00748776628768967 0.006069921999431734 0.0036376263044119858
97 0.0007373240673176075 0.004074069592359945 0.0023923844022344866
1454 -0.030864445068122342 -0.0017678385143882352 -0.003362014233143518
404 0.0018872864613723027 -0.006051722335592603 -0.0006120322480548133
1137 -0.011165846459094315 0.0024040794337895567 0.00520385112347006
1135 7.992685569230458e-05 0.0003076070165061843 -0.003660048170992854
171 -0.027963410442067495 -0.015430645433906086 0.019504768978590076
1350 0.0035649641948358375 -0.0010955579583811325 -0.0019571419917798947
312 0.00022204713633000207 0.0026525662244231683 -0.010607564109752571
310 -0.0030513153983299157 -0.0009100732650168092 -0.002009459728715124
299 0.0010102742503162192 -0.009454484233444258 -0.0021128373568331193
300 -0.007696164152621437 -0.009166744897424854 -0.002020759358024117
1136 0.01091773482823138 0.01055838449772919 0.0011654093098409188
836 -0.0063271361382132565 -0.006035353223697869 0.010187855437758185
835 -0.0027137599712202106 0.010009409281173054 0.009405033101733405
837 -0.006218832016491436 -0.0015992042341215768 0.008995950673026524
995 0.0009478663287485249 -0.001359614162727659 -0.0012458949912422183
298 0.000616095976921942 -8.167098223619297e-05 -0.005231527442952966
903 0.008645505631022917 0.0007473009495570439 -0.013662092235105136
1320 -0.0014163884472440879 -0.002842585873115415 -0.006645479938923006
901 0.0022293789536339268 -0.0011572921633098232 0.005462680663333702
902 0.0016438749946410792 -0.0093685573769034 -0.01449476051392623
1318 -0.0022107537593121186 -0.005490650200378684 -0.007607030921720515
1319 -0.005512577878880529 -0.004105784967298664 -0.009153865585270414
994 0.002898248036681063 0.002313797448805877 0.0006005629397577061
996 0.008076211160442513 -0.0010595355747977085 0.003187311108825916
906 0.024903562351473247 0.001695415179808748 -0.007900919574788874
904 0.011476490354262155 -0.0016521367959762127 -0.011217785009711512
905 0.00371939125520971 -0.004553018588894531 0.0013424134146233413
1044 -0.01596567117094599 -0.011299378783692167 -0.026035519927634337
261 -0.004344162570559139 -0.004738311872663271 0.009077718441744924
468 -0.009160179862139468 -0.02175980310006137 0.000804350301032184
466 -0.007214850527633232 -0.0071231204539948636 -0.0031675671193433824
672 -0.010963535359128153 -0.014241672249986622 -0.01558534545078896
670 -0.002469948332237113 -0.0007290001558084794 0.005767389897625593
671 -0.005133963755227166 0.02862573240692747 -0.0011155132612037397
562 -0.009526045551034057 -0.0007507654009538523 -0.004480897087106653
893 0.004865207420604387 0.001375330346407047 0.011035893427602679
467 0.015659795227102598 0.0012843365372977715 0.0008730070984160984
892 0.006517800290399116 -0.00033565921403632884 0.005444961422986013
805 0.00024312113593834734 -0.0001503679868975808 -0.0013525166894827407
806 0.005520593145098874 -0.0007729064165706305 -0.010235746817933525
894 -0.003862592257432191 0.0007390410826547221 -0.0031916614859878838
282 -0.035273066712021274 -0.01739043975262766 0.0302955584618857
807 -0.006641998888037997 -0.011945973127847858 -0.008659728019519343
1094 -0.004314953549785334 0.0034053887899175984 0.01387511526629103
428 0.009864223520419067 -0.02580091829627335 0.004149630926694759
997 -0.0013683085845954028 0.004499671023766102 0.0007358379109961373
998 0.018766258576953812 0.021169481937728187 0.014497900614148681
260 0.010997581463458935 -3.736849735640732e-05 -0.008628531114337689
317 -0.01730352700063064 -0.02426318643031412 0.018555030320238728
1095 -0.00040321519910614813 0.00042909791870100923 -0.0014197423726623206
280 0.0002903614061948968 -0.005850549045490921 0.0026163338605833717
281 0.012745860348154614 -0.008875275924508551 0.010432979009928784
1093 -0.0028826729955942912 0.0021915443049916644 0.006692799220025728
590 -0.0020882761777627494 0.0018466251304571687 -0.014543538891807517
5 0.008270981920821645 0.008545042034125554 -0.00020256169693411423
4 -0.003376422918427106 -0.0012868414630745897 0.0008324489338039746
6 -0.014755538996659042 0.024146825620871427 0.00832150271113423
1317 0.020840515997009677 0.0008346698416157057 -0.003312314794493446
1514 -0.010027519620657998 0.01267166982707333 -0.016824496871388143
1515 0.007923405058975312 -0.020770317573853718 -0.006674180010891981
1513 -0.009396482642438973 0.007570283868021618 0.0013803208547815454
151 0.006967774889648126 0.0014356987446301264 -0.0010649803281421715
152 0.006712916534271756 0.0018748034442863848 0.009573925789748144
153 -0.008921027927199544 0.01688131148316095 -0.02843626490374599
1057 -0.0023099863932651283 -0.0020620621197720364 -0.0009098819316499455
1203 -0.008536173676842783 -0.00877917268376249 0.0030528357511893545
1315 -0.0060597104031192605 0.0052508760609669405 0.003031770316736585
316 -0.008252804225112665 0.004241885385890661 0.0033378279991747506
628 0.006245658466651845 -0.0009808089348258648 0.0008850577183097038
630 -0.0059122799744627825 -0.004065369838113585 0.0034449873165390533
46 0.0024620679269078405 -0.0009644836280216952 -0.0003716521961107685
1022 -0.013147151478720195 0.0017432453117246143 -0.009409518575512721
487 0.001714736250273479 0.001455826268095285 -0.008994667085918485
488 0.014794245909001075 -0.0014791930298676814 -0.0247830362105652
489 -0.0008240004404482493 -0.006960017063083419 -0.0035601965777881652
1353 -0.005191371262167765 -0.014116934687486446 -0.011514830979022055
1157 0.012924473288406563 0.03374336009322058 0.005322581620877198
1156 0.0009035324056045162 -0.00841793400082559 0.0022931479862257492
1445 0.005018538461107769 0.0010216605850278608 -0.00318138475628577
408 -0.004008156099591946 -0.0021606011179595088 -0.000572619039353122
407 -0.0044445544886414215 -0.00483266163751343 -0.002459796181213794
406 -0.00045464365547949036 -0.0020936128282635 1.688686169727325e-05
1349 -0.01129607229354194 -0.005697574147393757 -0.004269176340902966
592 0.004842059717493326 -0.003054180963511929 0.002260687585805467
594 0.0066015635146315305 -0.004178215553536693 -0.005069741096541756
1348 -0.0004023744143405091 0.002825919666353923 0.0006440678460012575
1424 -0.012068669749798195 -0.013525970700425324 0.002245532855167471
1351 -0.0034785642126167523 -0.0016292423437525936 0.0011385847952115587
478 0.0004943414701317979 -0.0002326858574870759 0.0002528003739512044
480 0.00860714091828158 -0.023162877065095958 -0.01801910286359284
479 -0.017242972102476183 0.013961084168769587 -0.010163476957378159
789 -0.004924978996924518 -0.0193349899255469 0.0007399238313637581
787 -0.005471265433924685 -0.003670443178430186 0.005005281011117865
935 -0.015930707288757756 -0.016507117980597806 -0.017260923209919482
1158 -0.022431034059459783 -0.004645464693267214 -0.013495413640664979
964 0.0049191826225940824 -0.00605854879835064 0.004924157639382477
965 -0.0064447241362850065 0.015256655230239018 0.003826787977719903
1020 0.01911646838928501 0.02411991831184003 0.008619694419285052
761 0.01235948440640445 3.2854971431710254e-05 0.0011794409675407542
588 -0.004076004757526523 -0.012542170898935565 0.0036240908196610456
586 -0.0055927634236366056 -0.007028669487131071 -8.426234538034882e-05
587 -0.008475100783504927 -0.00540674450913808 -0.012336972747504267
1220 -0.0011729274060992042 0.009039319533111125 -0.0008666469085609806
1219 -0.0009459507560539455 0.009100042077759487 -0.0009729617435494578
762 0.009308755697423843 -0.01207205972888771 0.004445950880197423
1221 -0.024585254041824177 0.01831766703610978 0.010789081701305518
760 -2.105431876505786e-05 -0.001025940381525407 -0.00524034777242995
1425 0.01598651925240768 -0.003274930892309232 -0.018781048935891945
1423 -0.0038080825871669613 -0.002153346388792855 -0.004860657331981081
293 0.00743760359120148 0.006205856716062568 0.011837012693135673
788 -0.012692338577650578 0.011490398856060464 0.007981021642256938
711 0.002551041789832472 -0.007659116733897599 0.0032515920860935604
446 -0.01069948870501485 0.0011656629452137864 -0.004641264494804598
445 -0.0010140492240880844 -0.004703776748824351 0.002675274153055258
564 -0.0002543756263737084 -0.01138566923591714 0.0046673085902921175
1232 0.0016681263206233742 -0.002450818924983631 0.02231791089365787
465 -0.007737672371875606 0.013885081546944702 -0.007611522983584957
1467 -0.017784850892189657 -0.0022148686628151856 0.031201397525204396
1465 0.002775990885550914 0.002540474167233052 0.005126691389748263
710 0.004597956413503944 0.0008117596454833588 0.00649121748081972
526 0.0020916755032972956 0.0031352948311329366 -0.004433192207034622
1466 -0.008372574402101199 0.006870508224311686 0.0006351873372324123
528 0.0157964259739092 -0.0025139505879266232 0.0026796009978618937
527 -0.010021859696412928 0.010137242184481182 0.003827297358124878
463 -0.0004174462158078845 -0.0009710567212935686 0.004404714748304216
464 -0.01552204730117255 0.012351330351444995 0.015541453684050027
302 0.007861362868555785 -0.0068666931433102015 -0.01644938697273257
709 0.0020073413173449677 -0.0022026723433660514 0.00680353685752918
303 -0.009503040378792058 0.028188420716253493 0.020097353450898
301 -0.004849180564328155 -0.0011857036557475576 -0.0017931485602825491
999 -0.021360399401403166 0.01474653011030887 0.004511100941430904
1487 -0.01579177806323362 -0.003773473957877855 0.007164936123902254
589 0.00033809004116772996 -0.0036083624106928707 -0.00014922850736804097
1058 -0.02100565122665047 0.004447321134725887 -0.0060621450550803115
1059 -0.011307839495982264 -0.013855012157747027 -0.005161370045477849
1140 0.001841326550938733 0.009111173199058221 -0.0002478247015836735
1507 0.001785673990205305 0.004941811429028146 -0.004995721644834524
1139 0.0065084977624220025 0.00922290810942652 0.002792920067037985
1138 0.008787054500633237 -0.00011775789908574566 0.004835562998553672
1431 -0.002402837228061662 -0.012945487009559815 -0.003461807987701976
1429 -0.0018331140692765765 -0.0027269726280530183 0.00046634302216557377
92 -0.007470742086736988 -0.017339055802128314 0.00661755328428457
1430 -0.0008059837656694372 0.01223782853182923 0.002851032685743556
1127 -0.004139435259440274 0.013859757291534748 0.0035900940647984364
1128 0.021842407209449702 -0.010483287143507325 -0.008848981402757227
1126 0.0024146855462353948 -0.004913547441550573 -0.0012658054210459996
441 -0.006266078403312568 -0.032094336277129286 0.0005136270255438695
91 -6.142919657992836e-05 0.0015474375775139271 0.004764850769882499
95 0.0006484774101454199 -0.01824628804665381 0.0036610866402847476
94 0.0030435721306977088 -0.006469843049352996 0.011575895762451714
708 0.0029227871572367653 -0.007585252575352827 0.004912144955220921
706 -0.003447741640447141 -0.008049465235189695 -0.0032105369536389776
96 0.03333884580471283 0.017176497325609316 0.005143045626921794
707 0.0037179026298521448 -0.0034225611796832285 -0.017164106822993144
93 -0.02825276146243904 -0.01398944851800585 -0.006238612797333754
1509 -0.000631028213377086 -0.008982159059588426 -0.005771766855201217
853 0.0006570401176706844 0.005513368364612801 0.0003531970995650903
923 -0.007502040766134951 -0.023547580295788777 -0.017430733683220435
1352 -0.0009536031824296209 0.006919519153653991 0.006291780525777671
924 0.0023128859532627506 -0.01046859214979728 -0.009581742396593408
922 0.0071728969288665095 -0.0009850686008105423 -0.0021229910858038136
1444 -0.0002786829966674035 0.0018222813970394673 0.0014443453870712822
1021 -0.001993257499563908 -0.0020478626351321133 0.0017035023306186288
1023 -0.00969285438143571 0.0064620588808819825 -0.005122057994536524
1017 -0.0020793970436175954 0.01065168255154099 -0.0019216152739317284
292 -0.0021455120318190296 -0.0032209966686185753 -0.0034026991765295903
294 -0.014629951669680962 -0.019254592269663053 -0.02150954493971417
447 0.0024168512507835023 -0.007685456145531707 0.006168533958656062
1288 0.0022660621134003543 -0.002084875976335354 0.004195910340196595
1231 -1.4799674200468035e-05 -0.0020697367255513915 0.0006277174656770308
1290 -0.007315924583567922 0.020692550626647717 0.01619638965070205
1289 0.018754516167520083 0.007921781270848466 -0.0011618423655667895
439 -1.6733730195829427e-05 0.0018104032614452692 -0.0017945561429488098
1183 -0.004655030193861944 -0.0035779457215803683 -0.005664780108234629
694 -0.00019773596908813444 0.00027552944671256657 -0.00231696539857213
696 -0.02555461050627391 0.003759114009473353 0.02497259247572528
651 -0.009197665438989628 -0.0045589098103481634 0.0054109230988294375
801 0.009532585573596389 -0.008365492665065043 0.003028746087053497
949 0.00338174388227436 0.0036651757417383913 -0.0014070449617658268
522 -0.013973993417317225 -0.008079542657779831 -0.009785926520591764
1163 -0.013520267356414236 0.007683554027125219 -0.0242374502412966
1162 0.0013501457120767126 -0.004950427840069174 -0.0006561039391282863
1522 -0.0008212201223235677 -0.0053414961046047435 -9.227600317557254e-05
1134 -0.015984333968876694 -0.02049800365234381 -0.021756143108678638
1133 0.017003511861633156 -0.03293694343750045 0.022365623717474227
911 -0.010235556766284765 0.0002884725414524665 -0.0036745907163159707
1056 -0.0039473555566426274 0.0071953563422644095 0.006853626684003583
873 0.0019027825834877971 -0.0006264311321067664 -0.006070335154414876
871 -0.003849710424510369 -0.0016639571627187345 -0.002598927924935179
1270 -0.0029065795485074945 -0.004053159428360679 -0.001906919320535568
913 0.0027774371221938013 -0.0012890753756437659 0.005245149184552797
154 -0.005574794052564202 -0.0008371513874424545 -0.0031043114378903093
155 -0.033742555393290095 0.010047594562492107 -0.02314618359234404
1054 0.007048158530046679 -8.92676019043813e-05 -0.0001048381398607626
238 -0.003601475364789108 0.0033518994899122342 -0.0022158396850629715
240 0.010357578612471545 -0.029797945426815457 0.0031644596533315318
158 0.0032315567900595313 0.01232775044625696 0.023116659664533884
157 0.005015505510639966 -0.00016941088152858585 0.006775261340733828
654 0.02505375925635789 -0.008873823219697832 -0.002077157130618611
1384 -0.0016881171123268833 -0.001743503412158636 -0.001182019546873253
1042 0.005122828694772554 -0.0015753655119466559 -0.0004133279211235009
653 -0.013914382911032738 0.006801840276081635 -0.0049534915300725475
652 -0.002537069610761745 -1.2814698188594189e-05 -0.0011807907154992847
1386 -0.0024919620791305787 0.0022481834072718416 0.004878352020865116
1385 0.0030104852655566342 0.003030753992113705 -0.0038109487645610583
259 0.0017566016196158022 0.0005536084373897051 0.002221810981457056
427 -6.199176493924294e-05 -0.000129253531106553 0.002066197113686765
429 -0.008746055552980912 0.004781812396337333 -0.004520239559846422
516 0.003636676526527198 -0.0050562375841358784 -0.0007825658235323506
514 0.0010102703237309528 0.0023149202105134095 0.0006747379494155665
1316 -0.005721586321403508 0.008730907429502752 -0.014211852241040043
515 0.006615690461199068 -0.008844947541365849 0.00865495120190971
162 0.004762967122965056 -0.004609235203795432 0.009824894427934796
1484 0.002881899270385367 0.0015658022340017121 -0.004270719783457696
318 0.02441145276363031 0.0024770345899530004 -0.007313991903522316
224 -0.01786556404027186 -0.007855251226382686 0.005485268348562629
593 -0.017442510744276923 -0.0040464052031760935 -0.00234183885706212
969 0.0016337934588437327 0.00505524704242961 0.003478032540138092
512 -0.014764624960338755 0.006422008447912236 0.008412272089447616
1241 -0.019719622427848905 0.022557467481082737 0.0032086986409091385
1485 0.000559764142045874 -0.009250973671863406 0.014403815991940905
591 0.0008643763859093848 -0.017690140530681474 0.015792387463649995
1508 -0.0004921552258669435 -0.0037671851920384873 -0.005924862494848553
189 0.011827522821115892 -0.004761123807682561 0.0005101307852695581
1185 -0.003324141590736234 0.012042281239703483 -0.003633353322090865

Bonds

1 1 877 878
2 1 877 879
3 1 1039 1040
4 1 1039 1041
5 1 745 746
6 1 745 747
7 1 196 197
8 1 196 198
9 1 1273 1274
10 1 1273 1275
11 1 703 704
12 1 703 705
13 1 1456 1457
14 1 1456 1458
15 1 649 650
16 1 649 651
17 1 799 800
18 1 799 801
19 1 1510 1511
20 1 1510 1512
21 1 340 341
22 1 340 342
23 1 322 323
24 1 322 324
25 1 718 719
26 1 718 720
27 1 364 365
28 1 364 366
29 1 304 305
30 1 304 306
31 1 844 845
32 1 844 846
33 1 952 953
34 1 952 954
35 1 1177 1178
36 1 1177 1179
37 1 28 29
38 1 28 30
39 1 784 785
40 1 784 786
41 1 832 833
42 1 832 834
43 1 1027 1028
44 1 1027 1029
45 1 1504 1505
46 1 1504 1506
47 1 1252 1253
48 1 1252 1254
49 1 1243 1244
50 1 1243 1245
51 1 202 203
52 1 202 204
53 1 742 743
54 1 742 744
55 1 1 2
56 1 1 3
57 1 136 137
58 1 136 138
59 1 1216 1217
60 1 1216 1218
61 1 679 680
62 1 679 681
63 1 1222 1223
64 1 1222 1224
65 1 1492 1493
66 1 1492 1494
67 1 7 8
68 1 7 9
69 1 634 635
70 1 634 636
71 1 640 641
72 1 640 642
73 1 469 470
74 1 469 471
75 1 1330 1331
76 1 1330 1332
77 1 817 818
78 1 817 819
79 1 925 926
80 1 925 927
81 1 370 371
82 1 370 372
83 1 52 53
84 1 52 54
85 1 178 179
86 1 178 180
87 1 1489 1490
88 1 1489 1491
89 1 985 986
90 1 985 987
91 1 976 977
92 1 976 978
93 1 1234 1235
94 1 1234 1236
95 1 721 722
96 1 721 723
97 1 25 26
98 1 25 27
99 1 1381 1382
100 1 1381 1383
101 1 1210 1211
102 1 1210 1212
103 1 376 377
104 1 376 378
105 1 412 413
106 1 412 414
107 1 1165 1166
108 1 1165 1167
109 1 1267 1268
110 1 1267 1269
111 1 1435 1436
112 1 1435 1437
113 1 1357 1358
114 1 1357 1359
115 1 1534 1535
116 1 1534 1536
117 1 1462 1463
118 1 1462 1464
119 1 604 605
120 1 604 606
121 1 631 632
122 1 631 633
123 1 55 56
124 1 55 57
125 1 106 107
126 1 106 108
127 1 688 689
128 1 688 690
129 1 910 911
130 1 910 912
131 1 544 545
132 1 544 546
133 1 796 797
134 1 796 798
135 1 268 269
136 1 268 270
137 1 802 803
138 1 802 804
139 1 1099 1100
140 1 1099 1101
141 1 928 929
142 1 928 930
143 1 247 248
144 1 247 249
145 1 886 887
146 1 886 888
147 1 550 551
148 1 550 552
149 1 880 881
150 1 880 882
151 1 388 389
152 1 388 390
153 1 508 509
154 1 508 510
155 1 1447 1448
156 1 1447 1449
157 1 748 749
158 1 748 750
159 1 349 350
160 1 349 351
161 1 601 602
162 1 601 603
163 1 727 728
164 1 727 729
165 1 625 626
166 1 625 627
167 1 541 542
168 1 541 543
169 1 1426 1427
170 1 1426 1428
171 1 595 596
172 1 595 597
173 1 160 161
174 1 160 162
175 1 1483 1484
176 1 1483 1485
177 1 145 146
178 1 145 147
179 1 1102 1103
180 1 1102 1104
181 1 139 140
182 1 139 141
183 1 217 218
184 1 217 219
185 1 223 224
186 1 223 225
187 1 895 896
188 1 895 897
189 1 382 383
190 1 382 384
191 1 1108 1109
192 1 1108 1110
193 1 1405 1406
194 1 1405 1407
195 1 967 968
196 1 967 969
197 1 1438 1439
198 1 1438 1440
199 1 943 944
200 1 943 945
201 1 61 62
202 1 61 63
203 1 898 899
204 1 898 900
205 1 1192 1193
206 1 1192 1194
207 1 547 548
208 1 547 549
209 1 1432 1433
210 1 1432 1434
211 1 1240 1241
212 1 1240 1242
213 1 1105 1106
214 1 1105 1107
215 1 1147 1148
216 1 1147 1149
217 1 865 866
218 1 865 867
219 1 1003 1004
220 1 1003 1005
221 1 766 767
222 1 766 768
223 1 646 647
224 1 646 648
225 1 916 917
226 1 916 918
227 1 841 842
228 1 841 843
229 1 127 128
230 1 127 129
231 1 1060 1061
232 1 1060 1062
233 1 808 809
234 1 808 810
235 1 1000 1001
236 1 1000 1002
237 1 22 23
238 1 22 24
239 1 199 200
240 1 199 201
241 1 187 188
242 1 187 189
243 1 232 233
244 1 232 234
245 1 415 416
246 1 415 417
247 1 532 533
248 1 532 534
249 1 757 758
250 1 757 759
251 1 643 644
252 1 643 645
253 1 511 512
254 1 511 513
255 1 1111 1112
256 1 1111 1113
257 1 1195 1196
258 1 1195 1197
259 1 1543 1544
260 1 1543 1545
261 1 1363 1364
262 1 1363 1365
263 1 763 764
264 1 763 765
265 1 1354 1355
266 1 1354 1356
267 1 289 290
268 1 289 291
269 1 436 437
270 1 436 438
271 1 523 524
272 1 523 525
273 1 331 332
274 1 331 333
275 1 1030 1031
276 1 1030 1032
277 1 274 275
278 1 274 276
279 1 862 863
280 1 862 864
281 1 823 824
282 1 823 825
283 1 1249 1250
284 1 1249 1251
285 1 955 956
286 1 955 957
287 1 1282 1283
288 1 1282 1284
289 1 355 356
290 1 355 357
291 1 1009 1010
292 1 1009 1011
293 1 1186 1187
294 1 1186 1188
295 1 493 494
296 1 493 495
297 1 658 659
298 1 658 660
299 1 697 698
300 1 697 699
301 1 991 992
302 1 991 993
303 1 1048 1049
304 1 1048 1050
305 1 1228 1229
306 1 1228 1230
307 1 1519 1520
308 1 1519 1521
309 1 1366 1367
310 1 1366 1368
311 1 988 989
312 1 988 990
313 1 220 221
314 1 220 222
315 1 1033 1034
316 1 1033 1035
317 1 31 32
318 1 31 33
319 1 499 500
320 1 499 501
321 1 64 65
322 1 64 66
323 1 946 947
324 1 946 948
325 1 1537 1538
326 1 1537 1539
327 1 37 38
328 1 37 39
329 1 361 362
330 1 361 363
331 1 1342 1343
332 1 1342 1344
333 1 133 134
334 1 133 135
335 1 367 368
336 1 367 369
337 1 208 209
338 1 208 210
339 1 118 119
340 1 118 120
341 1 613 614
342 1 613 615
343 1 580 581
344 1 580 582
345 1 205 206
346 1 205 207
347 1 1558 1559
348 1 1558 1560
349 1 568 569
350 1 568 570
351 1 82 83
352 1 82 84
353 1 1495 1496
354 1 1495 1497
355 1 85 86
356 1 85 87
357 1 1369 1370
358 1 1369 1371
359 1 622 623
360 1 622 624
361 1 1189 1190
362 1 1189 1191
363 1 163 164
364 1 163 165
365 1 307 308
366 1 307 309
367 1 961 962
368 1 961 963
369 1 484 485
370 1 484 486
371 1 1321 1322
372 1 1321 1323
373 1 574 575
374 1 574 576
375 1 1303 1304
376 1 1303 1305
377 1 58 59
378 1 58 60
379 1 295 296
380 1 295 297
381 1 685 686
382 1 685 687
383 1 1360 1361
384 1 1360 1362
385 1 448 449
386 1 448 450
387 1 1159 1160
388 1 1159 1161
389 1 700 701
390 1 700 702
391 1 1402 1403
392 1 1402 1404
393 1 850 851
394 1 850 852
395 1 793 794
396 1 793 795
397 1 1261 1262
398 1 1261 1263
399 1 34 35
400 1 34 36
401 1 424 425
402 1 424 426
403 1 571 572
404 1 571 573
405 1 1090 1091
406 1 1090 1092
407 1 1300 1301
408 1 1300 1302
409 1 979 980
410 1 979 981
411 1 103 104
412 1 103 105
413 1 19 20
414 1 19 21
415 1 1555 1556
416 1 1555 1557
417 1 124 125
418 1 124 126
419 1 1459 1460
420 1 1459 1461
421 1 451 452
422 1 451 453
423 1 1291 1292
424 1 1291 1293
425 1 121 122
426 1 121 123
427 1 1399 1400
428 1 1399 1401
429 1 1114 1115
430 1 1114 1116
431 1 1498 1499
432 1 1498 1500
433 1 751 752
434 1 751 753
435 1 730 731
436 1 730 732
437 1 409 410
438 1 409 411
439 1 889 890
440 1 889 891
441 1 1120 1121
442 1 1120 1122
443 1 172 173
444 1 172 174
445 1 352 353
446 1 352 354
447 1 433 434
448 1 433 435
449 1 400 401
450 1 400 402
451 1 1117 1118
452 1 1117 1119
453 1 496 497
454 1 496 498
455 1 325 326
456 1 325 327
457 1 712 713
458 1 712 714
459 1 277 278
460 1 277 279
461 1 1414 1415
462 1 1414 1416
463 1 1198 1199
464 1 1198 1200
465 1 868 869
466 1 868 870
467 1 1066 1067
468 1 1066 1068
469 1 598 599
470 1 598 600
471 1 1546 1547
472 1 1546 1548
473 1 1096 1097
474 1 1096 1098
475 1 1171 1172
476 1 1171 1173
477 1 1411 1412
478 1 1411 1413
479 1 241 242
480 1 241 243
481 1 1087 1088
482 1 1087 1089
483 1 262 263
484 1 262 264
485 1 1441 1442
486 1 1441 1443
487 1 1468 1469
488 1 1468 1470
489 1 1144 1145
490 1 1144 1146
491 1 775 776
492 1 775 777
493 1 691 692
494 1 691 693
495 1 115 116
496 1 115 117
497 1 442 443
498 1 442 444
499 1 529 530
500 1 529 531
501 1 1480 1481
502 1 1480 1482
503 1 505 506
504 1 505 507
505 1 490 491
506 1 490 492
507 1 343 344
508 1 343 345
509 1 13 14
510 1 13 15
511 1 328 329
512 1 328 330
513 1 244 245
514 1 244 246
515 1 619 620
516 1 619 621
517 1 430 431
518 1 430 432
519 1 958 959
520 1 958 960
521 1 1516 1517
522 1 1516 1518
523 1 70 71
524 1 70 72
525 1 43 44
526 1 43 45
527 1 337 338
528 1 337 339
529 1 859 860
530 1 859 861
531 1 1081 1082
532 1 1081 1083
533 1 253 254
534 1 253 255
535 1 733 734
536 1 733 735
537 1 739 740
538 1 739 741
539 1 1036 1037
540 1 1036 1038
541 1 1006 1007
542 1 1006 1008
543 1 826 827
544 1 826 828
545 1 1225 1226
546 1 1225 1227
547 1 358 359
548 1 358 360
549 1 1474 1475
550 1 1474 1476
551 1 1396 1397
552 1 1396 1398
553 1 211 212
554 1 211 213
555 1 394 395
556 1 394 396
557 1 790 791
558 1 790 792
559 1 334 335
560 1 334 336
561 1 421 422
562 1 421 423
563 1 16 17
564 1 16 18
565 1 616 617
566 1 616 618
567 1 1501 1502
568 1 1501 1503
569 1 556 557
570 1 556 558
571 1 778 779
572 1 778 780
573 1 346 347
574 1 346 348
575 1 1309 1310
576 1 1309 1311
577 1 319 320
578 1 319 321
579 1 538 539
580 1 538 540
581 1 1549 1550
582 1 1549 1551
583 1 907 908
584 1 907 909
585 1 667 668
586 1 667 669
587 1 109 110
588 1 109 111
589 1 1012 1013
590 1 1012 1014
591 1 1345 1346
592 1 1345 1347
593 1 781 782
594 1 781 783
595 1 1072 1073
596 1 1072 1074
597 1 856 857
598 1 856 858
599 1 1333 1334
600 1 1333 1335
601 1 1393 1394
602 1 1393 1395
603 1 607 608
604 1 607 609
605 1 754 755
606 1 754 756
607 1 577 578
608 1 577 579
609 1 1063 1064
610 1 1063 1065
611 1 1540 1541
612 1 1540 1542
613 1 655 656
614 1 655 657
615 1 130 131
616 1 130 132
617 1 1255 1256
618 1 1255 1257
619 1 1084 1085
620 1 1084 1086
621 1 226 227
622 1 226 228
623 1 472 473
624 1 472 474
625 1 1246 1247
626 1 1246 1248
627 1 1141 1142
628 1 1141 1143
629 1 1285 1286
630 1 1285 1287
631 1 142 143
632 1 142 144
633 1 517 518
634 1 517 519
635 1 1180 1181
636 1 1180 1182
637 1 535 536
638 1 535 537
639 1 214 215
640 1 214 216
641 1 1453 1454
642 1 1453 1455
643 1 169 170
644 1 169 171
645 1 874 875
646 1 874 876
647 1 553 554
648 1 553 555
649 1 1069 1070
650 1 1069 1071
651 1 283 284
652 1 283 285
653 1 391 392
654 1 391 393
655 1 673 674
656 1 673 675
657 1 1129 1130
658 1 1129 1131
659 1 1336 1337
660 1 1336 1338
661 1 73 74
662 1 73 75
663 1 1174 1175
664 1 1174 1176
665 1 1531 1532
666 1 1531 1533
667 1 313 314
668 1 313 315
669 1 373 374
670 1 373 375
671 1 931 932
672 1 931 933
673 1 1153 1154
674 1 1153 1155
675 1 1168 1169
676 1 1168 1170
677 1 181 182
678 1 181 183
679 1 175 176
680 1 175 177
681 1 1390 1391
682 1 1390 1392
683 1 1420 1421
684 1 1420 1422
685 1 1201 1202
686 1 1201 1203
687 1 475 476
688 1 475 477
689 1 715 716
690 1 715 717
691 1 769 770
692 1 769 771
693 1 481 482
694 1 481 483
695 1 235 236
696 1 235 237
697 1 256 257
698 1 256 258
699 1 40 41
700 1 40 42
701 1 682 683
702 1 682 684
703 1 454 455
704 1 454 456
705 1 829 830
706 1 829 831
707 1 610 611
708 1 610 612
709 1 1339 1340
710 1 1339 1341
711 1 934 935
712 1 934 936
713 1 982 983
714 1 982 984
715 1 637 638
716 1 637 639
717 1 847 848
718 1 847 849
719 1 190 191
720 1 190 192
721 1 1150 1151
722 1 1150 1152
723 1 1018 1019
724 1 1018 1020
725 1 1045 1046
726 1 1045 1047
727 1 736 737
728 1 736 738
729 1 1525 1526
730 1 1525 1527
731 1 724 725
732 1 724 726
733 1 397 398
734 1 397 399
735 1 1213 1214
736 1 1213 1215
737 1 1204 1205
738 1 1204 1206
739 1 661 662
740 1 661 663
741 1 193 194
742 1 193 195
743 1 229 230
744 1 229 231
745 1 457 458
746 1 457 459
747 1 1486 1487
748 1 1486 1488
749 1 970 971
750 1 970 972
751 1 1297 1298
752 1 1297 1299
753 1 772 773
754 1 772 774
755 1 820 821
756 1 820 822
757 1 1471 1472
758 1 1471 1473
759 1 1387 1388
760 1 1387 1389
761 1 1015 1016
762 1 1015 1017
763 1 811 812
764 1 811 813
765 1 79 80
766 1 79 81
767 1 1324 1325
768 1 1324 1326
769 1 565 566
770 1 565 567
771 1 676 677
772 1 676 678
773 1 76 77
774 1 76 78
775 1 184 185
776 1 184 186
777 1 1417 1418
778 1 1417 1419
779 1 520 521
780 1 520 522
781 1 919 920
782 1 919 921
783 1 1078 1079
784 1 1078 1080
785 1 1294 1295
786 1 1294 1296
787 1 1477 1478
788 1 1477 1479
789 1 379 380
790 1 379 381
791 1 973 974
792 1 973 975
793 1 1450 1451
794 1 1450 1452
795 1 1312 1313
796 1 1312 1314
797 1 166 167
798 1 166 168
799 1 1207 1208
800 1 1207 1209
801 1 100 101
802 1 100 102
803 1 1306 1307
804 1 1306 1308
805 1 502 503
806 1 502 504
807 1 460 461
808 1 460 462
809 1 1024 1025
810 1 1024 1026
811 1 1552 1553
812 1 1552 1554
813 1 1408 1409
814 1 1408 1410
815 1 1528 1529
816 1 1528 1530
817 1 937 938
818 1 937 939
819 1 88 89
820 1 88 90
821 1 1375 1376
822 1 1375 1377
823 1 271 272
824 1 271 273
825 1 559 560
826 1 559 561
827 1 1132 1133
828 1 1132 1134
829 1 1561 1562
830 1 1561 1563
831 1 1327 1328
832 1 1327 1329
833 1 1258 1259
834 1 1258 1260
835 1 1237 1238
836 1 1237 1239
837 1 1372 1373
838 1 1372 1374
839 1 10 11
840 1 10 12
841 1 250 251
842 1 250 252
843 1 418 419
844 1 418 420
845 1 814 815
846 1 814 816
847 1 1123 1124
848 1 1123 1125
849 1 1279 1280
850 1 1279 1281
851 1 1075 1076
852 1 1075 1077
853 1 67 68
854 1 67 69
855 1 49 50
856 1 49 51
857 1 286 287
858 1 286 288
859 1 112 113
860 1 112 114
861 1 838 839
862 1 838 840
863 1 148 149
864 1 148 150
865 1 940 941
866 1 940 942
867 1 265 266
868 1 265 267
869 1 883 884
870 1 883 885
871 1 1276 1277
872 1 1276 1278
873 1 664 665
874 1 664 666
875 1 1264 1265
876 1 1264 1266
877 1 583 584
878 1 583 585
879 1 1051 1052
880 1 1051 1053
881 1 403 404
882 1 403 405
883 1 385 386
884 1 385 387
885 1 1378 1379
886 1 1378 1380
887 1 97 98
888 1 97 99
889 1 1135 1136
890 1 1135 1137
891 1 310 311
892 1 310 312
893 1 835 836
894 1 835 837
895 1 298 299
896 1 298 300
897 1 901 902
898 1 901 903
899 1 1318 1319
900 1 1318 1320
901 1 994 995
902 1 994 996
903 1 904 905
904 1 904 906
905 1 466 467
906 1 466 468
907 1 670 671
908 1 670 672
909 1 562 563
910 1 562 564
911 1 892 893
912 1 892 894
913 1 805 806
914 1 805 807
915 1 997 998
916 1 997 999
917 1 280 281
918 1 280 282
919 1 1093 1094
920 1 1093 1095
921 1 4 5
922 1 4 6
923 1 1513 1514
924 1 1513 1515
925 1 151 152
926 1 151 153
927 1 1057 1058
928 1 1057 1059
929 1 1315 1316
930 1 1315 1317
931 1 316 317
932 1 316 318
933 1 628 629
934 1 628 630
935 1 46 47
936 1 46 48
937 1 487 488
938 1 487 489
939 1 1156 1157
940 1 1156 1158
941 1 406 407
942 1 406 408
943 1 592 593
944 1 592 594
945 1 1348 1349
946 1 1348 1350
947 1 1351 1352
948 1 1351 1353
949 1 478 479
950 1 478 480
951 1 787 788
952 1 787 789
953 1 964 965
954 1 964 966
955 1 586 587
956 1 586 588
957 1 1219 1220
958 1 1219 1221
959 1 760 761
960 1 760 762
961 1 1423 1424
962 1 1423 1425
963 1 445 446
964 1 445 447
965 1 1465 1466
966 1 1465 1467
967 1 526 527
968 1 526 528
969 1 463 464
970 1 463 465
971 1 709 710
972 1 709 711
973 1 301 302
974 1 301 303
975 1 589 590
976 1 589 591
977 1 1507 1508
978 1 1507 1509
979 1 1138 1139
980 1 1138 1140
981 1 1429 1430
982 1 1429 1431
983 1 1126 1127
984 1 1126 1128
985 1 91 92
986 1 91 93
987 1 94 95
988 1 94 96
989 1 706 707
990 1 706 708
991 1 853 854
992 1 853 855
993 1 922 923
994 1 922 924
995 1 1444 1445
996 1 1444 1446
997 1 1021 1022
998 1 1021 1023
999 1 292 293
1000 1 292 294
1001 1 1288 1289
1002 1 1288 1290
1003 1 1231 1232
1004 1 1231 1233
1005 1 439 440
1006 1 439 441
1007 1 1183 1184
1008 1 1183 1185
1009 1 694 695
1010 1 694 696
1011 1 949 950
1012 1 949 951
1013 1 1162 1163
1014 1 1162 1164
1015 1 1522 1523
1016 1 1522 1524
1017 1 871 872
1018 1 871 873
1019 1 1270 1271
1020 1 1270 1272
1021 1 913 914
1022 1 913 915
1023 1 154 155
1024 1 154 156
1025 1 1054 1055
1026 1 1054 1056
1027 1 238 239
1028 1 238 240
1029 1 157 158
1030 1 157 159
1031 1 1384 1385
1032 1 1384 1386
1033 1 1042 1043
1034 1 1042 1044
1035 1 652 653
1036 1 652 654
1037 1 259 260
1038 1 259 261
1039 1 427 428
1040 1 427 429
1041 1 514 515
1042 1 514 516

Angles

1 1 878 877 879
2 1 1040 1039 1041
3 1 746 745 747
4 1 197 196 198
5 1 1274 1273 1275
6 1 704 703 705
7 1 1457 1456 1458
8 1 650 649 651
9 1 800 799 801
10 1 1511 1510 1512
11 1 341 340 342
12 1 323 322 324
13 1 719 718 720
14 1 365 364 366
15 1 305 304 306
16 1 845 844 846
17 1 953 952 954
18 1 1178 1177 1179
19 1 29 28 30
20 1 785 784 786
21 1 833 832 834
22 1 1028 1027 1029
23 1 1505 1504 1506
24 1 1253 1252 1254
25 1 1244 1243 1245
26 1 203 202 204
27 1 743 742 744
28 1 2 1 3
29 1 137 136 138
30 1 1217 1216 1218
31 1 680 679 681
32 1 1223 1222 1224
33 1 1493 1492 1494
34 1 8 7 9
35 1 635 634 636
36 1 641 640 642
37 1 470 469 471
38 1 1331 1330 1332
39 1 818 817 819
40 1 926 925 927
41 1 371 370 372
42 1 53 52 54
43 1 179 178 180
44 1 1490 1489 1491
45 1 986 985 987
46 1 977 976 978
47 1 1235 1234 1236
48 1 722 721 723
49 1 26 25 27
50 1 1382 1381 1383
51 1 1211 1210 1212
52 1 377 376 378
53 1 413 412 414
54 1 1166 1165 1167
55 1 1268 1267 1269
56 1 1436 1435 1437
57 1 1358 1357 1359
58 1 1535 1534 1536
59 1 1463 1462 1464
60 1 605 604 606
61 1 632 631 633
62 1 56 55 57
63 1 107 106 108
64 1 689 688 690
65 1 911 910 912
66 1 545 544 546
67 1 797 796 798
68 1 269 268 270
69 1 803 802 804
70 1 1100 1099 1101
71 1 929 928 930
72 1 248 247 249
73 1 887 886 888
74 1 551 550 552
75 1 881 880 882
76 1 389 388 390
77 1 509 508 510
78 1 1448 1447 1449
79 1 749 748 750
80 1 350 349 351
81 1 602 601 603
82 1 728 727 729
83 1 626 625 627
84 1 542 541 543
85 1 1427 1426 1428
86 1 596 595 597
87 1 161 160 162
88 1 1484 1483 1485
89 1 146 145 147
90 1 1103 1102 1104
91 1 140 139 141
92 1 218 217 219
93 1 224 223 225
94 1 896 895 897
95 1 383 382 384
96 1 1109 1108 1110
97 1 1406 1405 1407
98 1 968 967 969
99 1 1439 1438 1440
100 1 944 943 945
101 1 62 61 63
102 1 899 898 900
103 1 1193 1192 1194
104 1 548 547 549
105 1 1433 1432 1434
106 1 1241 1240 1242
107 1 1106 1105 1107
108 1 1148 1147 1149
109 1 866 865 867
110 1 1004 1003 1005
111 1 767 766 768
112 1 647 646 648
113 1 917 916 918
114 1 842 841 843
115 1 128 127 129
116 1 1061 1060 1062
117 1 809 808 810
118 1 1001 1000 1002
119 1 23 22 24
120 1 200 199 201
121 1 188 187 189
122 1 233 232 234
123 1 416 415 417
124 1 533 532 534
125 1 758 757 759
126 1 644 643 645
127 1 512 511 513
128 1 1112 1111 1113
129 1 1196 1195 1197
130 1 1544 1543 1545
131 1 1364 1363 1365
132 1 764 763 765
133 1 1355 1354 1356
134 1 290 289 291
135 1 437 436 438
136 1 524 523 525
137 1 332 331 333
138 1 1031 1030 1032
139 1 275 274 276
140 1 863 862 864
141 1 824 823 825
142 1 1250 1249 1251
143 1 956 955 957
144 1 1283 1282 1284
145 1 356 355 357
146 1 1010 1009 1011
147 1 1187 1186 1188
148 1 494 493 495
149 1 659 658 660
150 1 698 697 699
151 1 992 991 993
152 1 1049 1048 1050
153 1 1229 1228 1230
154 1 1520 1519 1521
155 1 1367 1366 1368
156 1 989 988 990
157 1 221 220 222
158 1 1034 1033 1035
159 1 32 31 33
160 1 500 499 501
161 1 65 64 66
162 1 947 946 948
163 1 1538 1537 1539
164 1 38 37 39
165 1 362 361 363
166 1 1343 1342 1344
167 1 134 133 135
168 1 368 367 369
169 1 209 208 210
170 1 119 118 120
171 1 614 613 615
172 1 581 580 582
173 1 206 205 207
174 1 1559 1558 1560
175 1 569 568 570
176 1 83 82 84
177 1 1496 1495 1497
178 1 86 85 87
179 1 1370 1369 1371
180 1 623 622 624
181 1 1190 1189 1191
182 1 164 163 165
183 1 308 307 309
184 1 962 961 963
185 1 485 484 486
186 1 1322 1321 1323
187 1 575 574 576
188 1 1304 1303 1305
189 1 59 58 60
190 1 296 295 297
191 1 686 685 687
192 1 1361 1360 1362
193 1 449 448 450
194 1 1160 1159 1161
195 1 701 700 702
196 1 1403 1402 1404
197 1 851 850 852
198 1 794 793 795
199 1 1262 1261 1263
200 1 35 34 36
201 1 425 424 426
202 1 572 571 573
203 1 1091 1090 1092
204 1 1301 1300 1302
205 1 980 979 981
206 1 104 103 105
207 1 20 19 21
208 1 1556 1555 1557
209 1 125 124 126
210 1 1460 1459 1461
211 1 452 451 453
212 1 1292 1291 1293
213 1 122 121 123
214 1 1400 1399 1401
215 1 1115 1114 1116
216 1 1499 1498 1500
217 1 752 751 753
218 1 731 730 732
219 1 410 409 411
220 1 890 889 891
221 1 1121 1120 1122
222 1 173 172 174
223 1 353 352 354
224 1 434 433 435
225 1 401 400 402
226 1 1118 1117 1119
227 1 497 496 498
228 1 326 325 327
229 1 713 712 714
230 1 278 277 279
231 1 1415 1414 1416
232 1 1199 1198 1200
233 1 869 868 870
234 1 1067 1066 1068
235 1 599 598 600
236 1 1547 1546 1548
237 1 1097 1096 1098
238 1 1172 1171 1173
239 1 1412 1411 1413
240 1 242 241 243
241 1 1088 1087 1089
242 1 263 262 264
243 1 1442 1441 1443
244 1 1469 1468 1470
245 1 1145 1144 1146
246 1 776 775 777
247 1 692 691 693
248 1 116 115 117
249 1 443 442 444
250 1 530 529 531
251 1 1481 1480 1482
252 1 506 505 507
253 1 491 490 492
254 1 344 343 345
255 1 14 13 15
256 1 329 328 330
257 1 245 244 246
258 1 620 619 621
259 1 431 430 432
260 1 959 958 960
261 1 1517 1516 1518
262 1 71 70 72
263 1 44 43 45
264 1 338 337 339
265 1 860 859 861
266 1 1082 1081 1083
267 1 254 253 255
268 1 734 733 735
269 1 740 739 741
270 1 1037 1036 1038
271 1 1007 1006 1008
272 1 827 826 828
273 1 1226 1225 1227
274 1 359 358 360
275 1 1475 1474 1476
276 1 1397 1396 1398
277 1 212 211 213
278 1 395 394 396
279 1 791 790 792
280 1 335 334 336
281 1 422 421 423
282 1 17 16 18
283 1 617 616 618
284 1 1502 1501 1503
285 1 557 556 558
286 1 779 778 780
287 1 347 346 348
288 1 1310 1309 1311
289 1 320 319 321
290 1 539 538 540
291 1 1550 1549 1551
292 1 908 907 909
293 1 668 667 669
294 1 110 109 111
295 1 1013 1012 1014
296 1 1346 1345 1347
297 1 782 781 783
298 1 1073 1072 1074
299 1 857 856 858
300 1 1334 1333 1335
301 1 1394 1393 1395
302 1 608 607 609
303 1 755 754 756
304 1 578 577 579
305 1 1064 1063 1065
306 1 1541 1540 1542
307 1 656 655 657
308 1 131 130 132
309 1 1256 1255 1257
310 1 1085 1084 1086
311 1 227 226 228
312 1 473 472 474
313 1 1247 1246 1248
314 1 1142 1141 1143
315 1 1286 1285 1287
316 1 143 142 144
317 1 518 517 519
318 1 1181 1180 1182
319 1 536 535 537
320 1 215 214 216
321 1 1454 1453 1455
322 1 170 169 171
323 1 875 874 876
324 1 554 553 555
325 1 1070 1069 1071
326 1 284 283 285
327 1 392 391 393
328 1 674 673 675
329 1 1130 1129 1131
330 1 1337 1336 1338
331 1 74 73 75
332 1 1175 1174 1176
333 1 1532 1531 1533
334 1 314 313 315
335 1 374 373 375
336 1 932 931 933
337 1 1154 1153 1155
338 1 1169 1168 1170
339 1 182 181 183
340 1 176 175 177
341 1 1391 1390 1392
342 1 1421 1420 1422
343 1 1202 1201 1203
344 1 476 475 477
345 1 716 715 717
346 1 770 769 771
347 1 482 481 483
348 1 236 235 237
349 1 257 256 258
350 1 41 40 42
351 1 683 682 684
352 1 455 454 456
353 1 830 829 831
354 1 611 610 612
355 1 1340 1339 1341
356 1 935 934 936
357 1 983 982 984
358 1 638 637 639
359 1 848 847 849
360 1 191 190 192
361 1 1151 1150 1152
362 1 1019 1018 1020
363 1 1046 1045 1047
364 1 737 736 738
365 1 1526 1525 1527
366 1 725 724 726
367 1 398 397 399
368 1 1214 1213 1215
369 1 1205 1204 1206
370 1 662 661 663
371 1 194 193 195
372 1 230 229 231
373 1 458 457 459
374 1 1487 1486 1488
375 1 971 970 972
376 1 1298 1297 1299
377 1 773 772 774
378 1 821 820 822
379 1 1472 1471 1473
380 1 1388 1387 1389
381 1 1016 1015 1017
382 1 812 811 813
383 1 80 79 81
384 1 1325 1324 1326
385 1 566 565 567
386 1 677 676 678
387 1 77 76 78
388 1 185 184 186
389 1 1418 1417 1419
390 1 521 520 522
391 1 920 919 921
392 1 1079 1078 1080
393 1 1295 1294 1296
394 1 1478 1477 1479
395 1 380 379 381
396 1 974 973 975
397 1 1451 1450 1452
398 1 1313 1312 1314
399 1 167 166 168
400 1 1208 1207 1209
401 1 101 100 102
402 1 1307 1306 1308
403 1 503 502 504
404 1 461 460 462
405 1 1025 1024 1026
406 1 1553 1552 1554
407 1 1409 1408 1410
408 1 1529 1528 1530
409 1 938 937 939
410 1 89 88 90
411 1 1376 1375 1377
412 1 272 271 273
413 1 560 559 561
414 1 1133 1132 1134
415 1 1562 1561 1563
416 1 1328 1327 1329
417 1 1259 1258 1260
418 1 1238 1237 1239
419 1 1373 1372 1374
420 1 11 10 12
421 1 251 250 252
422 1 419 418 420
423 1 815 814 816
424 1 1124 1123 1125
425 1 1280 1279 1281
426 1 1076 1075 1077
427 1 68 67 69
428 1 50 49 51
429 1 287 286 288
430 1 113 112 114
431 1 839 838 840
432 1 149 148 150
433 1 941 940 942
434 1 266 265 267
435 1 884 883 885
436 1 1277 1276 1278
437 1 665 664 666
438 1 1265 1264 1266
439 1 584 583 585
440 1 1052 1051 1053
441 1 404 403 405
442 1 386 385 387
443 1 1379 1378 1380
444 1 98 97 99
445 1 1136 1135 1137
446 1 311 310 312
447 1 836 835 837
448 1 299 298 300
449 1 902 901 903
450 1 1319 1318 1320
451 1 995 994 996
452 1 905 904 906
453 1 467 466 468
454 1 671 670 672
455 1 563 562 564
456 1 893 892 894
457 1 806 805 807
458 1 998 997 999
459 1 281 280 282
460 1 1094 1093 1095
461 1 5 4 6
462 1 1514 1513 1515
463 1 152 151 153
464 1 1058 1057 1059
465 1 1316 1315 1317
466 1 317 316 318
467 1 629 628 630
468 1 47 46 48
469 1 488 487 489
470 1 1157 1156 1158
471 1 407 406 408
472 1 593 592 594
473 1 1349 1348 1350
474 1 1352 1351 1353
475 1 479 478 480
476 1 788 787 789
477 1 965 964 966
478 1 587 586 588
479 1 1220 1219 1221
480 1 761 760 762
481 1 1424 1423 1425
482 1 446 445 447
483 1 1466 1465 1467
484 1 527 526 528
485 1 464 463 465
486 1 710 709 711
487 1 302 301 303
488 1 590 589 591
489 1 1508 1507 1509
490 1 1139 1138 1140
491 1 1430 1429 1431
492 1 1127 1126 1128
493 1 92 91 93
494 1 95 94 96
495 1 707 706 708
496 1 854 853 855
497 1 923 922 924
498 1 1445 1444 1446
499 1 1022 1021 1023
500 1 293 292 294
501 1 1289 1288 1290
502 1 1232 1231 1233
503 1 440 439 441
504 1 1184 1183 1185
505 1 695 694 696
506 1 950 949 951
507 1 1163 1162 1164
508 1 1523 1522 1524
509 1 872 871 873
510 1 1271 1270 1272
511 1 914 913 915
512 1 155 154 156
513 1 1055 1054 1056
514 1 239 238 240
515 1 158 157 159
516 1 1385 1384 1386
517 1 1043 1042 1044
518 1 653 652 654
519 1 260 259 261
520 1 428 427 429
521 1 515 514 516
