LAMMPS (22 Jul 2025 - Update 1)
OMP_NUM_THREADS environment is not set. Defaulting to 1 thread.
  using 1 OpenMP thread(s) per MPI task
package gpu 1 neigh no
# Bulk spce reference
# generated by aemwater -- do not edit; edit the template instead

units           real
atom_style      full
boundary        p p p

pair_style      lj/cut/coul/long 10.0 10.0
# GAFF2 is a Lorentz-Berthelot force field. The LAMMPS default for lj/cut is
# GEOMETRIC mixing, which silently changes every cross interaction.
pair_modify     mix arithmetic tail yes
kspace_style    pppm 0.0001
bond_style      harmonic
angle_style     harmonic
dihedral_style  charmm
improper_style  cvff
# Amber 1-4 scaling: LJ/2 and Coulomb/1.2. Applied here, so every CHARMM
# dihedral weight in the data file is 0.
special_bonds   lj 0.0 0.0 0.5 coul 0.0 0.0 0.8333333333

read_data       bulk.data
Reading data file ...
  orthogonal box = (0 0 0) to (25.004081 25.004081 25.004081)
  1 by 1 by 1 MPI processor grid
  reading atoms ...
  1563 atoms
  scanning bonds ...
  2 = max bonds/atom
  scanning angles ...
  1 = max angles/atom
  orthogonal box = (0 0 0) to (25.004081 25.004081 25.004081)
  1 by 1 by 1 MPI processor grid
  reading bonds ...
  1042 bonds
  reading angles ...
  521 angles
Finding 1-2 1-3 1-4 neighbors ...
  special bond factors lj:    0        0        0.5     
  special bond factors coul:  0        0        0.8333333333
     2 = max # of 1-2 neighbors
     1 = max # of 1-3 neighbors
     1 = max # of 1-4 neighbors
     2 = max # of special neighbors
  special bonds CPU = 0.001 seconds
  read_data CPU = 0.021 seconds
neighbor        2.0 bin
neigh_modify    delay 0 every 1 check yes
# The ghost-atom cutoff defaults to the pair cutoff + skin. Bonded partners must
# also be within it, and a stretched bond in a freshly packed cell can exceed it,
# which LAMMPS reports as a communication-cutoff warning before losing atoms.
comm_modify     cutoff 12.0

# Molecule IDs are assigned by the data writer in packing order: polymer chains
# first, then counterions, then any water added later. `<>` is LAMMPS's inclusive
# range operator.
group           polymer molecule <> 1 0
0 atoms in group polymer
group           water type 1 2
1563 atoms in group water

thermo          500
thermo_style    custom step temp press vol density etotal ke pe ebond eangle edihed evdwl ecoul elong
thermo_modify   flush yes

# ================================================================ BULK WATER ==
# Reference reservoir. The protocol must match the membrane Widom run in every
# detail that shifts mu_ex -- cutoff, kspace accuracy, tail correction, water
# model, insertion count -- because the saturation criterion resolves a
# difference much smaller than any of those systematic shifts.

# ---------------------------------------------------------------- stage 1 ----
# The lattice is overlap-free by construction, so no soft push-off is needed;
# a short minimisation removes the jitter-induced strain.
min_style       cg
minimize        1e-06 1e-06 500 5000

CITE-CITE-CITE-CITE-CITE-CITE-CITE-CITE-CITE-CITE-CITE-CITE-CITE

Your simulation uses code contributions which should be cited:

- GPU package (short-range, long-range and three-body potentials): doi:10.1016/j.cpc.2010.12.021, doi:10.1016/j.cpc.2011.10.012, doi:10.1016/j.cpc.2013.08.002, doi:10.1016/j.commatsci.2014.10.068, doi:10.1016/j.cpc.2016.10.020, doi:10.3233/APC200086

@Article{Brown11,
 author = {W. M. Brown and P. Wang and S. J. Plimpton and A. N. Tharrington},
 title = {Implementing Molecular Dynamics on Hybrid High Performance Computers---Short Range Forces},
 journal = {Comput.\ Phys.\ Commun.},
 year =    2011,
 volume =  182,
 pages =   {898--911},
 doi =     {10.1016/j.cpc.2010.12.021}
}

@Article{Brown12,
 author = {W. M. Brown and A. Kohlmeyer and S. J. Plimpton and A. N. Tharrington},
 title = {Implementing Molecular Dynamics on Hybrid High Performance Computers - Particle-Particle Particle-Mesh},
 journal = {Comput.\ Phys.\ Commun.},
 year =    2012,
 volume =  183,
 doi =     {10.1016/j.cpc.2011.10.012},
 pages =   {449--459}
}

@Article{Brown13,
 author = {W. M. Brown and Y. Masako},
 title = {Implementing Molecular Dynamics on Hybrid High Performance Computers---Three-Body Potentials},
 journal = {Comput.\ Phys.\ Commun.},
 year =    2013,
 volume =  184,
 pages =   {2785--2793},
 doi =     {10.1016/j.cpc.2013.08.002},
}

@Article{Trung15,
 author = {T. D. Nguyen and S. J. Plimpton},
 title = {Accelerating Dissipative Particle Dynamics Simulations for Soft Matter Systems},
 journal = {Comput.\ Mater.\ Sci.},
 year =    2015,
 doi =     {10.1016/j.commatsci.2014.10.068},
 volume =  100,
 pages =   {173--180}
}

@Article{Trung17,
 author = {T. D. Nguyen},
 title = {{GPU}-Accelerated {T}ersoff Potentials for Massively Parallel
    Molecular Dynamics Simulations},
 journal = {Comput.\ Phys.\ Commun.},
 year =    2017,
 doi =     {10.1016/j.cpc.2016.10.020},
 volume =  212,
 pages =   {113--122}
}

@inproceedings{Nikolskiy19,
 author = {V. Nikolskiy and V. Stegailov},
 title = {{GPU} Acceleration of Four-Site Water Models in {LAMMPS}},
 booktitle = {Proceedings of the International Conference on Parallel
    Computing (ParCo 2019), Prague, Czech Republic},
 doi =     {10.3233/APC200086},
 year =    2019
}

CITE-CITE-CITE-CITE-CITE-CITE-CITE-CITE-CITE-CITE-CITE-CITE-CITE

PPPM initialization ...
  using 12-bit tables for long-range coulomb
  G vector (1/distance) = 0.27620514
  grid = 15 15 15
  stencil order = 5
  estimated absolute RMS force accuracy = 0.016399033
  estimated relative force accuracy = 4.9385199e-05
  using double precision KISS FFT
  3d grid and FFT values/proc = 10648 3375
Generated 1 of 1 mixed pair_coeff terms from arithmetic mixing rule
Neighbor list info ...
  update: every = 1 steps, delay = 0 steps, check = yes
  max neighbors/atom: 2000, page size: 100000
  master list distance cutoff = 12
  ghost atom cutoff = 12
  binsize = 6, bins = 5 5 5
  1 neighbor lists, perpetual/occasional/extra = 1 0 0
  (1) pair lj/cut/coul/long/gpu, perpetual
      attributes: full, newton on
      pair build: full/bin
      stencil: full/bin/3d
      bin: standard
Per MPI rank memory allocation (min/avg/max) = 15.13 | 15.13 | 15.13 Mbytes
   Step          Temp          Press          Volume        Density         TotEng         KinEng         PotEng         E_bond        E_angle        E_dihed         E_vdwl         E_coul         E_long    
         0   0              60081.442      15632.653      0.99700653     2264.7623      0              2264.7623      9.4940396e-08  1.9793712e-08  0              2030.2447      28930.931     -28696.414    
       500   0              1446.9883      15632.653      0.99700653    -7192.2889      0             -7192.2889      306.84816      100.28689      0              1874.6034      19567.948     -29041.975    
Loop time of 2.58395 on 1 procs for 500 steps with 1563 atoms

98.7% CPU use with 1 MPI tasks x 1 OpenMP threads

Minimization stats:
  Stopping criterion = max iterations
  Energy initial, next-to-last, final = 
      2264.76230210859   -7192.1439039796  -7192.28885643677
  Force two-norm initial, final = 987.23268 17.642754
  Force max component initial, final = 60.339628 2.9049146
  Final line search alpha, max atom move = 0.008739639 0.025387905
  Iterations, force evaluations = 500 974

MPI task timing breakdown:
Section |  min time  |  avg time  |  max time  |%varavg| %total
---------------------------------------------------------------
Pair    | 0.49541    | 0.49541    | 0.49541    |   0.0 | 19.17
Bond    | 0.085396   | 0.085396   | 0.085396   |   0.0 |  3.30
Kspace  | 1.1224     | 1.1224     | 1.1224     |   0.0 | 43.44
Neigh   | 0.75467    | 0.75467    | 0.75467    |   0.0 | 29.21
Comm    | 0.074646   | 0.074646   | 0.074646   |   0.0 |  2.89
Output  | 0.00088811 | 0.00088811 | 0.00088811 |   0.0 |  0.03
Modify  | 8.7161e-05 | 8.7161e-05 | 8.7161e-05 |   0.0 |  0.00
Other   |            | 0.05042    |            |       |  1.95

Nlocal:           1563 ave        1563 max        1563 min
Histogram: 1 0 0 0 0 0 0 0 0 0
Nghost:           9825 ave        9825 max        9825 min
Histogram: 1 0 0 0 0 0 0 0 0 0
Neighs:              0 ave           0 max           0 min
Histogram: 1 0 0 0 0 0 0 0 0 0
FullNghs:  1.16438e+06 ave 1.16438e+06 max 1.16438e+06 min
Histogram: 1 0 0 0 0 0 0 0 0 0

Total # of neighbors = 1164382
Ave neighs/atom = 744.96609
Ave special neighs/atom = 2
Neighbor list builds = 15
Dangerous builds = 0

# ---------------------------------------------------------------- stage 2 ----
# Rigid water. SPC/E and TIP3P are *defined* with fixed geometry: integrating
# their internal degrees of freedom gives a different liquid with a different
# chemical potential.
fix             rigid_water all shake 0.0001 20 0 b 1 a 1
Finding SHAKE clusters ...
       0 = # of size 2 clusters
       0 = # of size 3 clusters
       0 = # of size 4 clusters
     521 = # of frozen angles
  find clusters CPU = 0.001 seconds
timestep        1.0
velocity        all create 300.0 31337 mom yes rot yes dist gaussian

# NPT to the target state point. The lattice melts within a few ps; the run is
# long enough that the density is measured on liquid, not on a melting solid.
fix             npt_bulk all npt temp 300.0 300.0 100.0 iso 1.0 1.0 1000.0
# Variables must exist before the fix that references them: LAMMPS resolves
# v_ names at fix-definition time, not at run time.
variable        dens equal density
variable        vol equal vol
fix             rho all ave/time 500 10 5000 v_dens v_vol file bulk_density.dat
run             50000
PPPM initialization ...
  using 12-bit tables for long-range coulomb
  G vector (1/distance) = 0.27620514
  grid = 15 15 15
  stencil order = 5
  estimated absolute RMS force accuracy = 0.016399033
  estimated relative force accuracy = 4.9385199e-05
  using double precision KISS FFT
  3d grid and FFT values/proc = 10648 3375
Generated 1 of 1 mixed pair_coeff terms from arithmetic mixing rule
Per MPI rank memory allocation (min/avg/max) = 14.92 | 14.92 | 14.92 Mbytes
   Step          Temp          Press          Volume        Density         TotEng         KinEng         PotEng         E_bond        E_angle        E_dihed         E_vdwl         E_coul         E_long    
       500   300            309.50463      15632.653      0.99700653    -6668.5169      930.90698     -7599.4239      0              0              0              1874.6034      19567.948     -29041.975    
      1000   218.62622     -161.43149      16687.085      0.9340072     -5441.4703      678.40223     -6119.8725      0              0              0              1211.5173      21703.717     -29035.107    
      1500   325.15793     -434.33537      16619.245      0.9378198     -4607.0385      1008.9726     -5616.0111      0              0              0              989.15167      22417.935     -29023.098    
      2000   301.99757      588.93394      15856.95       0.98290382    -4751.2465      937.10547     -5688.352       0              0              0              1091.3518      22252.674     -29032.377    
      2500   303.32009     -499.34352      15724.104      0.99120797    -4828.7635      941.2093      -5769.9728      0              0              0              1038.9387      22223.497     -29032.409    
      3000   300.71608     -342.06105      15758.593      0.98903863    -4870.0737      933.129       -5803.2027      0              0              0              1086.4377      22142.908     -29032.548    
      3500   297.66096      489.50026      15541.241      1.0028708     -4836.7113      923.6489      -5760.3602      0              0              0              1116.0666      22155.714     -29032.14     
      4000   299.8977      -297.28261      15696.432      0.99295544    -4846.2512      930.58955     -5776.8407      0              0              0              1068.5646      22183.818     -29029.223    
      4500   297.0401       217.09944      15671.544      0.99453233    -4870.5077      921.72233     -5792.23        0              0              0              1111.8078      22131.676     -29035.714    
      5000   298.96492      231.82254      15608.287      0.99856294    -4860.3584      927.69509     -5788.0535      0              0              0              1114.8027      22129.119     -29031.975    
      5500   298.04492     -991.05807      15511.725      1.0047791     -4886.1417      924.84033     -5810.9821      0              0              0              1021.5254      22202.415     -29034.922    
      6000   291.12156     -966.1061       15555.869      1.0019278     -4919.065       903.35696     -5822.422       0              0              0              1043.8389      22168.873     -29035.134    
      6500   291.65258     -78.761841      15707.609      0.99224884    -4882.3665      905.00473     -5787.3712      0              0              0              1095.0487      22151.322     -29033.742    
      7000   293.4008       786.79645      15562.611      1.0014937     -4880.0481      910.4295      -5790.4776      0              0              0              1153.2347      22085.821     -29029.533    
      7500   297.0528      -8.7890426      15382.877      1.0131952     -4866.4141      921.76175     -5788.1759      0              0              0              1069.0046      22176.445     -29033.626    
      8000   299.83667     -141.15016      15319.763      1.0173693     -4904.3434      930.40017     -5834.7436      0              0              0              1079.1575      22122.183     -29036.084    
      8500   304.18847      1101.1183      15596.286      0.99933135    -4801.8261      943.9039      -5745.73        0              0              0              1138.2919      22147.562     -29031.584    
      9000   297.19809      202.30622      15637.763      0.99668074    -4877.2092      922.21258     -5799.4217      0              0              0              1110.5788      22126.985     -29036.985    
      9500   300.12246      162.50886      15762.693      0.98878135    -4865.4384      931.28697     -5796.7254      0              0              0              1114.5735      22121.711     -29033.009    
     10000   305.6789       580.9489       15949.789      0.97718263    -4863.1166      948.52872     -5811.6454      0              0              0              1167.745       22053.352     -29032.743    
     10500   298.48262      821.63045      15688.41       0.99346317    -4888.7986      926.1985      -5814.9971      0              0              0              1170.3733      22046.044     -29031.414    
     11000   291.52796     -504.3077       15821.556      0.98510266    -4907.7842      904.61803     -5812.4022      0              0              0              1080.1095      22143.459     -29035.971    
     11500   311.41245     -808.68986      15756.89       0.98914554    -4879.3019      966.32008     -5845.622       0              0              0              1057.4552      22129.614     -29032.691    
     12000   307.04871      55.802338      15818.559      0.98528933    -4838.4165      952.77929     -5791.1958      0              0              0              1100.4779      22142.122     -29033.796    
     12500   291.52422     -408.69798      15678.169      0.99411206    -4865.6096      904.60643     -5770.216       0              0              0              1061.1883      22202.6       -29034.004    
     13000   295.49066      1067.8998      15531.602      1.0034932     -4856.9362      916.91438     -5773.8506      0              0              0              1151.643       22109.436     -29034.93     
     13500   303.8014      -49.001645      15664.718      0.99496572    -4831.2914      942.70282     -5773.9943      0              0              0              1082.2059      22174.361     -29030.562    
     14000   308.33547      133.74349      15836.166      0.98419387    -4745.6605      956.77213     -5702.4327      0              0              0              1083.337       22245.848     -29031.618    
     14500   314.48999      104.41636      15680.15       0.99398648    -4856.8513      975.86975     -5832.721       0              0              0              1118.7793      22083.186     -29034.686    
     15000   297.14476      104.46478      15806.345      0.98605065    -4838.6217      922.04711     -5760.6688      0              0              0              1099.1479      22173.627     -29033.444    
     15500   294.77684      386.72725      15683.194      0.99379353    -4887.1076      914.6994      -5801.807       0              0              0              1132.4519      22100.493     -29034.752    
     16000   296.55634      801.39801      15369.078      1.0141049     -4936.6418      920.22122     -5856.863       0              0              0              1166.6299      22008.976     -29032.469    
     16500   306.02856     -479.8318       15783.222      0.9874953     -4838.1834      949.61375     -5787.7972      0              0              0              1072.5685      22175.84      -29036.206    
     17000   305.62077      308.05162      15535.258      1.003257      -4859.3787      948.34835     -5807.7271      0              0              0              1119.6304      22107.32      -29034.677    
     17500   305.86321     -426.65009      15515.976      1.0045038     -4898.7512      949.10067     -5847.8519      0              0              0              1077.232       22109.86      -29034.944    
     18000   300.29229     -670.85926      15478.618      1.0069282     -4887.9673      931.81397     -5819.7812      0              0              0              1053.8663      22162.219     -29035.867    
     18500   283.10806      577.50047      15312.191      1.0178725     -4975.2212      878.4909      -5853.7121      0              0              0              1156.3712      22023.253     -29033.336    
     19000   305.30715     -275.07629      15459.804      1.0081536     -4863.2075      947.37519     -5810.5827      0              0              0              1072.9274      22148.142     -29031.652    
     19500   307.71471      1549.5388      15089.322      1.0329064     -4868.3116      954.84591     -5823.1575      0              0              0              1170.9544      22039.22      -29033.332    
     20000   294.09701      91.160614      15621.446      0.99772181    -4878.9021      912.58985     -5791.492       0              0              0              1100.9736      22143.662     -29036.127    
     20500   303.10771      271.41964      15489.685      1.0062088     -4848.5092      940.55027     -5789.0594      0              0              0              1099.1653      22145.685     -29033.91     
     21000   299.8354      -669.85447      15769.442      0.98835822    -4816.1045      930.39621     -5746.5008      0              0              0              1033.3429      22255.889     -29035.732    
     21500   318.26363     -317.82164      15581.74       1.0002643     -4774.8629      987.57946     -5762.4424      0              0              0              1050.5913      22222.138     -29035.172    
     22000   314.35247     -76.749845      15534.3        1.0033189     -4820.459       975.44304     -5795.9021      0              0              0              1071.8775      22162.48      -29030.259    
     22500   300.32602      353.06289      15558.581      1.0017531     -4842.5726      931.91862     -5774.4912      0              0              0              1098.2269      22163.016     -29035.735    
     23000   291.72043     -883.74689      15744.067      0.98995113    -4896.4059      905.21528     -5801.6212      0              0              0              1045.6225      22183.373     -29030.617    
     23500   300.33797      331.00488      15428.452      1.0102023     -4828.859       931.95571     -5760.8147      0              0              0              1094.8951      22178.105     -29033.814    
     24000   292.39647      19.973134      15385.796      1.013003      -4939.7516      907.31305     -5847.0647      0              0              0              1103.5186      22086.816     -29037.399    
     24500   296.96242      284.03223      15633.064      0.99698031    -4858.6934      921.4813      -5780.1747      0              0              0              1114.8609      22135.547     -29030.583    
     25000   299.80029      247.31557      15931.772      0.97828774    -4836.192       930.28728     -5766.4793      0              0              0              1119.3865      22148.897     -29034.763    
     25500   300.36107      259.65933      15713.966      0.99184744    -4893.1665      932.0274      -5825.1939      0              0              0              1132.7101      22077.393     -29035.297    
     26000   302.81664     -458.55372      15745.815      0.98984127    -4889.1152      939.64707     -5828.7623      0              0              0              1083.8863      22121.599     -29034.247    
     26500   286.41619      369.80827      15827.586      0.98472739    -4837.9386      888.7561      -5726.6946      0              0              0              1109.6105      22196.011     -29032.317    
     27000   293.9381      -506.66599      15586.984      0.9999277     -4881.2949      912.09675     -5793.3917      0              0              0              1058.3225      22184.839     -29036.553    
     27500   295.66679      838.24518      15357.457      1.0148723     -4870.931       917.46092     -5788.3919      0              0              0              1126.5114      22117.168     -29032.071    
     28000   309.93153     -514.62541      15696.778      0.99293351    -4796.8336      961.72474     -5758.5583      0              0              0              1043.6886      22230.086     -29032.333    
     28500   285.37053     -255.90816      15854.972      0.98302648    -4883.6524      885.5114      -5769.1637      0              0              0              1082.8203      22181.504     -29033.488    
     29000   303.2827      -191.81334      15730.041      0.99083383    -4896.0203      941.09327     -5837.1135      0              0              0              1105.6485      22090.712     -29033.474    
     29500   293.88462     -41.440147      15571.064      1.0009501     -4933.6354      911.9308      -5845.5662      0              0              0              1113.1633      22075.749     -29034.478    
     30000   319.00909     -306.145        15485.54       1.0064781     -4779.2391      989.89264     -5769.1317      0              0              0              1035.1552      22232.044     -29036.331    
     30500   297.62379     -340.67952      15571.492      1.0009225     -4853.1431      923.53353     -5776.6767      0              0              0              1060.8513      22196.614     -29034.142    
     31000   300.17873     -132.27113      15458.182      1.0082594     -4880.0994      931.46158     -5811.561       0              0              0              1080.4972      22138.776     -29030.834    
     31500   314.16489      555.81549      15339.223      1.0160787     -4812.8732      974.86097     -5787.7342      0              0              0              1103.803       22141.919     -29033.456    
     32000   290.54158      758.10371      15438.709      1.0095311     -4909.0196      901.55729     -5810.5769      0              0              0              1138.7014      22083.146     -29032.424    
     32500   298.77048     -823.27741      15719.544      0.99149553    -4884.1703      927.09174     -5811.262       0              0              0              1055.3707      22168.283     -29034.916    
     33000   311.58193      280.65749      15560.8        1.0016103     -4868.9592      966.84596     -5835.8052      0              0              0              1122.2398      22077.09      -29035.135    
     33500   300.66413      194.23701      15373.142      1.0138368     -4821.015       932.96779     -5753.9828      0              0              0              1072.2675      22206.474     -29032.724    
     34000   283.91751     -691.24731      15812.361      0.98567555    -4899.7204      881.00263     -5780.723       0              0              0              1058.118       22195.278     -29034.118    
     34500   308.07467      1417.9211      15496.784      1.0057479     -4847.8954      955.96288     -5803.8583      0              0              0              1185.2607      22043.88      -29032.999    
     35000   298.69201     -1043.1076      15747.01       0.9897661     -4826.6638      926.84826     -5753.5121      0              0              0              1013.4341      22268.566     -29035.512    
     35500   302.37348      1097.897       15386.827      1.0129351     -4903.7444      938.27194     -5842.0163      0              0              0              1171.2946      22025.034     -29038.345    
     36000   305.09324      62.029672      15521.32       1.004158      -4847.1763      946.71141     -5793.8877      0              0              0              1091.8352      22149.642     -29035.365    
     36500   295.6193      -38.473224      15549.531      1.0023361     -4833.2772      917.31358     -5750.5908      0              0              0              1069.2335      22213.565     -29033.389    
     37000   289.30817      645.88538      15304.484      1.018385      -4924.4121      897.72997     -5822.142       0              0              0              1138.2179      22073.112     -29033.471    
     37500   295.67665     -970.40312      15461.477      1.0080445     -4882.8091      917.49152     -5800.3006      0              0              0              1018.2834      22212.857     -29031.441    
     38000   297.33103     -327.98944      15745.654      0.98985138    -4836.5588      922.6251      -5759.1839      0              0              0              1054.5765      22222.989     -29036.749    
     38500   300.71041     -208.43646      15738.977      0.99027131    -4801.016       933.11138     -5734.1274      0              0              0              1068.4939      22231.152     -29033.774    
     39000   302.0333      -172.69568      15608.139      0.99857245    -4887.0227      937.21637     -5824.239       0              0              0              1084.4677      22126.373     -29035.079    
     39500   295.31992      260.66183      15666.107      0.99487751    -4868.9393      916.38458     -5785.3239      0              0              0              1110.6491      22136.962     -29032.935    
     40000   311.29344     -491.02845      15792.407      0.98692094    -4799.8608      965.95077     -5765.8116      0              0              0              1046.4889      22221.532     -29033.833    
     40500   300.19532     -943.61389      15776.369      0.98792421    -4906.5208      931.51307     -5838.0338      0              0              0              1050.414       22144.191     -29032.639    
     41000   297.13437      21.444158      15548.866      1.002379      -4901.6261      922.01487     -5823.641       0              0              0              1098.4012      22111.994     -29034.037    
     41500   289.59165     -108.47127      15589.94       0.99973812    -4814.6391      898.60962     -5713.2487      0              0              0              1059.997       22259.749     -29032.995    
     42000   303.55078      1006.8457      15455.982      1.0084029     -4870.1067      941.92512     -5812.0318      0              0              0              1149.8374      22073.357     -29035.226    
     42500   313.50259     -356.94112      15406.086      1.0116688     -4849.0987      972.80582     -5821.9045      0              0              0              1057.7266      22154.766     -29034.397    
     43000   289.19554     -267.84225      15589.16       0.99978816    -4852.2863      897.38049     -5749.6668      0              0              0              1058.7767      22227.929     -29036.373    
     43500   310.66426      122.86081      15398.115      1.0121926     -4812.5382      963.99842     -5776.5367      0              0              0              1075.6923      22180.022     -29032.251    
     44000   299.03467      853.97084      15598.747      0.99917367    -4938.9978      927.91154     -5866.9094      0              0              0              1184.1676      21983.247     -29034.324    
     44500   304.19844      921.52738      15630.744      0.99712828    -4845.5442      943.93483     -5789.479       0              0              0              1147.2505      22097.985     -29034.715    
     45000   302.27624     -565.35409      15972.789      0.97577554    -4836.9605      937.9702      -5774.9307      0              0              0              1078.272       22180.341     -29033.544    
     45500   301.07019      160.06775      15625.292      0.99747619    -4920.5283      934.22782     -5854.7561      0              0              0              1129.5421      22050.66      -29034.959    
     46000   308.13102     -98.569386      15560.183      1.00165       -4837.308       956.13772     -5793.4458      0              0              0              1074.4914      22161.971     -29029.908    
     46500   296.6186      -542.27229      15624.235      0.99754371    -4850.8051      920.41442     -5771.2195      0              0              0              1055.7292      22208.996     -29035.945    
     47000   303.80372      370.33299      15164.524      1.0277841     -4946.7385      942.71003     -5889.4485      0              0              0              1132.5799      22015.193     -29037.222    
     47500   315.39077     -252.43828      15455.087      1.0084613     -4817.393       978.6649      -5796.0579      0              0              0              1050.6197      22186.071     -29032.749    
     48000   299.85745     -841.21194      15660.086      0.99526002    -4862.763       930.46463     -5793.2276      0              0              0              1051.3653      22192.798     -29037.39     
     48500   294.73869      146.57967      15377.655      1.0135393     -4877.08        914.58102     -5791.661       0              0              0              1087.8788      22152.199     -29031.739    
     49000   290.20539     -285.28972      15376.147      1.0136387     -4932.9548      900.51406     -5833.4689      0              0              0              1070.3288      22128.635     -29032.433    
     49500   310.90911     -361.47712      15492.447      1.0060294     -4817.0514      964.7582      -5781.8096      0              0              0              1051.0874      22199.514     -29032.411    
     50000   291.74559     -620.53954      15638.533      0.99663164    -4846.8431      905.29337     -5752.1364      0              0              0              1036.3277      22246.372     -29034.836    
     50500   306.15959     -336.11313      15500.051      1.0055359     -4896.9776      950.02032     -5846.9979      0              0              0              1080.2335      22109.126     -29036.358    
Loop time of 304.843 on 1 procs for 50000 steps with 1563 atoms

Performance: 14.171 ns/day, 1.694 hours/ns, 164.019 timesteps/s, 256.361 katom-step/s
89.8% CPU use with 1 MPI tasks x 1 OpenMP threads

MPI task timing breakdown:
Section |  min time  |  avg time  |  max time  |%varavg| %total
---------------------------------------------------------------
Pair    | 32.165     | 32.165     | 32.165     |   0.0 | 10.55
Bond    | 0.08468    | 0.08468    | 0.08468    |   0.0 |  0.03
Kspace  | 81.742     | 81.742     | 81.742     |   0.0 | 26.81
Neigh   | 124.13     | 124.13     | 124.13     |   0.0 | 40.72
Comm    | 5.1771     | 5.1771     | 5.1771     |   0.0 |  1.70
Output  | 0.03376    | 0.03376    | 0.03376    |   0.0 |  0.01
Modify  | 60.135     | 60.135     | 60.135     |   0.0 | 19.73
Other   |            | 1.38       |            |       |  0.45

Nlocal:           1563 ave        1563 max        1563 min
Histogram: 1 0 0 0 0 0 0 0 0 0
Nghost:          10235 ave       10235 max       10235 min
Histogram: 1 0 0 0 0 0 0 0 0 0
Neighs:              0 ave           0 max           0 min
Histogram: 1 0 0 0 0 0 0 0 0 0
FullNghs:  1.13784e+06 ave 1.13784e+06 max 1.13784e+06 min
Histogram: 1 0 0 0 0 0 0 0 0 0

Total # of neighbors = 1137836
Ave neighs/atom = 727.98209
Ave special neighs/atom = 2
Neighbor list builds = 2174
Dangerous builds = 0

# ---------------------------------------------------------------- stage 3 ----
# Widom insertion of a whole rigid water, in the same NPT ensemble the membrane
# run uses. `full_energy` makes LAMMPS evaluate the complete system energy for
# each trial rather than a pairwise shortcut, which is required when kspace is
# active.
molecule        h2o h2o.mol
Read molecule template h2o:
# Rigid water for Widom test insertions.
  1 molecules
  0 fragments
  0 bodies
  3 atoms with max type 2
  2 bonds with max type 1
  1 angles with max type 1
  0 dihedrals with max type 0
  0 impropers with max type 0
fix             w all widom 100 400 0 31337 300.0 mol h2o full_energy
WARNING: Molecule attributes do not match system attributes
For more information see https://docs.lammps.org/err0026 (src/molecule.cpp:3634)
variable        muex equal f_w[1]
variable        boltz equal f_w[2]
variable        wvol equal f_w[3]
# Write every insertion-burst observation.  Blocking and uncertainty estimation
# are performed from this time series in aemwater.widom.
fix             muavg all ave/time 100 1 100 v_muex v_boltz v_wvol file bulk_mu.dat
run             50000
PPPM initialization ...
  using 12-bit tables for long-range coulomb
  G vector (1/distance) = 0.27643678
  grid = 15 15 15
  stencil order = 5
  estimated absolute RMS force accuracy = 0.016259371
  estimated relative force accuracy = 4.8964613e-05
  using double precision KISS FFT
  3d grid and FFT values/proc = 10648 3375
Generated 1 of 1 mixed pair_coeff terms from arithmetic mixing rule
0 atoms in group FixWidom:widom_exclusion_group:w
0 atoms in group FixWidom:rotation_gas_atoms:w
WARNING: Neighbor exclusions used with KSpace solver may give inconsistent Coulombic energies (src/neighbor.cpp:671)
Per MPI rank memory allocation (min/avg/max) = 14.93 | 14.93 | 14.93 Mbytes
   Step          Temp          Press          Volume        Density         TotEng         KinEng         PotEng         E_bond        E_angle        E_dihed         E_vdwl         E_coul         E_long    
     50500   306.15959     -590.8546       15500.051      1.0055359     -4896.9855      950.02032     -5847.0059      0              0              0              1080.2335      22133.433     -29060.672    
     51000   305.77907     -367.38713      15428.007      1.0102314     -4844.4942      948.83956     -5793.3338      0              0              0              1036.4038      22228.905     -29058.642    
     51500   313.77643      345.01298      15681.378      0.99390862    -4782.881       973.65555     -5756.5366      0              0              0              1097.0365      22204.932     -29058.505    
     52000   296.41074     -265.01242      15795.734      0.98671309    -4864.7633      919.76942     -5784.5327      0              0              0              1087.8458      22187.904     -29060.283    
     52500   291.8316      -267.08184      15717.65       0.99161497    -4893.1404      905.56024     -5798.7007      0              0              0              1084.7799      22173.635     -29057.115    
     53000   291.74802     -671.53857      15468.88       1.0075621     -4879.0954      905.30089     -5784.3962      0              0              0              1036.4922      22236.823     -29057.711    
     53500   312.17519      669.59505      15345.917      1.0156354     -4873.7043      968.68687     -5842.3912      0              0              0              1131.4196      22086.333     -29060.143    
     54000   292.78054     -45.055631      15578.335      1.0004829     -4877.0749      908.50484     -5785.5798      0              0              0              1079.3502      22195.108     -29060.038    
     54500   305.51469      109.68056      15383.609      1.013147      -4867.3105      948.01918     -5815.3297      0              0              0              1090.2366      22154.917     -29060.483    
     55000   304.27269     -486.38363      15574.322      1.0007407     -4896.7678      944.16524     -5840.933       0              0              0              1078.5921      22140.875     -29060.401    
     55500   290.87048      74.326903      15439.404      1.0094857     -4957.2842      902.57786     -5859.862       0              0              0              1116.367       22084.828     -29061.058    
     56000   307.87468      78.419278      15416.228      1.0110033     -4909.8036      955.34229     -5865.1458      0              0              0              1113.2357      22079.745     -29058.127    
     56500   305.21953     -542.1886       15837.341      0.98412083    -4888.5691      947.1033      -5835.6724      0              0              0              1088.9356      22135.671     -29060.279    
     57000   299.54433      997.65134      15507.096      1.005079      -4877.7833      929.49303     -5807.2763      0              0              0              1154.6103      22094.41      -29056.297    
     57500   312.03494      1408.3037      15307.874      1.0181595     -4852.6371      968.25169     -5820.8888      0              0              0              1178.2059      22055.363     -29054.458    
     58000   304.62077     -315.50815      15444.668      1.0091416     -4881.4724      945.24534     -5826.7178      0              0              0              1072.6507      22156.696     -29056.064    
     58500   306.12849     -688.50561      15804.448      0.98616903    -4885.954       949.92381     -5835.8779      0              0              0              1069.1259      22155.139     -29060.143    
     59000   305.05261      567.44842      15566.95       1.0012145     -4862.5748      946.58533     -5809.1601      0              0              0              1126.7174      22122.495     -29058.373    
     59500   296.03134     -982.94097      15669.215      0.99468013    -4941.728       918.59214     -5860.3201      0              0              0              1047.4324      22147.84      -29055.592    
     60000   297.76974     -660.42239      15732.26       0.99069408    -4888.3878      923.98642     -5812.3742      0              0              0              1056.9951      22186.477     -29055.847    
     60500   305.0169       92.170334      15644.481      0.99625277    -4843.9775      946.47454     -5790.452       0              0              0              1091.3052      22175.889     -29057.647    
     61000   299.34438      160.66693      15593.953      0.99948085    -4860.9783      928.87259     -5789.8509      0              0              0              1108.0783      22160.167     -29058.096    
     61500   292.98728     -926.60595      15793.442      0.98685627    -4905.183       909.14635     -5814.3293      0              0              0              1045.0548      22197.272     -29056.656    
     62000   304.21142     -636.56161      15837.561      0.98410713    -4826.4166      943.97512     -5770.3917      0              0              0              1046.503       22239.878     -29056.773    
     62500   293.55476      32.375602      15684.352      0.99372019    -4925.3703      910.90726     -5836.2776      0              0              0              1111.2274      22112.481     -29059.986    
     63000   298.6384      -335.46858      16039.738      0.97170274    -4918.9169      926.68189     -5845.5988      0              0              0              1119.4979      22092.123     -29057.22     
     63500   300.61499      47.306089      15830.814      0.98452661    -4868.5249      932.8153      -5801.3402      0              0              0              1120.9274      22133.469     -29055.737    
     64000   299.23911      1298.3607      15625.205      0.99748178    -4853.9697      928.54592     -5782.5156      0              0              0              1182.6594      22091.618     -29056.793    
     64500   305.45112     -68.215579      15931.749      0.97828915    -4927.7314      947.82192     -5875.5533      0              0              0              1143.5382      22039.014     -29058.106    
     65000   303.10101      44.345592      15832.389      0.98442865    -4920.3789      940.52949     -5860.9084      0              0              0              1136.3986      22059.702     -29057.009    
     65500   294.16942     -123.03154      16070.958      0.96981507    -4872.4483      912.81457     -5785.2629      0              0              0              1106.1546      22163.133     -29054.55     
     66000   292.17574     -211.13837      15772.857      0.98814422    -4908.4915      906.62812     -5815.1196      0              0              0              1106.0589      22136.093     -29057.272    
     66500   287.35266      785.90429      15699.224      0.99277882    -4897.8049      891.66198     -5789.4669      0              0              0              1163.21        22102.782     -29055.459    
     67000   295.23299     -793.58964      15783.677      0.98746684    -4906.2957      916.11482     -5822.4105      0              0              0              1059.2024      22175.601     -29057.214    
     67500   298.51347     -846.13809      15823.122      0.98500516    -4910.6614      926.29425     -5836.9556      0              0              0              1073.5187      22146.676     -29057.15     
     68000   305.05669      24.308922      15778.913      0.98776493    -4898.4442      946.59801     -5845.0422      0              0              0              1124.1436      22088.428     -29057.614    
     68500   303.27714     -1181.3515      16003.672      0.97389257    -4833.4855      941.07603     -5774.5616      0              0              0              1031.7397      22252.18      -29058.481    
     69000   297.27645      97.119251      15769.027      0.98838423    -4849.1225      922.45575     -5771.5782      0              0              0              1096.2154      22189.949     -29057.743    
     69500   302.83693      384.01178      15794.159      0.98681147    -4837.146       939.71005     -5776.8561      0              0              0              1122.2762      22159.414     -29058.546    
     70000   298.79574     -238.17274      15801.029      0.98638243    -4875.4668      927.17013     -5802.637       0              0              0              1094.6271      22159.974     -29057.238    
     70500   283.64461     -614.47176      15992.709      0.97456018    -4913.5437      880.15583     -5793.6995      0              0              0              1068.434       22191.13      -29053.264    
     71000   297.6371      -90.84414       15907.809      0.97976138    -4864.0874      923.57485     -5787.6623      0              0              0              1112.7013      22157.388     -29057.751    
     71500   288.3993       272.75874      15706.702      0.99230617    -4912.2448      894.90975     -5807.1546      0              0              0              1128.9175      22124.667     -29060.739    
     72000   301.1339      -533.58471      15913.281      0.97942448    -4839.9337      934.42551     -5774.3592      0              0              0              1072.5045      22210.356     -29057.22     
     72500   297.93492     -491.48458      15989.219      0.97477286    -4865.4451      924.49899     -5789.944       0              0              0              1080.5279      22187.693     -29058.165    
     73000   291.74575      350.89967      15858.919      0.98278183    -4889.0783      905.29386     -5794.3722      0              0              0              1136.6904      22128.037     -29059.1      
     73500   307.09904      1017.0581      15439.952      1.0094498     -4894.7322      952.93545     -5847.6677      0              0              0              1173.0217      22040.648     -29061.338    
     74000   315.06713     -620.41168      15786.94       0.9872627     -4814.5797      977.66065     -5792.2403      0              0              0              1057.4058      22210.374     -29060.02     
     74500   293.20601     -279.31078      15334.434      1.016396      -4847.9745      909.82508     -5757.7996      0              0              0              1033.2431      22262.245     -29053.287    
     75000   299.46597     -72.482428      15548.866      1.002379      -4836.4447      929.24989     -5765.6946      0              0              0              1068.996       22220.242     -29054.933    
     75500   302.61558      90.623081      15545.55       1.0025928     -4907.668       939.02317     -5846.6911      0              0              0              1114.9705      22096.007     -29057.668    
     76000   298.3866       258.52509      15660.116      0.99525807    -4900.7484      925.90057     -5826.649       0              0              0              1131.206       22099.615     -29057.47     
     76500   298.72061     -440.6028       15808.821      0.98589623    -4838.1218      926.937       -5765.0588      0              0              0              1073.2503      22220.726     -29059.036    
     77000   307.58976      988.17974      15563.126      1.0014606     -4805.7394      954.45818     -5760.1976      0              0              0              1141.858       22154.218     -29056.274    
     77500   286.79223     -523.46718      15496.319      1.005778      -4940.8631      889.92295     -5830.7861      0              0              0              1069.3909      22161.817     -29061.994    
     78000   308.65979      31.887349      15596.005      0.99934932    -4785.875       957.77851     -5743.6536      0              0              0              1073.7635      22240.338     -29057.755    
     78500   310.3504      -1070.8287      15643.231      0.99633234    -4863.6539      963.02453     -5826.6785      0              0              0              1037.2912      22196.087     -29060.057    
     79000   294.51731     -275.4087       15561.67       1.0015543     -4895.09        913.89408     -5808.9841      0              0              0              1075.763       22173.641     -29058.388    
     79500   308.01949      300.0426       15810.72       0.98577784    -4912.7744      955.79164     -5868.566       0              0              0              1162.6002      22029.819     -29060.985    
     80000   296.98165      43.990492      15542.759      1.0027729     -4916.9834      921.54097     -5838.5244      0              0              0              1122.2265      22097.616     -29058.367    
     80500   309.1595       391.51546      15460.735      1.0080929     -4878.9156      959.32911     -5838.2447      0              0              0              1124.9044      22093.464     -29056.613    
     81000   304.5516      -90.319367      15604.112      0.9988301     -4887.3402      945.03071     -5832.3709      0              0              0              1103.7432      22123.088     -29059.202    
     81500   309.58565     -281.54141      15532.576      1.0034303     -4815.211       960.65148     -5775.8625      0              0              0              1063.7749      22217.855     -29057.493    
     82000   305.02793      221.04064      15532.949      1.0034062     -4885.0412      946.50876     -5831.55        0              0              0              1101.4734      22128.14      -29061.163    
     82500   301.76458     -519.30553      15471.187      1.0074119     -4894.1211      936.38251     -5830.5036      0              0              0              1062.0319      22166.398     -29058.933    
     83000   297.87077     -1370.4691      15742.444      0.99005318    -4875.7546      924.29993     -5800.0545      0              0              0              1007.5168      22250.156     -29057.727    
     83500   310.54881     -136.32226      15920.05       0.97900804    -4845.8769      963.64017     -5809.5171      0              0              0              1107.3998      22141.055     -29057.971    
     84000   305.17098      1567.7089      15370.048      1.0140409     -4846.9869      946.95265     -5793.9396      0              0              0              1177.4059      22086.958     -29058.303    
     84500   304.29155     -81.357259      15400.95       1.0120062     -4875.4467      944.22377     -5819.6704      0              0              0              1079.6959      22160.486     -29059.852    
     85000   292.7833      -401.34567      15736.588      0.99042162    -4924.4347      908.51339     -5832.9481      0              0              0              1093.9241      22131.809     -29058.681    
     85500   306.87855      1511.004       15420.836      1.0107012     -4802.9632      952.25127     -5755.2145      0              0              0              1162.2699      22136.152     -29053.636    
     86000   297.19024     -393.66413      15618.326      0.99792112    -4888.1139      922.18822     -5810.3021      0              0              0              1074.6197      22172.877     -29057.799    
     86500   295.03529     -356.77249      15412.833      1.011226      -4921.332       915.50136     -5836.8334      0              0              0              1074.3912      22146.584     -29057.808    
     87000   318.47667     -370.47602      15548.852      1.0023799     -4823.0629      988.24051     -5811.3034      0              0              0              1064.5149      22180.12      -29055.939    
     87500   293.83387      628.86691      15361.439      1.0146092     -4950.5944      911.77332     -5862.3677      0              0              0              1153.9901      22040.231     -29056.588    
     88000   299.09688      203.91362      15561.739      1.0015498     -4917.8137      928.10459     -5845.9183      0              0              0              1120.3149      22090.881     -29057.115    
     88500   308.78487     -821.61572      15912.952      0.97944475    -4865.1697      958.16663     -5823.3363      0              0              0              1065.9625      22167.213     -29056.512    
     89000   305.2388      -149.14577      15649.354      0.99594256    -4863.9845      947.1631      -5811.1476      0              0              0              1088.1651      22158.801     -29058.113    
     89500   293.16589     -603.38029      15702.262      0.99258672    -4919.3857      909.70056     -5829.0862      0              0              0              1066.4927      22165.672     -29061.25     
     90000   300.16879      101.777        15594.884      0.9994212     -4887.0515      931.43075     -5818.4823      0              0              0              1108.0436      22132.558     -29059.084    
     90500   310.20716     -766.20603      15660.851      0.99521136    -4808.9066      962.58003     -5771.4866      0              0              0              1020.2286      22263.952     -29055.667    
     91000   291.1981       771.76833      15260.41       1.0213262     -4884.4072      903.59449     -5788.0017      0              0              0              1122.0081      22146.976     -29056.986    
     91500   298.93125     -80.620012      15687.82       0.99350054    -4808.5871      927.59063     -5736.1777      0              0              0              1064.7043      22256.737     -29057.619    
     92000   295.94336     -332.15842      15689.939      0.99336634    -4861.997       918.31912     -5780.3161      0              0              0              1061.0799      22215.609     -29057.005    
     92500   303.28699     -758.03818      15647.498      0.99606069    -4856.5959      941.10657     -5797.7025      0              0              0              1035.307       22227.587     -29060.597    
     93000   290.69774     -633.81552      15686.337      0.99359442    -4897.4985      902.04184     -5799.5403      0              0              0              1054.6299      22200.362     -29054.532    
     93500   287.85625     -629.97311      15759.097      0.989007      -4916.7854      893.22465     -5810.0101      0              0              0              1068.5416      22181.161     -29059.712    
     94000   300.68175     -718.78651      15728.091      0.99095668    -4863.8205      933.02245     -5796.843       0              0              0              1049.9857      22214.591     -29061.42     
     94500   296.02466      3.948303       15578.206      1.0004911     -4869.8309      918.5714      -5788.4023      0              0              0              1095.8643      22171.959     -29056.226    
     95000   298.91559      499.847        15543.118      1.0027497     -4883.8206      927.54204     -5811.3626      0              0              0              1126.9655      22121.116     -29059.445    
     95500   301.99447      75.558581      15666.535      0.99485031    -4838.7299      937.09586     -5775.8258      0              0              0              1099.7515      22181.668     -29057.245    
     96000   297.10079      753.51097      15371.431      1.0139496     -4886.336       921.91066     -5808.2467      0              0              0              1135.8305      22112.882     -29056.96     
     96500   296.77181     -23.693313      15764.029      0.9886976     -4850.2691      920.88983     -5771.1589      0              0              0              1100.6015      22184.517     -29056.277    
     97000   297.93407     -722.55614      15618.494      0.9979104     -4880.1427      924.49633     -5804.639       0              0              0              1043.8453      22209.085     -29057.569    
     97500   300.45235     -520.85421      15670.356      0.9946077     -4835.9908      932.31064     -5768.3014      0              0              0              1051.861       22236.465     -29056.627    
     98000   299.01132     -222.47694      15502.518      1.0053758     -4903.94        927.8391      -5831.7791      0              0              0              1085.9131      22140.843     -29058.535    
     98500   311.97469     -176.64703      15336.933      1.0162304     -4869.8164      968.06473     -5837.8812      0              0              0              1074.6599      22142.345     -29054.886    
     99000   298.06026     -256.3435       15563.243      1.001453      -4827.4868      924.88793     -5752.3748      0              0              0              1044.5816      22259.523     -29056.48     
     99500   306.2411       158.50057      15592.216      0.99959216    -4838.3377      950.27327     -5788.6109      0              0              0              1106.7615      22164.727     -29060.099    
    100000   301.95799      164.78515      15435.161      1.0097632     -4799.6579      936.98267     -5736.6406      0              0              0              1069.2535      22252.153     -29058.047    
    100500   300.0326      -977.22786      15599.619      0.99911781    -4883.6602      931.00815     -5814.6683      0              0              0              1033.945       22205.888     -29054.501    
Loop time of 22996.9 on 1 procs for 50000 steps with 1563 atoms

Performance: 0.188 ns/day, 127.761 hours/ns, 2.174 timesteps/s, 3.398 katom-step/s
90.6% CPU use with 1 MPI tasks x 1 OpenMP threads

MPI task timing breakdown:
Section |  min time  |  avg time  |  max time  |%varavg| %total
---------------------------------------------------------------
Pair    | 132.93     | 132.93     | 132.93     |   0.0 |  0.58
Bond    | 0.092028   | 0.092028   | 0.092028   |   0.0 |  0.00
Kspace  | 80.317     | 80.317     | 80.317     |   0.0 |  0.35
Neigh   | 251.01     | 251.01     | 251.01     |   0.0 |  1.09
Comm    | 4.7621     | 4.7621     | 4.7621     |   0.0 |  0.02
Output  | 0.064911   | 0.064911   | 0.064911   |   0.0 |  0.00
Modify  | 57.701     | 57.701     | 57.701     |   0.0 |  0.25
Other   |            | 2.247e+04  |            |       | 97.71

Nlocal:           1563 ave        1563 max        1563 min
Histogram: 1 0 0 0 0 0 0 0 0 0
Nghost:          10207 ave       10207 max       10207 min
Histogram: 1 0 0 0 0 0 0 0 0 0
Neighs:              0 ave           0 max           0 min
Histogram: 1 0 0 0 0 0 0 0 0 0
FullNghs:  1.13278e+06 ave 1.13278e+06 max 1.13278e+06 min
Histogram: 1 0 0 0 0 0 0 0 0 0

Total # of neighbors = 1132780
Ave neighs/atom = 724.74728
Ave special neighs/atom = 2
Neighbor list builds = 202948
Dangerous builds = 0

write_data      bulk_final.data
System init for write_data ...
PPPM initialization ...
  using 12-bit tables for long-range coulomb
  G vector (1/distance) = 0.27626269
  grid = 15 15 15
  stencil order = 5
  estimated absolute RMS force accuracy = 0.01636424
  estimated relative force accuracy = 4.9280423e-05
  using double precision KISS FFT
  3d grid and FFT values/proc = 10648 3375
Generated 1 of 1 mixed pair_coeff terms from arithmetic mixing rule
0 atoms in group FixWidom:rotation_gas_atoms:w
WARNING: Neighbor exclusions used with KSpace solver may give inconsistent Coulombic energies (src/neighbor.cpp:671)
Total wall time: 6:28:25
