LAMMPS (22 Jul 2025 - Update 5)
OMP_NUM_THREADS environment is not set. Defaulting to 1 thread.
  using 1 OpenMP thread(s) per MPI task
# Bulk spce reference
# generated by aemwater -- do not edit; edit the template instead

units           real
atom_style      full
boundary        p p p

pair_style      lj/cut/coul/long 10.0 10.0
# GAFF2 is a Lorentz-Berthelot force field. The LAMMPS default for lj/cut is
# GEOMETRIC mixing, which silently changes every cross interaction.
pair_modify     mix arithmetic tail yes
kspace_style    pppm 0.0001
bond_style      harmonic
angle_style     harmonic
dihedral_style  charmm
improper_style  cvff
# Amber 1-4 scaling: LJ/2 and Coulomb/1.2. Applied here, so every CHARMM
# dihedral weight in the data file is 0.
special_bonds   lj 0.0 0.0 0.5 coul 0.0 0.0 0.8333333333

read_data       bulk.data
Reading data file ...
  orthogonal box = (0 0 0) to (25.004081 25.004081 25.004081)
  1 by 1 by 1 MPI processor grid
  reading atoms ...
  1563 atoms
  scanning bonds ...
  2 = max bonds/atom
  scanning angles ...
  1 = max angles/atom
  orthogonal box = (0 0 0) to (25.004081 25.004081 25.004081)
  1 by 1 by 1 MPI processor grid
  reading bonds ...
  1042 bonds
  reading angles ...
  521 angles
Finding 1-2 1-3 1-4 neighbors ...
  special bond factors lj:    0        0        0.5     
  special bond factors coul:  0        0        0.8333333333
     2 = max # of 1-2 neighbors
     1 = max # of 1-3 neighbors
     1 = max # of 1-4 neighbors
     2 = max # of special neighbors
  special bonds CPU = 0.001 seconds
  read_data CPU = 0.011 seconds
neighbor        2.0 bin
neigh_modify    delay 0 every 1 check yes
# The ghost-atom cutoff defaults to the pair cutoff + skin. Bonded partners must
# also be within it, and a stretched bond in a freshly packed cell can exceed it,
# which LAMMPS reports as a communication-cutoff warning before losing atoms.
comm_modify     cutoff 12.0

# Molecule IDs are assigned by the data writer in packing order: polymer chains
# first, then counterions, then any water added later. `<>` is LAMMPS's inclusive
# range operator.
group           polymer molecule <> 1 0
0 atoms in group polymer
group           water type 1 2
1563 atoms in group water

thermo          500
thermo_style    custom step temp press vol density etotal ke pe ebond eangle edihed evdwl ecoul elong
thermo_modify   flush yes

# ================================================================ BULK WATER ==
# Reference reservoir. The protocol must match the membrane Widom run in every
# detail that shifts mu_ex -- cutoff, kspace accuracy, tail correction, water
# model, insertion count -- because the saturation criterion resolves a
# difference much smaller than any of those systematic shifts.

# ---------------------------------------------------------------- stage 1 ----
# The lattice is overlap-free by construction, so no soft push-off is needed;
# a short minimisation removes the jitter-induced strain.
min_style       cg
minimize        1e-06 1e-06 500 5000
PPPM initialization ...
  using 12-bit tables for long-range coulomb
  G vector (1/distance) = 0.27620514
  grid = 15 15 15
  stencil order = 5
  estimated absolute RMS force accuracy = 0.016399033
  estimated relative force accuracy = 4.9385199e-05
  using double precision FFTW3
  3d grid and FFT values/proc = 10648 3375
Generated 1 of 1 mixed pair_coeff terms from arithmetic mixing rule
Neighbor list info ...
  update: every = 1 steps, delay = 0 steps, check = yes
  max neighbors/atom: 2000, page size: 100000
  master list distance cutoff = 12
  ghost atom cutoff = 12
  binsize = 6, bins = 5 5 5
  1 neighbor lists, perpetual/occasional/extra = 1 0 0
  (1) pair lj/cut/coul/long, perpetual
      attributes: half, newton on
      pair build: half/bin/newton
      stencil: half/bin/3d
      bin: standard
Per MPI rank memory allocation (min/avg/max) = 11.71 | 11.71 | 11.71 Mbytes
   Step          Temp          Press          Volume        Density         TotEng         KinEng         PotEng         E_bond        E_angle        E_dihed         E_vdwl         E_coul         E_long    
         0   0              60081.424      15632.653      0.99700653     2264.7571      0              2264.7571      9.4940396e-08  1.9793712e-08  0              2030.2444      28930.927     -28696.414    
       500   0              1458.8032      15632.653      0.99700653    -7192.2353      0             -7192.2353      306.81692      100.28064      0              1875.0731      19567.572     -29041.978    
Loop time of 7.97798 on 1 procs for 500 steps with 1563 atoms

96.4% CPU use with 1 MPI tasks x 1 OpenMP threads

Minimization stats:
  Stopping criterion = max iterations
  Energy initial, next-to-last, final = 
      2264.75714669244   -7192.0918942622  -7192.23530014411
  Force two-norm initial, final = 987.23272 17.571096
  Force max component initial, final = 60.339611 2.7963789
  Final line search alpha, max atom move = 0.0094296841 0.02636897
  Iterations, force evaluations = 500 973

MPI task timing breakdown:
Section |  min time  |  avg time  |  max time  |%varavg| %total
---------------------------------------------------------------
Pair    | 7.2195     | 7.2195     | 7.2195     |   0.0 | 90.49
Bond    | 0.024468   | 0.024468   | 0.024468   |   0.0 |  0.31
Kspace  | 0.51796    | 0.51796    | 0.51796    |   0.0 |  6.49
Neigh   | 0.15189    | 0.15189    | 0.15189    |   0.0 |  1.90
Comm    | 0.031011   | 0.031011   | 0.031011   |   0.0 |  0.39
Output  | 7.6458e-05 | 7.6458e-05 | 7.6458e-05 |   0.0 |  0.00
Modify  | 0          | 0          | 0          |   0.0 |  0.00
Other   |            | 0.03303    |            |       |  0.41

Nlocal:           1563 ave        1563 max        1563 min
Histogram: 1 0 0 0 0 0 0 0 0 0
Nghost:           9825 ave        9825 max        9825 min
Histogram: 1 0 0 0 0 0 0 0 0 0
Neighs:         582180 ave      582180 max      582180 min
Histogram: 1 0 0 0 0 0 0 0 0 0

Total # of neighbors = 582180
Ave neighs/atom = 372.47601
Ave special neighs/atom = 2
Neighbor list builds = 15
Dangerous builds = 0

# ---------------------------------------------------------------- stage 2 ----
# Rigid water. SPC/E and TIP3P are *defined* with fixed geometry: integrating
# their internal degrees of freedom gives a different liquid with a different
# chemical potential.
fix             rigid_water all shake 0.0001 20 0 b 1 a 1
Finding SHAKE clusters ...
       0 = # of size 2 clusters
       0 = # of size 3 clusters
       0 = # of size 4 clusters
     521 = # of frozen angles
  find clusters CPU = 0.000 seconds
timestep        1.0
velocity        all create 300.0 31337 mom yes rot yes dist gaussian

# NPT to the target state point. The lattice melts within a few ps; the run is
# long enough that the density is measured on liquid, not on a melting solid.
fix             npt_bulk all npt temp 300.0 300.0 100.0 iso 1.0 1.0 1000.0
# Variables must exist before the fix that references them: LAMMPS resolves
# v_ names at fix-definition time, not at run time.
variable        dens equal density
variable        vol equal vol
fix             rho all ave/time 500 10 5000 v_dens v_vol file bulk_density.dat
run             50000
PPPM initialization ...
  using 12-bit tables for long-range coulomb
  G vector (1/distance) = 0.27620514
  grid = 15 15 15
  stencil order = 5
  estimated absolute RMS force accuracy = 0.016399033
  estimated relative force accuracy = 4.9385199e-05
  using double precision FFTW3
  3d grid and FFT values/proc = 10648 3375
Generated 1 of 1 mixed pair_coeff terms from arithmetic mixing rule
Per MPI rank memory allocation (min/avg/max) = 11.47 | 11.47 | 11.47 Mbytes
   Step          Temp          Press          Volume        Density         TotEng         KinEng         PotEng         E_bond        E_angle        E_dihed         E_vdwl         E_coul         E_long    
       500   300            312.11829      15632.653      0.99700653    -6668.4259      930.90698     -7599.3329      0              0              0              1875.0731      19567.572     -29041.978    
      1000   218.5763      -196.55252      16688.759      0.93391351    -5441.2688      678.24733     -6119.5162      0              0              0              1208.799       21706.755     -29035.07     
      1500   316.05554     -71.455177      16648.61       0.93616567    -4612.3333      980.72771     -5593.061       0              0              0              1021.1102      22411.606     -29025.777    
      2000   304.08946     -150.45313      15941.124      0.97771383    -4748.5288      943.59668     -5692.1255      0              0              0              1037.189       22305.635     -29034.949    
      2500   300.63096      561.72654      15614.706      0.99815247    -4774.8746      932.86487     -5707.7394      0              0              0              1083.7241      22243.069     -29034.533    
      3000   285.67582      480.1093       15537.264      1.0031275     -4929.5503      886.45873     -5816.0091      0              0              0              1130.5761      22088.513     -29035.098    
      3500   292.30526     -223.31531      16059.869      0.97048468    -4878.0266      907.03003     -5785.0566      0              0              0              1100.1219      22145.312     -29030.491    
      4000   297.28476      173.40808      16088.76       0.96874197    -4920.121       922.48154     -5842.6026      0              0              0              1172.5254      22019.545     -29034.673    
      4500   299.13922     -338.21264      16026.379      0.97251271    -4869.5096      928.23594     -5797.7456      0              0              0              1089.2739      22144.804     -29031.823    
      5000   310.50988      469.81222      15640.405      0.99651238    -4894.4862      963.51938     -5858.0056      0              0              0              1149.0772      22029.34      -29036.423    
      5500   295.84657     -101.69348      15613.827      0.99820863    -4854.5978      918.0188      -5772.6166      0              0              0              1084.9511      22178.756     -29036.323    
      6000   311.58227     -631.50683      15845.401      0.98362026    -4824.0411      966.84702     -5790.8881      0              0              0              1067.2957      22177.025     -29035.209    
      6500   295.21326      89.119454      15457.272      1.0083187     -4893.1535      916.05363     -5809.2071      0              0              0              1093.56        22128.682     -29031.45     
      7000   302.90001     -977.77372      15579.261      1.0004234     -4850.9498      939.90579     -5790.8556      0              0              0              1026.708       22219.658     -29037.221    
      7500   310.87576      881.10519      15571.729      1.0009073     -4854.5071      964.65471     -5819.1618      0              0              0              1155.7689      22061.905     -29036.836    
      8000   288.86109      1072.106       15631.017      0.99711089    -4877.9052      896.34268     -5774.2479      0              0              0              1157.1213      22096.728     -29028.097    
      8500   296.42922     -295.23474      15739.469      0.99024033    -4897.3947      919.82676     -5817.2214      0              0              0              1089.8526      22126.767     -29033.841    
      9000   297.54515     -525.82951      15785.158      0.98737419    -4843.986       923.28952     -5767.2755      0              0              0              1054.8966      22212.255     -29034.427    
      9500   299.05669      373.77779      15434.745      1.0097904     -4957.632       927.97985     -5885.6118      0              0              0              1144.2926      22003.546     -29033.451    
     10000   300.55167     -60.786213      15522.26       1.0040971     -4860.0712      932.61883     -5792.69        0              0              0              1076.3087      22162.58      -29031.578    
     10500   313.63309      433.31197      15536.745      1.003161      -4835.751       973.21079     -5808.9618      0              0              0              1114.8472      22108.392     -29032.201    
     11000   313.04102     -248.22913      15749.216      0.98962751    -4815.1215      971.37356     -5786.495       0              0              0              1073.9575      22172.41      -29032.862    
     11500   292.61269     -216.62288      15548          1.0024348     -4957.7021      907.98397     -5865.6861      0              0              0              1096.173       22070.675     -29032.534    
     12000   299.19882     -1007.8859      15708.705      0.99217966    -4862.8677      928.4209      -5791.2886      0              0              0              1024.3217      22213.408     -29029.018    
     12500   296.29069      1481.4883      15374.56       1.0137433     -4869.0623      919.3969      -5788.4592      0              0              0              1170.9909      22077.019     -29036.469    
     13000   304.37885     -418.78009      15795.576      0.98672293    -4800.587       944.49467     -5745.0817      0              0              0              1050.4589      22236.002     -29031.543    
     13500   292.81622      444.02981      15838.496      0.98404904    -4849.4066      908.61553     -5758.0221      0              0              0              1114.7729      22160.007     -29032.802    
     14000   310.45077     -314.93375      15530.504      1.0035642     -4878.3799      963.33595     -5841.7159      0              0              0              1074.0659      22117.479     -29033.261    
     14500   300.77155     -495.30551      15543.199      1.0027445     -4881.0343      933.3011      -5814.3354      0              0              0              1061.0382      22157.59      -29032.964    
     15000   287.22254     -237.65358      15440.877      1.0093894     -4988.6807      891.25823     -5879.939       0              0              0              1098.0489      22057.657     -29035.645    
     15500   314.04802     -135.70717      15648.438      0.99600081    -4869.8795      974.49831     -5844.3778      0              0              0              1098.807       22089.617     -29032.801    
     16000   297.42772     -954.05652      15929.103      0.97845167    -4906.729       922.92514     -5829.6541      0              0              0              1074.5508      22129.763     -29033.968    
     16500   297.47265      565.19955      15395.27       1.0123796     -4993.0237      923.06456     -5916.0883      0              0              0              1173.5939      21946.766     -29036.449    
     17000   317.49142      990.12829      15419.148      1.0108118     -4861.3626      985.18327     -5846.5459      0              0              0              1169.7599      22018.516     -29034.822    
     17500   309.67294     -628.56424      15692.818      0.99318411    -4856.3091      960.92235     -5817.2314      0              0              0              1059.607       22156.381     -29033.219    
     18000   293.01821      544.66638      15483.381      1.0066185     -4946.7083      909.24232     -5855.9507      0              0              0              1156.4172      22022.951     -29035.318    
     18500   310.85576     -1259.8671      15664.89       0.9949548     -4835.2852      964.59266     -5799.8778      0              0              0              1011.0605      22219.748     -29030.686    
