LAMMPS (22 Jul 2025 - Update 5)
OMP_NUM_THREADS environment is not set. Defaulting to 1 thread.
  using 1 OpenMP thread(s) per MPI task
# iteration 4
# generated by aemwater -- do not edit; edit the template instead

units           real
atom_style      full
boundary        p p p

pair_style      lj/cut/coul/long 10.0 10.0
# GAFF2 is a Lorentz-Berthelot force field. The LAMMPS default for lj/cut is
# GEOMETRIC mixing, which silently changes every cross interaction.
pair_modify     mix arithmetic tail yes
kspace_style    pppm 0.0001
bond_style      harmonic
angle_style     harmonic
dihedral_style  charmm
improper_style  cvff
# Amber 1-4 scaling: LJ/2 and Coulomb/1.2. Applied here, so every CHARMM
# dihedral weight in the data file is 0.
special_bonds   lj 0.0 0.0 0.5 coul 0.0 0.0 0.8333333333

read_data       start.data
Reading data file ...
  orthogonal box = (0 0 0) to (38.789354 38.789354 38.789354)
  1 by 1 by 1 MPI processor grid
  reading atoms ...
  5484 atoms
  scanning bonds ...
  4 = max bonds/atom
  scanning angles ...
  6 = max angles/atom
  scanning dihedrals ...
  33 = max dihedrals/atom
  scanning impropers ...
  2 = max impropers/atom
  orthogonal box = (0 0 0) to (38.789354 38.789354 38.789354)
  1 by 1 by 1 MPI processor grid
  reading bonds ...
  5376 bonds
  reading angles ...
  9796 angles
  reading dihedrals ...
  15264 dihedrals
  reading impropers ...
  960 impropers
Finding 1-2 1-3 1-4 neighbors ...
  special bond factors lj:    0        0        0.5     
  special bond factors coul:  0        0        0.8333333333
     4 = max # of 1-2 neighbors
    12 = max # of 1-3 neighbors
    18 = max # of 1-4 neighbors
    22 = max # of special neighbors
  special bonds CPU = 0.002 seconds
  read_data CPU = 0.071 seconds
neighbor        2.0 bin
neigh_modify    delay 0 every 1 check yes
# The ghost-atom cutoff defaults to the pair cutoff + skin. Bonded partners must
# also be within it, and a stretched bond in a freshly packed cell can exceed it,
# which LAMMPS reports as a communication-cutoff warning before losing atoms.
comm_modify     cutoff 12.0

# Molecule IDs are assigned by the data writer in packing order: polymer chains
# first, then counterions, then any water added later. `<>` is LAMMPS's inclusive
# range operator.
group           polymer molecule <> 1 8
5024 atoms in group polymer
group           ions molecule <> 9 168
160 atoms in group ions
group           water type 8 9
300 atoms in group water

thermo          500
thermo_style    custom step temp press vol density etotal ke pe ebond eangle edihed evdwl ecoul elong
thermo_modify   flush yes

fix             shake_all all shake 0.0001 20 0 b 8 a 14
Finding SHAKE clusters ...
       0 = # of size 2 clusters
       0 = # of size 3 clusters
       0 = # of size 4 clusters
     100 = # of frozen angles
  find clusters CPU = 0.001 seconds

timestep        1.0
dump            traj all custom 1000 iter.lammpstrj id mol type q x y z
dump_modify     traj sort id

# ---------------------------------------------------------------- relax -------
# The newly inserted waters were placed in geometric voids, which is not the same
# as an energetically relaxed position. A short NVE/limit run absorbs the initial
# strain without letting any atom move far enough to cross a chain.
fix             nve_settle all nve/limit 0.05
fix             temp_settle all temp/rescale 10 300.0 300.0 10.0 1.0
run             5000
PPPM initialization ...
  using 12-bit tables for long-range coulomb
  G vector (1/distance) = 0.23819272
  grid = 15 15 15
  stencil order = 5
  estimated absolute RMS force accuracy = 0.021970266
  estimated relative force accuracy = 6.6162802e-05
  using double precision FFTW3
  3d grid and FFT values/proc = 8000 3375
Generated 36 of 36 mixed pair_coeff terms from arithmetic mixing rule
WARNING: Should not use fix nve/limit with fix shake or fix rattle (src/fix_nve_limit.cpp:76)
Neighbor list info ...
  update: every = 1 steps, delay = 0 steps, check = yes
  max neighbors/atom: 2000, page size: 100000
  master list distance cutoff = 12
  ghost atom cutoff = 12
  binsize = 6, bins = 7 7 7
  1 neighbor lists, perpetual/occasional/extra = 1 0 0
  (1) pair lj/cut/coul/long, perpetual
      attributes: half, newton on
      pair build: half/bin/newton
      stencil: half/bin/3d
      bin: standard
Per MPI rank memory allocation (min/avg/max) = 51.7 | 51.7 | 51.7 Mbytes
   Step          Temp          Press          Volume        Density         TotEng         KinEng         PotEng         E_bond        E_angle        E_dihed         E_vdwl         E_coul         E_long    
         0   0             -4501.165       58363.004      1.0219472     -2416.8442      0             -2416.8442      1750.5528      2405.3747      1481.9625     -1105.1203      9969.0765     -16954.7      
       500   297.71261     -891.39793      58363.004      1.0219472      2100.3207      4777.0074     -2676.6868      1590.2843      2391.7681      1541.6131     -1130.7089      9857.3945     -16966.848    
      1000   297.9321       577.98361      58363.004      1.0219472      1981.8934      4780.5292     -2798.6358      1535.0911      2300.0717      1533.9769     -1048.9081      9814.4403     -16970.176    
      1500   291.66248     -778.68969      58363.004      1.0219472      1994.187       4679.9288     -2685.7417      1583.3301      2320.8938      1555.9201     -1042.5864      9828.2972     -16965.664    
      2000   292.91935     -115.98083      58363.004      1.0219472      1962.2305      4700.0961     -2737.8656      1487.1738      2303.2574      1571.7163     -1038.2031      9857.5578     -16956.203    
      2500   291.32674      1106.39        58363.004      1.0219472      1959.9297      4674.5417     -2714.612       1517.8311      2198.5236      1576.0761     -982.43032      9899.078      -16961.642    
      3000   292.49363      1280.3656      58363.004      1.0219472      2043.3721      4693.2652     -2649.8931      1457.243       2292.0407      1613.3159     -903.73201      9815.8989     -16962.647    
      3500   292.23492      1327.5161      58363.004      1.0219472      1997.8507      4689.114      -2691.2633      1485.8394      2195.1814      1588.3885     -885.3922       9843.0189     -16955.757    
      4000   293.29315      1805.6857      58363.004      1.0219472      1942.5737      4706.094      -2763.5203      1439.7526      2188.4244      1588.9379     -964.99206      9896.8421     -16947.906    
      4500   292.81716      2224.9696      58363.004      1.0219472      1896.3962      4698.4565     -2802.0603      1403.3008      2124.8266      1576.4935     -891.93427      9913.1798     -16962.04     
      5000   300            2773.4392      58363.004      1.0219472      2018.0268      4813.7101     -2795.6833      1395.8591      2132.4758      1593.1449     -892.25859      9908.7987     -16968.739    
Loop time of 101.353 on 1 procs for 5000 steps with 5484 atoms

Performance: 4.262 ns/day, 5.631 hours/ns, 49.333 timesteps/s, 270.540 katom-step/s
99.8% CPU use with 1 MPI tasks x 1 OpenMP threads

MPI task timing breakdown:
Section |  min time  |  avg time  |  max time  |%varavg| %total
---------------------------------------------------------------
Pair    | 80.928     | 80.928     | 80.928     |   0.0 | 79.85
Bond    | 3.6945     | 3.6945     | 3.6945     |   0.0 |  3.65
Kspace  | 7.1024     | 7.1024     | 7.1024     |   0.0 |  7.01
Neigh   | 8.8443     | 8.8443     | 8.8443     |   0.0 |  8.73
Comm    | 0.28055    | 0.28055    | 0.28055    |   0.0 |  0.28
Output  | 0.026618   | 0.026618   | 0.026618   |   0.0 |  0.03
Modify  | 0.41999    | 0.41999    | 0.41999    |   0.0 |  0.41
Other   |            | 0.05651    |            |       |  0.06

Nlocal:           5484 ave        5484 max        5484 min
Histogram: 1 0 0 0 0 0 0 0 0 0
Nghost:          17318 ave       17318 max       17318 min
Histogram: 1 0 0 0 0 0 0 0 0 0
Neighs:     1.8948e+06 ave  1.8948e+06 max  1.8948e+06 min
Histogram: 1 0 0 0 0 0 0 0 0 0

Total # of neighbors = 1894796
Ave neighs/atom = 345.51349
Ave special neighs/atom = 10.636032
Neighbor list builds = 206
Dangerous builds = 0
unfix           nve_settle
unfix           temp_settle

min_style       cg
minimize        1e-06 1e-06 20000 200000
PPPM initialization ...
  using 12-bit tables for long-range coulomb
  G vector (1/distance) = 0.23819272
  grid = 15 15 15
  stencil order = 5
  estimated absolute RMS force accuracy = 0.021970266
  estimated relative force accuracy = 6.6162802e-05
  using double precision FFTW3
  3d grid and FFT values/proc = 8000 3375
Generated 36 of 36 mixed pair_coeff terms from arithmetic mixing rule
WARNING: Using fix shake with minimization.
  Substituting constraints with harmonic restraint forces using kbond=1987206.7 (src/RIGID/fix_shake.cpp:385)
Per MPI rank memory allocation (min/avg/max) = 56.1 | 56.1 | 56.1 Mbytes
   Step          Temp          Press          Volume        Density         TotEng         KinEng         PotEng         E_bond        E_angle        E_dihed         E_vdwl         E_coul         E_long    
      5000   300            4412.6048      58363.004      1.0219472      2019.9989      4813.7101     -2793.7112      1395.8591      2132.4758      1593.1449     -892.25859      9908.7987     -16968.739    
      5040   300            1165.0901      58363.004      1.0219472      55.406368      4813.7101     -4758.3038      462.4102       1413.2117      1437.5338     -1015.8947      9897.4499     -16971.165    
Loop time of 4.20726 on 1 procs for 40 steps with 5484 atoms

99.8% CPU use with 1 MPI tasks x 1 OpenMP threads

Minimization stats:
  Stopping criterion = energy tolerance
  Energy initial, next-to-last, final = 
     -2793.71121866542  -4758.30376963941  -4758.30378130609
  Force two-norm initial, final = 6444.4581 6459.7069
  Force max component initial, final = 3816.7262 2727.7786
  Final line search alpha, max atom move = 1.8223087e-05 0.049708548
  Iterations, force evaluations = 40 166

MPI task timing breakdown:
Section |  min time  |  avg time  |  max time  |%varavg| %total
---------------------------------------------------------------
Pair    | 3.813      | 3.813      | 3.813      |   0.0 | 90.63
Bond    | 0.12917    | 0.12917    | 0.12917    |   0.0 |  3.07
Kspace  | 0.23806    | 0.23806    | 0.23806    |   0.0 |  5.66
Neigh   | 0          | 0          | 0          |   0.0 |  0.00
Comm    | 0.0080455  | 0.0080455  | 0.0080455  |   0.0 |  0.19
Output  | 0          | 0          | 0          |   0.0 |  0.00
Modify  | 0.0060168  | 0.0060168  | 0.0060168  |   0.0 |  0.14
Other   |            | 0.01298    |            |       |  0.31

Nlocal:           5484 ave        5484 max        5484 min
Histogram: 1 0 0 0 0 0 0 0 0 0
Nghost:          17303 ave       17303 max       17303 min
Histogram: 1 0 0 0 0 0 0 0 0 0
Neighs:    1.89477e+06 ave 1.89477e+06 max 1.89477e+06 min
Histogram: 1 0 0 0 0 0 0 0 0 0

Total # of neighbors = 1894768
Ave neighs/atom = 345.50839
Ave special neighs/atom = 10.636032
Neighbor list builds = 0
Dangerous builds = 0

# ---------------------------------------------------------------- NPT ---------
# Swelling is the point: the box must be free to expand as water goes in, so the
# uptake is measured at constant pressure, not constant volume.
fix             npt_swell all npt temp 300.0 300.0 100.0 iso 1.0 1.0 1000.0
run             25000
PPPM initialization ...
  using 12-bit tables for long-range coulomb
  G vector (1/distance) = 0.23819272
  grid = 15 15 15
  stencil order = 5
  estimated absolute RMS force accuracy = 0.021970266
  estimated relative force accuracy = 6.6162802e-05
  using double precision FFTW3
  3d grid and FFT values/proc = 8000 3375
Generated 36 of 36 mixed pair_coeff terms from arithmetic mixing rule
Per MPI rank memory allocation (min/avg/max) = 53.85 | 53.85 | 53.85 Mbytes
   Step          Temp          Press          Volume        Density         TotEng         KinEng         PotEng         E_bond        E_angle        E_dihed         E_vdwl         E_coul         E_long    
      5040   300            4174.0845      58363.004      1.0219472      54.263766      4813.7101     -4759.4464      462.4102       1413.2117      1437.5338     -1015.8947      9897.4499     -16971.165    
      5500   294.96124     -598.79241      60193.816      0.99086437     1998.6087      4732.8597     -2734.251       1286.5473      2116.1812      1645.0328     -965.23803      10077.623     -16930.404    
      6000   300.70215      476.00731      61368.849      0.97189223     2326.1703      4824.9766     -2498.8063      1323.2382      2170.6421      1686.8172     -939.73801      10141.714     -16920.514    
      6500   294.4119       472.86405      60803.262      0.9809327      2326.7305      4724.0452     -2397.3146      1379.3813      2259.7196      1647.4542     -947.82795      10176.974     -16952.225    
      7000   304.13056      105.45208      59733.852      0.99849424     2365.3229      4879.9879     -2514.665       1387.8712      2262.5825      1607.0742     -987.00361      10126.571     -16949.173    
      7500   295.6342       5.4254118      59846.993      0.99660659     2341.1664      4743.6578     -2402.4915      1426.3794      2319.0554      1627.0362     -955.2765       10090.466     -16945.882    
      8000   296.87808     -522.39062      59722.436      0.99868511     2179.7248      4763.6168     -2583.8919      1435.1907      2281.6663      1611.412      -982.70468      9978.1081     -16948.102    
      8500   301.164       -1263.1383      60530.026      0.98536068     2237.0842      4832.3873     -2595.3031      1510.9191      2259.0528      1585.1835     -1067.8489      10025.267     -16947.618    
      9000   298.39244     -534.87411      59961.764      0.99469901     2279.9643      4787.9157     -2507.9515      1519.4514      2300.8031      1602.5515     -1049.3623      10044.468     -16960.013    
      9500   297.62597      232.15756      59472.653      1.0028796      2231.8106      4775.6172     -2543.8066      1480.0701      2274.2259      1620.9269     -972.48746      9969.8585     -16956.984    
     10000   294.65922     -169.22725      59150.498      1.0083416      2110.7592      4728.0137     -2617.2544      1549.863       2259.069       1547.0412     -972.36137      9926.9874     -16963.002    
     10500   293.65884     -330.4899       59294.749      1.0058885      2159.4877      4711.9618     -2552.474       1502.6643      2351.3615      1602.461      -1032.3638      9938.5184     -16952.294    
     11000   300.54874     -497.50704      58956.235      1.0116641      2253.2864      4822.515      -2569.2287      1534.0427      2397.3385      1553.493      -997.09834      9866.6488     -16958.749    
     11500   301.34313      336.88861      59427.63       1.0036393      2256.3818      4835.2616     -2578.8799      1556.2951      2322.9561      1600.1338     -1026.4859      9897.9007     -16967.958    
     12000   297.99933      648.28297      59034.671      1.01032        2131.2296      4781.608      -2650.3783      1547.2239      2301.5309      1554.7767     -956.48107      9831.3571     -16966.232    
     12500   301.64122      909.9034       59406.974      1.0039883      2242.0645      4840.0446     -2597.9801      1548.2729      2342.926       1550.6289     -966.31533      9854.8526     -16965.69     
     13000   298.37289     -1068.3367      58975.415      1.0113351      1942.285       4787.602      -2845.317       1550.4706      2262.9026      1518.8077     -1058.0193      9814.6067     -16967.367    
     13500   291.98539      366.95741      58952.208      1.0117332      2063.9235      4685.1101     -2621.1866      1608.5623      2312.3623      1542.1342     -1084.1417      9911.8602     -16947.782    
     14000   297.37111      257.05746      58893.976      1.0127336      2102.0042      4771.5278     -2669.5236      1612.8543      2311.4943      1546.6282     -1041.5144      9826.0405     -16963.398    
     14500   295.96482      1016.3403      58458.77       1.0202731      2127.6313      4748.9629     -2621.3316      1645.6547      2370.8843      1569.176      -1055.5159      9773.7514     -16965.554    
     15000   301.34281     -743.80704      59015.474      1.0106486      2172.3496      4835.2564     -2662.9069      1703.2807      2335.071       1543.0152     -1085.0875      9770.5074     -16965.24     
     15500   299.84798      439.09703      58666.321      1.0166635      2093.5372      4811.2708     -2717.7337      1633.6775      2329.8198      1543.2798     -1008.0878      9718.4215     -16969.749    
     16000   296.87218     -487.10966      58891.21       1.0127812      2055.5775      4763.5221     -2707.9446      1591.5241      2403.2656      1548.6376     -1059.2078      9739.6839     -16969.282    
     16500   296.00143     -794.4747       58831.245      1.0138135      1983.1907      4749.5503     -2766.3596      1596.5917      2368.1473      1518.0317     -1069.7569      9754.5983     -16968.412    
     17000   300.93807      857.21884      58643.161      1.017065       2134.0545      4828.7621     -2694.7076      1631.6406      2342.8825      1532.1107     -1017.2574      9742.3658     -16963.177    
     17500   307.94301      951.29378      58587.427      1.0180326      2291.0282      4941.1613     -2650.1332      1691.8902      2371.3158      1534.9141     -1048.29        9731.9642     -16970.743    
     18000   299.29554     -352.60286      58821.603      1.0139796      2073.5928      4802.4066     -2728.8138      1644.5414      2328.7167      1527.9641     -1017.1414      9714.4858     -16965.147    
     18500   296.50794     -1217.3619      58703.456      1.0160204      2057.4552      4757.6776     -2700.2224      1674.6988      2410.6737      1520.4725     -1046.0985      9682.6211     -16978.6      
     19000   295.76416     -733.76835      58369.987      1.0218249      1995.0896      4745.7431     -2750.6535      1674.3741      2336.2017      1548.6806     -1060.4244      9685.1674     -16970.904    
     19500   294.16892      27.735793      58537.74       1.0188967      1965.1777      4720.1464     -2754.9688      1628.2202      2413.4434      1499.6476     -1089.203       9734.2154     -16976.801    
     20000   299.8983      -1326.4478      58913.046      1.0124058      2049.6512      4812.0783     -2762.4271      1654.4597      2365.6512      1533.4241     -1083.727       9705.7003     -16972.294    
     20500   301.83163     -508.76202      58155.971      1.0255853      2170.8822      4843.0999     -2672.2177      1758.8389      2336.6844      1557.8975     -1054.1591      9666.8293     -16975.882    
     21000   301.9036      -1209.8976      58851.461      1.0134652      2119.2277      4844.2548     -2725.0271      1654.8879      2396.2011      1538.1239     -1052.8903      9668.0407     -16966.554    
     21500   301.20604      293.66636      58833.019      1.0137829      2123.9157      4833.0619     -2709.1462      1720.1426      2348.716       1524.1362     -1080.4289      9711.1129     -16968.173    
     22000   301.86179      14.490664      58413.421      1.0210651      2059.0166      4843.5838     -2784.5672      1693.1713      2358.3151      1502.7704     -1015.7953      9618.7668     -16976.943    
     22500   296.7412       362.55757      58573.858      1.0182684      2055.4166      4761.4204     -2706.0037      1687.7064      2393.1867      1511.7019     -1031.6608      9665.2977     -16967.979    
     23000   298.13585      598.09984      58207.747      1.024673       2139.7383      4783.7986     -2644.0603      1757.0993      2390           1524.1666     -1028.9751      9657.5458     -16980.036    
     23500   302.08843     -239.29086      58327.661      1.0225664      2155.1868      4847.2205     -2692.0337      1703.8148      2394.5069      1511.0749     -1053.8777      9693.2033     -16975.25     
     24000   295.8436      -305.91151      58902.103      1.0125939      2107.8274      4747.0178     -2639.1905      1725.052       2405.9842      1482.3741     -1085.0733      9758.3057     -16962.257    
     24500   300.85225     -505.04972      58334.658      1.0224438      2037.8874      4827.3851     -2789.4977      1680.5153      2354.8603      1500.2899     -1090.2241      9700.7146     -16973.588    
     25000   305.09501      377.58039      58230.343      1.0242754      2114.2384      4895.4631     -2781.2247      1690.0825      2426.7286      1505.8505     -1078.1046      9614.7083     -16975.717    
     25500   304.04323      365.87342      58989.571      1.0110924      2199.5638      4878.5867     -2679.0229      1730.3013      2430.6368      1546.9087     -1095.276       9644.7731     -16974.44     
     26000   302.11741     -14.633023      58508.686      1.0194026      2082.5245      4847.6854     -2765.1609      1749.9708      2352.6131      1523.742      -1117.4922      9662.6922     -16973.221    
     26500   297.78733      216.12645      58063.402      1.0272203      2013.2345      4778.2063     -2764.9718      1739.9331      2361.8239      1504.9215     -992.8208       9559.1946     -16973.299    
     27000   299.31911     -861.61909      58785.563      1.0146013      1998.51        4802.7848     -2804.2749      1736.4513      2361.3622      1463.5609     -1109.5063      9682.2645     -16971.468    
     27500   296.68275     -1152.3053      58250.834      1.0239151      2003.1976      4760.4826     -2757.2849      1725.3549      2417.1567      1500.2168     -1120.9503      9645.2203     -16960.171    
     28000   299.9778       1312.5384      58099.626      1.0265799      2075.7603      4813.3539     -2737.5936      1743.1006      2388.8187      1538.6967     -1066.2189      9595.7026     -16973.991    
     28500   296.1149       673.94953      58160.719      1.0255016      2063.9708      4751.3711     -2687.4003      1695.4262      2407.7457      1541.2904     -1031.4269      9635.4493     -16975.555    
     29000   296.02389      494.71474      58237.805      1.0241442      2037.1899      4749.9107     -2712.7208      1673.8737      2459.4304      1521.353      -1043.6675      9614.1342     -16975.08     
     29500   298.18729      44.357758      58301.832      1.0230194      1990.8165      4784.624      -2793.8074      1727.7104      2423.7411      1493.5208     -1093.6782      9595.1084     -16976.455    
     30000   302.69104      188.11658      58535.704      1.0189321      2068.6571      4856.8898     -2788.2327      1717.036       2356.4374      1522.6834     -1069.7934      9626.2365     -16979.686    
     30040   299.51375     -1064.5066      58608.351      1.0176691      2057.5868      4805.9079     -2748.3211      1677.867       2424.2139      1526.9251     -1089.8494      9656.9895     -16979.184    
Loop time of 2804.67 on 1 procs for 25000 steps with 5484 atoms

Performance: 0.770 ns/day, 31.163 hours/ns, 8.914 timesteps/s, 48.883 katom-step/s
21.4% CPU use with 1 MPI tasks x 1 OpenMP threads

MPI task timing breakdown:
Section |  min time  |  avg time  |  max time  |%varavg| %total
---------------------------------------------------------------
Pair    | 2648.1     | 2648.1     | 2648.1     |   0.0 | 94.42
Bond    | 27.808     | 27.808     | 27.808     |   0.0 |  0.99
Kspace  | 46.003     | 46.003     | 46.003     |   0.0 |  1.64
Neigh   | 67.261     | 67.261     | 67.261     |   0.0 |  2.40
Comm    | 2.4486     | 2.4486     | 2.4486     |   0.0 |  0.09
Output  | 0.1633     | 0.1633     | 0.1633     |   0.0 |  0.01
Modify  | 12.293     | 12.293     | 12.293     |   0.0 |  0.44
Other   |            | 0.6176     |            |       |  0.02

Nlocal:           5484 ave        5484 max        5484 min
Histogram: 1 0 0 0 0 0 0 0 0 0
Nghost:          17711 ave       17711 max       17711 min
Histogram: 1 0 0 0 0 0 0 0 0 0
Neighs:    1.89643e+06 ave 1.89643e+06 max 1.89643e+06 min
Histogram: 1 0 0 0 0 0 0 0 0 0

Total # of neighbors = 1896426
Ave neighs/atom = 345.81072
Ave special neighs/atom = 10.636032
Neighbor list builds = 1040
Dangerous builds = 0

variable        dens equal density
variable        vol_ equal vol
fix             avg all ave/time 500 10 5000 v_dens v_vol_ file density.dat
run             25000
PPPM initialization ...
  using 12-bit tables for long-range coulomb
  G vector (1/distance) = 0.23806527
  grid = 15 15 15
  stencil order = 5
  estimated absolute RMS force accuracy = 0.022057719
  estimated relative force accuracy = 6.6426165e-05
  using double precision FFTW3
  3d grid and FFT values/proc = 8000 3375
Generated 36 of 36 mixed pair_coeff terms from arithmetic mixing rule
Per MPI rank memory allocation (min/avg/max) = 53.85 | 53.85 | 53.85 Mbytes
   Step          Temp          Press          Volume        Density         TotEng         KinEng         PotEng         E_bond        E_angle        E_dihed         E_vdwl         E_coul         E_long    
     30040   299.51375     -1060.3003      58608.351      1.0176691      2057.5967      4805.9079     -2748.3112      1677.867       2424.2139      1526.9251     -1089.8494      9648.3455     -16970.53     
     30500   300.37401      55.40085       58641.808      1.0170885      2151.1117      4819.7115     -2668.5998      1742.1375      2423.903       1499.5201     -1019.7773      9608.6412     -16961.388    
     31000   305.5678       877.83998      58131.816      1.0260114      2174.7127      4903.0494     -2728.3366      1739.7261      2372.5056      1530.1321     -1028.2078      9584.49       -16965.996    
     31500   299.2551      -110.45006      58493.248      1.0196717      2114.8949      4801.7578     -2686.8629      1719.3711      2453.5028      1500.6232     -1105.3563      9674.4887     -16965.31     
     32000   299.5052       249.1453       58400.662      1.0212882      2041.101       4805.7708     -2764.6698      1721.2156      2354.7865      1515.2694     -1077.9002      9653.8938     -16968.46     
     32500   294.58973     -300.46182      58323.819      1.0226338      1968.5768      4726.8986     -2758.3218      1711.6485      2433.1367      1478.5404     -1073.0239      9622.503      -16965.724    
     33000   301.38117     -763.66465      58643.675      1.0170561      2095.9119      4835.872      -2739.9601      1773.266       2375.6786      1476.5463     -1092.8336      9657.2053     -16963.806    
     33500   301.06721     -541.78818      58320.253      1.0226963      2157.1179      4830.8342     -2673.7163      1761.671       2411.3066      1494.2083     -1054.7823      9649.5641     -16973.862    
     34000   292.21014      1240.7473      58095.886      1.026646       1906.9511      4688.7164     -2781.7652      1700.8862      2396.8495      1467.1896     -1052.3011      9638.4311     -16966.17     
     34500   298.08497     -753.75082      58515.492      1.0192841      2053.4763      4782.9822     -2729.5059      1761.3907      2370.8496      1510.3383     -1088.393       9641.9879     -16962.051    
     35000   301.12721     -278.92062      58495.928      1.0196249      2130.5635      4831.797      -2701.2334      1742.3391      2436.6751      1512.1644     -1085.5326      9620.9672     -16964.27     
     35500   296.7839      -1319.3624      58396.075      1.0213684      1957.9022      4762.1055     -2804.2034      1757.1343      2315.603       1498.5627     -1063.1166      9622.6667     -16973.011    
     36000   298.56494      364.20144      58458.388      1.0202797      1914.1893      4790.6836     -2876.4943      1669.3289      2382.0731      1483.2272     -1123.5986      9635.8116     -16958.966    
     36500   293.57978     -205.07178      58804.34       1.0142773      1952.6993      4710.6932     -2757.9939      1755.2243      2351.8646      1517.0564     -1092.5788      9636.6472     -16964.787    
     37000   295.96936     -658.39622      58236.448      1.024168       1982.7022      4749.0358     -2766.3336      1771.2159      2347.4601      1499.5777     -1090.8487      9635.5168     -16967.002    
     37500   301.40989     -930.84722      58998.126      1.0109458      2102.929       4836.3329     -2733.4039      1783.2718      2343.6329      1504.936      -1094.7292      9654.1463     -16961.932    
     38000   297.55674      297.40019      58378.503      1.0216759      2028.4713      4774.5063     -2746.035       1704.6479      2429.5141      1521.0622     -1051.1406      9569.8709     -16956.836    
     38500   299.91313     -1283.9516      58587.994      1.0180227      2104.7315      4812.3163     -2707.5848      1768.7591      2395.1083      1503.5554     -1063.3854      9625.0398     -16974.506    
     39000   301.46651     -388.28034      58759.667      1.0150484      2063.7858      4837.2413     -2773.4555      1743.1811      2423.075       1480.6731     -1125.3607      9627.9593     -16956.205    
     39500   300.78843     -932.52555      58877.387      1.0130189      2196.0032      4826.3611     -2630.3579      1778.1255      2452.8876      1517.5188     -1075.6562      9622.8896     -16960.949    
     40000   298.19115      534.61656      58745.77       1.0152885      2065.46        4784.6858     -2719.2258      1731.4787      2388.2915      1544.5396     -1086.2653      9634.4318     -16969.351    
     40500   299.48972      159.12369      58633.732      1.0172286      2045.198       4805.5223     -2760.3244      1719.0483      2373.0485      1491.5469     -1045.8353      9625.9668     -16959.298    
     41000   297.35212     -312.28885      58825.05       1.0139202      2001.678       4771.2231     -2769.5452      1687.2366      2410.4844      1509.2748     -1091.2617      9637.1587     -16959.257    
     41500   294.91228      40.554467      58575.761      1.0182353      1871.1869      4732.0741     -2860.8872      1681.1733      2356.8924      1511.145      -1076.729       9593.1487     -16963.601    
     42000   302.5593       43.242761      58978.598      1.0112805      2136.6435      4854.776      -2718.1325      1732.1262      2427.0137      1506.9528     -1079.6042      9626.0948     -16966.596    
     42500   298.8948      -898.595        58752.764      1.0151677      2078.1401      4795.9765     -2717.8363      1789.5626      2398.378       1506.7772     -1039.6121      9554.5163     -16963.577    
     43000   297.76194     -391.09721      58820.068      1.0140061      1996.7501      4777.7989     -2781.0488      1714.01        2376.2344      1494.7002     -1063.3558      9627.0439     -16966.573    
     43500   299.01967     -491.74896      58331.095      1.0225062      1974.7374      4797.98       -2823.2426      1729.0798      2380.964       1489.5669     -1060.113       9574.4191     -16973.498    
     44000   300.28005     -681.12847      58806.26       1.0142442      2167.8654      4818.2038     -2650.3384      1777.9021      2420.9471      1539.7398     -1050.5654      9584.9151     -16961.509    
     44500   304.44758      1528.1248      58363.684      1.0219353      2173.2041      4885.0747     -2711.8706      1710.0231      2445.7615      1537.8238     -1038.959       9567.2206     -16972.01     
     45000   300.89888     -1603.3411      58702.083      1.0160442      2071.8532      4828.1333     -2756.2801      1786.6692      2304.0214      1531.0816     -1096.885       9649.4471     -16965.695    
     45500   296.65702      929.37255      58595.061      1.0178999      2002.462       4760.0697     -2757.6077      1725.2808      2420.9289      1475.8061     -1087.5217      9630.0164     -16956.112    
     46000   296.93169     -554.81788      58551.765      1.0186526      2019.3567      4764.477      -2745.1203      1776.8974      2353.4164      1504.1804     -1068.6325      9615.6202     -16961.881    
     46500   303.33134     -879.21788      58717.486      1.0157776      2199.2695      4867.1638     -2667.8943      1778.5467      2461.7631      1481.7651     -1117.0561      9657.0177     -16963.009    
     47000   300.55175      167.62705      58824.531      1.0139292      2132.9736      4822.5633     -2689.5897      1781.5138      2425.9776      1492.0047     -1023.7821      9565.9093     -16965.365    
     47500   293.95996     -430.78878      58402.063      1.0212637      1984.5067      4716.7935     -2732.2869      1725.3085      2355.8263      1521.86       -1018.0669      9596.3074     -16950.284    
     48000   299.51222      59.96635       58394.768      1.0213913      1932.9189      4805.8834     -2872.9645      1742.9898      2341.7281      1489.7573     -1065.7966      9547.5088     -16961.737    
     48500   298.51219      353.77921      58513.824      1.0193131      1981.1176      4789.8372     -2808.7197      1702.9195      2369.0788      1501.8548     -1061.7799      9604.5483     -16962.177    
     49000   297.53623     -870.24559      58788.154      1.0145566      2075.2398      4774.1773     -2698.9375      1807.5046      2376.1574      1501.7956     -1087.4759      9622.7895     -16957.258    
     49500   300.32802      727.89583      58084.741      1.026843       2070.2071      4818.9734     -2748.7663      1729.3073      2392.6873      1518.6215     -1077.0555      9608.5372     -16956.722    
     50000   298.32767     -342.6086       58568.625      1.0183594      1983.5987      4786.8764     -2803.2777      1734.7858      2362.6813      1478.7551     -1085.8052      9630.5848     -16959.62     
     50500   304.15743     -286.36389      58271.646      1.0235494      2221.3669      4880.419      -2659.052       1801.4593      2427.3055      1502.8752     -1064.4159      9604.8544     -16966.378    
     51000   301.69208     -323.11919      57953.133      1.0291749      2111.7159      4840.8607     -2729.1448      1739.754       2426.7579      1536.0705     -1070.6111      9565.7183     -16965.001    
     51500   293.44024     -280.43342      58326.96       1.0225787      2030.2486      4708.4542     -2678.2055      1711.1607      2451.7007      1523.6476     -1093.4207      9647.778      -16956.538    
     52000   300.50893     -64.611482      58579.312      1.0181736      2063.2743      4821.8762     -2758.6019      1711.2206      2368.1599      1496.3826     -1109.4166      9705.1887     -16966.641    
     52500   300.674        218.55984      58027.165      1.0278618      1992.7878      4824.5249     -2831.7372      1684.4491      2352.0631      1524.9684     -1051.5027      9590.6427     -16967.611    
     53000   295.58853     -599.28228      58449.627      1.0204326      1955.2885      4742.925      -2787.6366      1710.6716      2398.837       1517.2062     -1085.8128      9586.6242     -16952.917    
     53500   302.36108     -559.84197      58301.035      1.0230334      2126.6597      4851.5954     -2724.9357      1732.7775      2438.9654      1514.635      -1086.6844      9603.1525     -16964.313    
     54000   303.30995      1525.6246      58193.363      1.0249263      2092.7043      4866.8206     -2774.1164      1695.0007      2409.0092      1514.8799     -1125.7453      9656.1628     -16961.159    
     54500   298.30226     -222.58272      58497.464      1.0195982      1905.4784      4786.4687     -2880.9903      1711.2598      2359.3263      1453.4544     -1076.9198      9599.4446     -16962.308    
     55000   293.5379       148.85373      58453.747      1.0203607      1946.3101      4710.0212     -2763.7111      1734.6418      2374.3449      1503.7943     -1065.1619      9622.8072     -16969.895    
     55040   295.7919      -619.75622      58456.071      1.0203202      1931.632       4746.1882     -2814.5562      1745.5754      2337.3377      1484.2462     -1069.4131      9618.895      -16966.618    
Loop time of 543.968 on 1 procs for 25000 steps with 5484 atoms

Performance: 3.971 ns/day, 6.044 hours/ns, 45.959 timesteps/s, 252.037 katom-step/s
97.3% CPU use with 1 MPI tasks x 1 OpenMP threads

MPI task timing breakdown:
Section |  min time  |  avg time  |  max time  |%varavg| %total
---------------------------------------------------------------
Pair    | 430.68     | 430.68     | 430.68     |   0.0 | 79.17
Bond    | 22.257     | 22.257     | 22.257     |   0.0 |  4.09
Kspace  | 37.695     | 37.695     | 37.695     |   0.0 |  6.93
Neigh   | 42.834     | 42.834     | 42.834     |   0.0 |  7.87
Comm    | 1.6036     | 1.6036     | 1.6036     |   0.0 |  0.29
Output  | 0.12631    | 0.12631    | 0.12631    |   0.0 |  0.02
Modify  | 8.4397     | 8.4397     | 8.4397     |   0.0 |  1.55
Other   |            | 0.3297     |            |       |  0.06

Nlocal:           5484 ave        5484 max        5484 min
Histogram: 1 0 0 0 0 0 0 0 0 0
Nghost:          17967 ave       17967 max       17967 min
Histogram: 1 0 0 0 0 0 0 0 0 0
Neighs:    1.89808e+06 ave 1.89808e+06 max 1.89808e+06 min
Histogram: 1 0 0 0 0 0 0 0 0 0

Total # of neighbors = 1898075
Ave neighs/atom = 346.11142
Ave special neighs/atom = 10.636032
Neighbor list builds = 941
Dangerous builds = 0

# ------------------------------------------------------------- chemical pot ---
# Widom insertion of a test water into the swollen membrane, to be compared with
# the same quantity in bulk water. The comparison is only meaningful if both
# sides use identical cutoff, kspace accuracy and water model -- see bulk.in.j2.
#
# The test particle is inserted but never kept, so this measures the free energy
# the *next* water would pay, which is exactly the saturation question.
molecule        h2o h2o.mol
Read molecule template h2o:
# Rigid water for Widom test insertions.
  1 molecules
  0 fragments
  0 bodies
  3 atoms with max type 9
  2 bonds with max type 8
  1 angles with max type 14
  0 dihedrals with max type 0
  0 impropers with max type 0
fix             w all widom 100 400 0 87235 300.0 mol h2o full_energy
WARNING: Molecule attributes do not match system attributes
For more information see https://docs.lammps.org/err0026 (src/molecule.cpp:3637)
variable        muex equal f_w[1]
variable        boltz equal f_w[2]
variable        wvol equal f_w[3]
fix             muavg all ave/time 100 100 10000 v_muex v_boltz v_wvol file mu.dat
run             50000
PPPM initialization ...
  using 12-bit tables for long-range coulomb
  G vector (1/distance) = 0.23814432
  grid = 15 15 15
  stencil order = 5
  estimated absolute RMS force accuracy = 0.022003445
  estimated relative force accuracy = 6.6262722e-05
  using double precision FFTW3
  3d grid and FFT values/proc = 8000 3375
Generated 36 of 36 mixed pair_coeff terms from arithmetic mixing rule
0 atoms in group FixWidom:widom_exclusion_group:w
0 atoms in group FixWidom:rotation_gas_atoms:w
WARNING: Neighbor exclusions used with KSpace solver may give inconsistent Coulombic energies (src/neighbor.cpp:671)
Per MPI rank memory allocation (min/avg/max) = 53.86 | 53.86 | 53.86 Mbytes
   Step          Temp          Press          Volume        Density         TotEng         KinEng         PotEng         E_bond        E_angle        E_dihed         E_vdwl         E_coul         E_long    
     55040   295.7919      -619.16055      58456.071      1.0203202      1931.6277      4746.1882     -2814.5605      1745.5754      2337.3377      1484.2462     -1069.4131      9624.2642     -16971.992    
     55500   302.40123      118.09991      58084.34       1.0268501      2051.6454      4852.2395     -2800.5941      1657.3322      2453.8954      1499.5722     -1114.1131      9646.757      -16978.872    
     56000   303.94198      121.55989      57920.101      1.0297618      2134.05        4876.962      -2742.912       1754.943       2391.1391      1545.3613     -1047.1631      9549.314      -16973.538    
     56500   298.10732      931.78257      58333.982      1.0224556      2046.0304      4783.3408     -2737.3103      1716.8619      2419.734       1509.8454     -1058.3238      9601.9028     -16964.468    
     57000   301.99978      1597.6252      58397.391      1.0213454      2112.2488      4845.798      -2733.5492      1747.9925      2394.9834      1471.9342     -1060.5704      9646.512      -16970.787    
     57500   299.4541       1339.6002      58036.544      1.0276957      2101.9549      4804.9509     -2702.996       1719.7912      2408.9896      1515.3374     -1075.4624      9648.5924     -16959.843    
     58000   300.7152       589.14654      58257.834      1.0237921      1966.5914      4825.1861     -2858.5946      1696.392       2327.3668      1522.7289     -1119.7615      9644.846      -16969.759    
     58500   301.37391      220.01731      58268.208      1.0236098      2008.8461      4835.7555     -2826.9094      1756.9721      2311.0289      1509.4908     -1114.528       9644.8144     -16972.734    
     59000   298.37424      849.49095      58194.424      1.0249076      2073.4063      4787.6237     -2714.2174      1742.8969      2440.6879      1533.5692     -1095.1759      9604.2892     -16978.392    
     59500   302.71938      1375.6706      58526.276      1.0190962      2104.3678      4857.3445     -2752.9768      1720.0293      2391.9997      1505.0328     -1080.0615      9639.9365     -16967.066    
     60000   295.66793      334.44562      58454.322      1.0203507      1974.5129      4744.199      -2769.6861      1701.3284      2390.6515      1480.8596     -1043.2713      9633.5121     -16968.629    
     60500   298.17764     -552.87824      58567.886      1.0183722      1933.362       4784.4691     -2851.1071      1683.528       2344.6874      1511.0419     -1099.9117      9649.5441     -16979.215    
     61000   302.63999      897.52868      58694.555      1.0161745      2072.7374      4856.0707     -2783.3333      1719.3859      2387.4309      1494.696      -1073.9609      9623.3767     -16969.298    
     61500   298.77583      1183.6167      58225.821      1.024355       1923.1134      4794.0674     -2870.954       1694.9993      2364.7633      1478.5887     -1067.8959      9594.0058     -16971.24     
     62000   295.38553     -566.63441      58464.123      1.0201796      1977.6055      4739.6678     -2762.0622      1779.4908      2346.8746      1514.5286     -1065.1073      9603.5849     -16976.845    
     62500   300.85918     -1018.6491      58897.161      1.0126788      2029.2581      4827.4963     -2798.2381      1768.2116      2396.5933      1474.9494     -1207.2648      9702.7104     -16966.96     
     63000   301.1686      -809.38681      58430.412      1.0207682      2165.9971      4832.4612     -2666.4641      1792.6754      2381.8817      1541.8353     -1094.6749      9643.1235     -16969.193    
     63500   299.533        10.346054      58478.365      1.0199312      2134.6281      4806.2168     -2671.5887      1799.7012      2425.2252      1513.8506     -1051.7001      9579.6293     -16974.9      
     64000   300.45342      838.52817      58315.471      1.0227802      2004.8889      4820.9856     -2816.0967      1721.6595      2380.9194      1502.06       -1064.5403      9578.0983     -16971.153    
     64500   300.39428      401.49351      58610.943      1.0176241      2042.7365      4820.0367     -2777.3002      1748.3497      2347.0274      1513.5799     -1105.2522      9641.4028     -16959.225    
     65000   298.27856      426.5321       58172.089      1.0253011      2003.6053      4786.0884     -2782.483       1731.1743      2398.1342      1503.5857     -1099.1657      9619.1233     -16971.805    
     65500   298.32814      714.35674      57961.064      1.029034       2128.3025      4786.884      -2658.5815      1771.6723      2402.8899      1517.5254     -1018.8719      9598.5492     -16968.265    
     66000   300.69607     -296.37331      58595.021      1.0179006      2185.2997      4824.8791     -2639.5794      1802.0113      2444.0003      1515.3154     -1061.0371      9598.4479     -16975.184    
     66500   300.4107       430.31441      58559.101      1.018525       1986.8167      4820.3001     -2833.4834      1687.3094      2383.6347      1509.3713     -1073.5993      9592.1605     -16969.829    
     67000   300.13536     -339.15         58288.267      1.0232575      2019.6439      4815.8822     -2796.2383      1787.0209      2347.6638      1542.0835     -1098.6158      9566.2205     -16977.077    
     67500   295.90428      26.03353       58823.823      1.0139414      2011.7433      4747.9915     -2736.2482      1738.4738      2396.5486      1487.5397     -1101.4452      9676.9327     -16970.216    
     68000   306.93246      849.16303      58157.682      1.0255551      2063.2997      4924.9464     -2861.6467      1771.4525      2298.2999      1498.5728     -1094.9091      9589.2605     -16960.349    
     68500   299.73344      481.6201       58442.304      1.0205605      2085.9308      4809.433      -2723.5022      1768.5347      2389.295       1506.4715     -1093.7197      9640.2856     -16971.3      
     69000   301.65794     -251.06267      58127.381      1.0260897      2018.7619      4840.313      -2821.5511      1748.0845      2324.8757      1537.9855     -1087.27        9602.2028     -16983.347    
     69500   296.60495     -774.11775      58660.778      1.0167596      2011.5923      4759.2342     -2747.642       1797.232       2398.4236      1502.1174     -1158.7031      9646.0321     -16970.877    
     70000   299.31218      1498.26        58197.542      1.0248527      1985.8022      4802.6736     -2816.8714      1702.8278      2397.408       1508.7642     -1097.2391      9602.3286     -16968.512    
     70500   303.77347     -272.6829       58699.019      1.0160972      2063.4313      4874.2581     -2810.8267      1754.9426      2331.0569      1483.8238     -1091.7013      9649.8462     -16973.225    
     71000   295.74246      449.98937      58326.187      1.0225923      1872.2015      4745.3949     -2873.1934      1721.0317      2350.6431      1495.5017     -1103.3117      9609.4796     -16982.615    
     71500   294.95314     -779.72316      58320.488      1.0226922      1970.7192      4732.7297     -2762.0105      1758.8524      2352.8808      1571.154      -1083.0918      9578.0421     -16980.718    
     72000   299.5609      -1695.9935      58459.833      1.0202545      2057.5631      4806.6645     -2749.1014      1729.758       2397.1008      1500.7159     -1063.8513      9627.9311     -16976.268    
     72500   301.1377       614.88642      58514.282      1.0193051      2065.5747      4831.9653     -2766.3906      1746.8008      2363.4964      1509.9817     -1051.4046      9598.7398     -16971.411    
     73000   295.48133      643.43473      58433.712      1.0207106      2016.1331      4741.2049     -2725.0718      1754.6601      2460.6484      1489.4434     -1061.7858      9575.87       -16980.355    
     73500   292.83549     -439.4352       58716.551      1.0157938      1975.2676      4698.7505     -2723.4829      1767.2165      2417.0306      1512.8665     -1034.2525      9555.793      -16977.973    
     74000   299.71754      588.55471      58370.603      1.0218142      1917.4354      4809.1779     -2891.7426      1686.5945      2344.8554      1489.5607     -1041.0658      9565.7966     -16973.393    
     74500   297.33579      1631.0818      58553.016      1.0186308      2027.3852      4770.961      -2743.5758      1757.0102      2432.2161      1503.6619     -1064.823       9565.8332     -16973.096    
     75000   297.5566       447.97822      58500.844      1.0195393      2084.0188      4774.5042     -2690.4853      1743.3303      2456.5798      1497.5915     -1073.3781      9627.2249     -16976.268    
     75500   302.21577      278.56707      58253.052      1.0238761      2145.303       4849.2637     -2703.9608      1758.8171      2450.023       1527.2186     -987.15299      9485.1377     -16975.195    
     76000   303.09172     -244.30541      58672.605      1.0165546      2163.8655      4863.319      -2699.4535      1763.6         2472.2182      1506.1343     -1087.552       9581.6712     -16973.908    
     76500   295.36344     -341.15484      59094.925      1.0092899      2000.8424      4739.3132     -2738.4708      1796.7977      2391.6885      1491.6641     -1109.0058      9627.1892     -16970.688    
     77000   300.52007      692.86589      58147.57       1.0257334      1985.7513      4822.055      -2836.3037      1730.8199      2408.9665      1508.7055     -1015.7735      9473.5368     -16979.348    
     77500   300.83683      363.98229      58476.896      1.0199568      2002.3328      4827.1376     -2824.8049      1752.6077      2370.0014      1500.8537     -1110.4326      9601.1666     -16973.981    
     78000   302.3286      -826.51035      58065.93       1.0271756      2186.0222      4851.0742     -2665.0521      1841.787       2474.4966      1503.9557     -1087.3054      9543.7023     -16978.005    
     78500   302.88749      1066.1066      58293.826      1.0231599      2166.4891      4860.0419     -2693.5528      1815.7239      2436.5205      1504.1889     -1114.778       9603.4773     -16975.701    
     79000   302.23522     -1007.9899      58549.41       1.0186936      2034.6209      4849.5757     -2814.9548      1720.6853      2450.8371      1493.4905     -1145.0136      9599.2319     -16970.509    
     79500   300.68414     -92.727738      58210.626      1.0246223      1999.0811      4824.6876     -2825.6065      1772.1255      2402.009       1492.751      -1086.3993      9532.2526     -16974.277    
     80000   298.07002     -1195.2326      58476.491      1.0199639      1999.4457      4782.7423     -2783.2966      1799.7694      2393.3445      1516.5996     -1070.0969      9527.2844     -16984.138    
     80500   305.22934     -330.78476      58347.591      1.0222171      2247.5103      4897.6186     -2650.1083      1809.1187      2462.2539      1509.4723     -1074.1676      9581.0285     -16974.107    
     81000   298.30141      137.44275      58323.803      1.0226341      1949.4474      4786.4551     -2837.0078      1753.7661      2356.1148      1510.8617     -1039.1997      9523.1341     -16978.126    
     81500   296.78511      1140.1227      58192.788      1.0249364      1909.9179      4762.125      -2852.207       1724.2076      2366.6685      1499.6699     -1071.727       9565.2676     -16973.366    
     82000   296.57218     -203.67615      58364.375      1.0219232      2037.8545      4758.7083     -2720.8539      1781.3371      2438.7028      1513.9491     -1078.3875      9562.9932     -16976.799    
     82500   304.50066      858.50312      58388.468      1.0215015      2149.693       4885.9264     -2736.2334      1752.5763      2378.483       1519.5379     -1019.326       9561.9184     -16966.889    
     83000   298.6573      -438.35043      58511.492      1.0193537      2065.2503      4792.1656     -2726.9153      1784.8968      2415.6842      1503.3795     -1085.3932      9590.6662     -16972.54     
     83500   295.45117      510.47685      58532.509      1.0189877      2012.016       4740.721      -2728.7051      1810.3944      2385.3388      1492.6791     -1066.0273      9596.3812     -16982.718    
     84000   298.67588      252.89223      58750.741      1.0152026      1978.3682      4792.4638     -2814.0955      1750.0071      2378.66        1494.1747     -1031.0922      9521.8577     -16966.038    
     84500   294.00238     -803.62301      58436.698      1.0206584      1927.8031      4717.4742     -2789.6711      1741.8205      2410.0366      1519.1574     -1081.4819      9553.6117     -16968.99     
     85000   298.93948      516.2508       58309.372      1.0228872      2106.0915      4796.6934     -2690.6019      1817.1699      2377.1617      1538.2614     -1028.2252      9544.9338     -16975.037    
     85500   303.06719     -857.55346      58383.051      1.0215963      2025.0476      4862.9254     -2837.8777      1717.8193      2339.8751      1544.6307     -1086.994       9582.3219     -16974.383    
     86000   302.81616     -459.98297      58338.71       1.0223728      2084.8907      4858.8974     -2774.0066      1754.7072      2395.7465      1502.4577     -1089.642       9593.4399     -16965.99     
     86500   299.06471      997.35446      58789.409      1.0145349      2019.8676      4798.7028     -2778.8352      1734.2864      2426.009       1485.461      -1041.6975      9561.1713     -16978.238    
     87000   289.25655     -1676.2377      58769.17       1.0148843      1792.4306      4641.324      -2848.8934      1738.5702      2392.6891      1478.3157     -1128.6403      9598.8947     -16962.648    
     87500   302.17798      416.9274       58832.136      1.0137981      2121.8248      4848.6573     -2726.8325      1750.2227      2369.9985      1507.4969     -1060.9231      9628.8544     -16959.467    
     88000   302.83419      656.83828      58199.492      1.0248184      2122.4022      4859.1867     -2736.7845      1713.9415      2428.9605      1517.3923     -1050.3917      9582.5383     -16965.008    
     88500   304.28886      1079.0428      58528.29       1.0190612      2103.1944      4882.528      -2779.3336      1762.5559      2407.3913      1472.3858     -1067.5629      9582.5277     -16971.234    
     89000   300.62792     -182.94062      58346.328      1.0222393      1996.7881      4823.7856     -2826.9975      1769.3119      2357.0148      1491.1416     -1033.4302      9528.1968     -16974.524    
     89500   299.76287      70.661675      58499.797      1.0195575      2057.3757      4809.9052     -2752.5295      1742.2109      2439.4876      1474.5124     -1038.2201      9574.2918     -16980.778    
     90000   302.57382      776.33257      58334.172      1.0224523      1970.0367      4855.0088     -2884.9721      1740.7839      2339.2421      1484.0519     -1079.3557      9573.8213     -16979.233    
     90500   295.03864     -1610.0551      58595.291      1.0178959      1921.7172      4734.1017     -2812.3845      1753.9788      2371.3588      1511.5321     -1061.5743      9556.9224     -16979.598    
     91000   298.88226     -985.05014      58544.892      1.0187722      1982.4918      4795.7753     -2813.2835      1766.5108      2358.9034      1502.6016     -1110.0133      9601.173      -16971.655    
     91500   302.17835     -394.84379      58108.212      1.0264282      2060.6032      4848.6633     -2788.0601      1753.6149      2421.4904      1506.1825     -1117.436       9588.4678     -16979.168    
     92000   304.06965     -435.49418      58478.256      1.0199331      2200.8369      4879.0106     -2678.1737      1750.7737      2489.8282      1528.281      -1072.081       9562.5209     -16975.389    
     92500   306.78117     -70.227806      58377.887      1.0216867      2142.0547      4922.5188     -2780.4641      1726.3296      2387.7801      1509.5141     -1051.3866      9589.1637     -16979.826    
     93000   301.43509     -1563.294       58422.729      1.0209025      2086.6292      4836.7371     -2750.108       1763.0043      2379.4379      1522.5074     -1127.2571      9643.4402     -16968.95     
     93500   298.9719       979.30808      58424.841      1.0208656      2020.4533      4797.2136     -2776.7603      1757.8782      2368.8255      1482.1544     -1106.8075      9650.1707     -16966.182    
     94000   305.06455     -1489.4264      58234.155      1.0242084      2180.5735      4894.9744     -2714.4008      1807.6581      2443.2879      1480.0384     -1069.025       9558.1142     -16970.047    
     94500   303.32156      170.16785      57892.342      1.0302556      2133.4237      4867.0069     -2733.5831      1750.055       2405.1476      1524.5207     -1056.2652      9581.5352     -16977.599    
     95000   298.38392      187.58803      58536.373      1.0189205      2073.4919      4787.7791     -2714.2872      1709.6395      2484.0345      1475.3807     -1118.6655      9668.5004     -16968.168    
     95500   297.14011      810.89925      58488.516      1.0197542      1998.092       4767.8212     -2769.7292      1706.9372      2400.1391      1503.1331     -1053.2269      9613.725      -16977.615    
     96000   301.98044     -539.02289      58553.845      1.0186164      2082.771       4845.4877     -2762.7167      1770.6098      2365.2999      1502.4536     -1075.0612      9607.8204     -16968.148    
     96500   298.80341      893.57033      58570.641      1.0183243      2003.7897      4794.5101     -2790.7204      1711.193       2385.1191      1495.955      -1104.4515      9656.8607     -16969.494    
     97000   294.69268     -130.74987      58545.444      1.0187626      1978.3253      4728.5505     -2750.2252      1784.5733      2339.5424      1508.8171     -1066.029       9610.2718     -16964.859    
     97500   297.2103      -167.82386      58298.23       1.0230827      1990.302       4768.9475     -2778.6455      1751.8017      2360.601       1516.1941     -1139.665       9658.0536     -16963.593    
     98000   296.83811     -349.46589      58304.517      1.0229723      1930.6796      4762.9754     -2832.2958      1722.7251      2383.0602      1504.6739     -1087.2733      9585.7384     -16975.909    
     98500   299.62729     -1097.3374      58349.151      1.0221898      2006.4638      4807.7298     -2801.266       1785.279       2321.5247      1509.7906     -1049.9432      9570.4488     -16973.524    
     99000   297.78608      701.56862      58271.338      1.0235548      2030.4407      4778.1863     -2747.7456      1771.7634      2403.6684      1480.4669     -1082.1873      9617.5871     -16973.377    
     99500   304.70473     -886.49834      58098.042      1.0266079      2157.3621      4889.2008     -2731.8387      1701.3595      2511.0389      1475.0883     -1096.4833      9616.5304     -16976.138    
    100000   305.10716     -1102.1673      58542.48       1.0188142      2092.0447      4895.6581     -2803.6134      1748.9554      2388.9475      1498.9748     -1128.7193      9624.5216     -16971.875    
    100500   302.78023     -337.71609      58328.333      1.0225547      2123.4703      4858.3209     -2734.8506      1726.0073      2452.0757      1483.928      -1097.6483      9642.5248     -16976.358    
    101000   297.31424      43.225538      58403.683      1.0212354      2023.6546      4770.6152     -2746.9606      1735.4136      2400.0573      1520.6942     -1133.678       9658.9114     -16966.47     
    101500   297.02831     -70.218847      58070.351      1.0270974      1950.262       4766.0272     -2815.7652      1753.9         2379.9527      1491.9167     -1077.9808      9575.6996     -16974.515    
    102000   296.25131     -129.16685      58278.177      1.0234347      2065.3562      4753.5599     -2688.2037      1781.5245      2472.5217      1473.3701     -1076.9639      9598.4373     -16973.501    
    102500   301.79851      738.53283      58373.191      1.0217688      2074.7724      4842.5685     -2767.7962      1700.0515      2417.6606      1501.774      -1024.105       9577.068      -16974.884    
    103000   299.04025      222.11285      58048.468      1.0274846      1972.1929      4798.3104     -2826.1175      1738.1198      2353.0707      1502.6851     -1104.2768      9621.3509     -16972.662    
    103500   293.00171      508.72115      58343.141      1.0222951      1892.0256      4701.4176     -2809.3921      1701.8352      2383.6825      1497.8617     -1075.21        9621.2635     -16976.125    
    104000   305.59274      515.48003      58354.133      1.0221025      2083.1368      4903.4496     -2820.3128      1705.115       2423.4898      1469.2119     -1045.7293      9567.2917     -16974.608    
    104500   304.17225     -79.048364      58875.896      1.0130446      2061.2824      4880.6568     -2819.3744      1738.4965      2361.2262      1492.2351     -1106.1424      9624.9274     -16965.884    
    105000   307.12205      393.53044      57972.989      1.0288224      2086.7909      4927.9884     -2841.1975      1731.5808      2423.4381      1491.6412     -1069.4446      9531.1738     -16984.812    
    105040   303.36354     -769.70136      57997.69       1.0283842      2103.4322      4867.6805     -2764.2482      1806.4764      2374.5923      1522.0688     -1098.6953      9576.9708     -16982.022    
Loop time of 17724.3 on 1 procs for 50000 steps with 5484 atoms

Performance: 0.244 ns/day, 98.468 hours/ns, 2.821 timesteps/s, 15.470 katom-step/s
98.7% CPU use with 1 MPI tasks x 1 OpenMP threads

MPI task timing breakdown:
Section |  min time  |  avg time  |  max time  |%varavg| %total
---------------------------------------------------------------
Pair    | 844.77     | 844.77     | 844.77     |   0.0 |  4.77
Bond    | 43.616     | 43.616     | 43.616     |   0.0 |  0.25
Kspace  | 73.47      | 73.47      | 73.47      |   0.0 |  0.41
Neigh   | 114.52     | 114.52     | 114.52     |   0.0 |  0.65
Comm    | 2.9874     | 2.9874     | 2.9874     |   0.0 |  0.02
Output  | 0.34819    | 0.34819    | 0.34819    |   0.0 |  0.00
Modify  | 16644      | 16644      | 16644      |   0.0 | 93.90
Other   |            | 0.6107     |            |       |  0.00

Nlocal:           5484 ave        5484 max        5484 min
Histogram: 1 0 0 0 0 0 0 0 0 0
Nghost:          17319 ave       17319 max       17319 min
Histogram: 1 0 0 0 0 0 0 0 0 0
Neighs:    1.91232e+06 ave 1.91232e+06 max 1.91232e+06 min
Histogram: 1 0 0 0 0 0 0 0 0 0

Total # of neighbors = 1912319
Ave neighs/atom = 348.70879
Ave special neighs/atom = 10.636032
Neighbor list builds = 202555
Dangerous builds = 0
unfix           w
unfix           muavg

# Written WITH coefficients: each stage reads the previous stage's data file, so
# the file has to be self-contained. `nocoeff` would force every downstream stage
# to re-derive the force field, and any drift between the two paths would be
# silent.
write_data      relaxed.data
System init for write_data ...
PPPM initialization ...
  using 12-bit tables for long-range coulomb
  G vector (1/distance) = 0.23838342
  grid = 15 15 15
  stencil order = 5
  estimated absolute RMS force accuracy = 0.021839951
  estimated relative force accuracy = 6.5770364e-05
  using double precision FFTW3
  3d grid and FFT values/proc = 8000 3375
Generated 36 of 36 mixed pair_coeff terms from arithmetic mixing rule
write_restart   relaxed.restart
System init for write_restart ...
PPPM initialization ...
  using 12-bit tables for long-range coulomb
  G vector (1/distance) = 0.23838342
  grid = 15 15 15
  stencil order = 5
  estimated absolute RMS force accuracy = 0.021839951
  estimated relative force accuracy = 6.5770364e-05
  using double precision FFTW3
  3d grid and FFT values/proc = 8000 3375
Generated 36 of 36 mixed pair_coeff terms from arithmetic mixing rule
Total wall time: 5:52:58
