LAMMPS (22 Jul 2025 - Update 1)
OMP_NUM_THREADS environment is not set. Defaulting to 1 thread.
  using 1 OpenMP thread(s) per MPI task
package gpu 1 neigh no
# iteration 2
# generated by aemwater -- do not edit; edit the template instead

units           real
atom_style      full
boundary        p p p

pair_style      lj/cut/coul/long 10.0 10.0
# GAFF2 is a Lorentz-Berthelot force field. The LAMMPS default for lj/cut is
# GEOMETRIC mixing, which silently changes every cross interaction.
pair_modify     mix arithmetic tail yes
kspace_style    pppm 0.0001
bond_style      harmonic
angle_style     harmonic
dihedral_style  charmm
improper_style  cvff
# Amber 1-4 scaling: LJ/2 and Coulomb/1.2. Applied here, so every CHARMM
# dihedral weight in the data file is 0.
special_bonds   lj 0.0 0.0 0.5 coul 0.0 0.0 0.8333333333

read_data       start.data
Reading data file ...
  orthogonal box = (0 0 0) to (25.138951 25.138951 25.138951)
  1 by 1 by 1 MPI processor grid
  reading atoms ...
  1933 atoms
  scanning bonds ...
  4 = max bonds/atom
  scanning angles ...
  6 = max angles/atom
  scanning dihedrals ...
  33 = max dihedrals/atom
  scanning impropers ...
  2 = max impropers/atom
  orthogonal box = (0 0 0) to (25.138951 25.138951 25.138951)
  1 by 1 by 1 MPI processor grid
  reading bonds ...
  1847 bonds
  reading angles ...
  3141 angles
  reading dihedrals ...
  4790 dihedrals
  reading impropers ...
  300 impropers
Finding 1-2 1-3 1-4 neighbors ...
  special bond factors lj:    0        0        0.5     
  special bond factors coul:  0        0        0.8333333333
     4 = max # of 1-2 neighbors
    12 = max # of 1-3 neighbors
    18 = max # of 1-4 neighbors
    22 = max # of special neighbors
  special bonds CPU = 0.002 seconds
  read_data CPU = 0.081 seconds
neighbor        2.0 bin
neigh_modify    delay 0 every 1 check yes
# The ghost-atom cutoff defaults to the pair cutoff + skin. Bonded partners must
# also be within it, and a stretched bond in a freshly packed cell can exceed it,
# which LAMMPS reports as a communication-cutoff warning before losing atoms.
comm_modify     cutoff 12.0

# Molecule IDs are assigned by the data writer in packing order: polymer chains
# first, then counterions, then any water added later. `<>` is LAMMPS's inclusive
# range operator.
group           polymer molecule <> 1 5
1590 atoms in group polymer
group           ions molecule <> 6 55
100 atoms in group ions
group           water type 9 10
243 atoms in group water

thermo          500
thermo_style    custom step temp press vol density etotal ke pe ebond eangle edihed evdwl ecoul elong
thermo_modify   flush yes

timestep        1.0
dump            traj all custom 1000 iter.lammpstrj id mol type q x y z
dump_modify     traj sort id

# ---------------------------------------------------------------- relax -------
# The newly inserted waters were placed in geometric voids, which is not the same
# as an energetically relaxed position. A short NVE/limit run absorbs the initial
# strain without letting any atom move far enough to cross a chain.
fix             nve_settle all nve/limit 0.05
fix             temp_settle all temp/rescale 10 300.0 300.0 10.0 1.0
run             5000

CITE-CITE-CITE-CITE-CITE-CITE-CITE-CITE-CITE-CITE-CITE-CITE-CITE

Your simulation uses code contributions which should be cited:

- GPU package (short-range, long-range and three-body potentials): doi:10.1016/j.cpc.2010.12.021, doi:10.1016/j.cpc.2011.10.012, doi:10.1016/j.cpc.2013.08.002, doi:10.1016/j.commatsci.2014.10.068, doi:10.1016/j.cpc.2016.10.020, doi:10.3233/APC200086

@Article{Brown11,
 author = {W. M. Brown and P. Wang and S. J. Plimpton and A. N. Tharrington},
 title = {Implementing Molecular Dynamics on Hybrid High Performance Computers---Short Range Forces},
 journal = {Comput.\ Phys.\ Commun.},
 year =    2011,
 volume =  182,
 pages =   {898--911},
 doi =     {10.1016/j.cpc.2010.12.021}
}

@Article{Brown12,
 author = {W. M. Brown and A. Kohlmeyer and S. J. Plimpton and A. N. Tharrington},
 title = {Implementing Molecular Dynamics on Hybrid High Performance Computers - Particle-Particle Particle-Mesh},
 journal = {Comput.\ Phys.\ Commun.},
 year =    2012,
 volume =  183,
 doi =     {10.1016/j.cpc.2011.10.012},
 pages =   {449--459}
}

@Article{Brown13,
 author = {W. M. Brown and Y. Masako},
 title = {Implementing Molecular Dynamics on Hybrid High Performance Computers---Three-Body Potentials},
 journal = {Comput.\ Phys.\ Commun.},
 year =    2013,
 volume =  184,
 pages =   {2785--2793},
 doi =     {10.1016/j.cpc.2013.08.002},
}

@Article{Trung15,
 author = {T. D. Nguyen and S. J. Plimpton},
 title = {Accelerating Dissipative Particle Dynamics Simulations for Soft Matter Systems},
 journal = {Comput.\ Mater.\ Sci.},
 year =    2015,
 doi =     {10.1016/j.commatsci.2014.10.068},
 volume =  100,
 pages =   {173--180}
}

@Article{Trung17,
 author = {T. D. Nguyen},
 title = {{GPU}-Accelerated {T}ersoff Potentials for Massively Parallel
    Molecular Dynamics Simulations},
 journal = {Comput.\ Phys.\ Commun.},
 year =    2017,
 doi =     {10.1016/j.cpc.2016.10.020},
 volume =  212,
 pages =   {113--122}
}

@inproceedings{Nikolskiy19,
 author = {V. Nikolskiy and V. Stegailov},
 title = {{GPU} Acceleration of Four-Site Water Models in {LAMMPS}},
 booktitle = {Proceedings of the International Conference on Parallel
    Computing (ParCo 2019), Prague, Czech Republic},
 doi =     {10.3233/APC200086},
 year =    2019
}

CITE-CITE-CITE-CITE-CITE-CITE-CITE-CITE-CITE-CITE-CITE-CITE-CITE

PPPM initialization ...
  using 12-bit tables for long-range coulomb
  G vector (1/distance) = 0.25694315
  grid = 12 12 12
  stencil order = 5
  estimated absolute RMS force accuracy = 0.015735977
  estimated relative force accuracy = 4.7388427e-05
  using double precision KISS FFT
  3d grid and FFT values/proc = 4913 1728
Generated 45 of 45 mixed pair_coeff terms from arithmetic mixing rule
Neighbor list info ...
  update: every = 1 steps, delay = 0 steps, check = yes
  max neighbors/atom: 2000, page size: 100000
  master list distance cutoff = 12
  ghost atom cutoff = 12
  binsize = 6, bins = 5 5 5
  1 neighbor lists, perpetual/occasional/extra = 1 0 0
  (1) pair lj/cut/coul/long/gpu, perpetual
      attributes: full, newton on
      pair build: full/bin
      stencil: full/bin/3d
      bin: standard
Per MPI rank memory allocation (min/avg/max) = 29.74 | 29.74 | 29.74 Mbytes
   Step          Temp          Press          Volume        Density         TotEng         KinEng         PotEng         E_bond        E_angle        E_dihed         E_vdwl         E_coul         E_long    
         0   0              1828.034       15886.984      1.1783449     -3201.1908      0             -3201.1908      596.84982      764.68185      488.27588     -434.6494       5685.6693     -10312.826    
       500   292.78358      992.04511      15886.984      1.1783449     -1740.3507      1686.1187     -3426.4694      678.21934      814.95694      498.41389     -237.27328      5122.835      -10316.44     
      1000   300            745.32028      15886.984      1.1783449     -1678.7011      1727.6775     -3406.3786      694.8719       788.33789      502.23823     -254.80892      5161.2623     -10310.755    
      1500   292.58456      1338.5733      15886.984      1.1783449     -1718.3043      1684.9725     -3403.2768      658.92301      802.66954      522.80572     -212.22823      5124.982      -10311.52     
      2000   295.24813      4081.5636      15886.984      1.1783449     -1674.0155      1700.3118     -3374.3273      652.88223      795.22529      500.32534     -179.52359      5149.697      -10304.112    
      2500   294.39912     -657.55366      15886.984      1.1783449     -1674.5956      1695.4224     -3370.0181      661.87879      777.27138      510.30721     -187.94018      5164.3856     -10308.274    
      3000   292.63944      2531.9578      15886.984      1.1783449     -1693.4187      1685.2886     -3378.7073      656.54457      787.85235      516.16586     -262.34444      5225.2922     -10314.896    
      3500   294.50699      1930.6397      15886.984      1.1783449     -1698.7876      1696.0436     -3394.8313      644.54446      775.2814       510.91002     -185.72544      5156.5233     -10307.992    
      4000   297.15078      11.235249      15886.984      1.1783449     -1705.6804      1711.2691     -3416.9494      668.75495      768.39501      490.50664     -243.84755      5195.2564     -10308.011    
      4500   292.15561      1467.0058      15886.984      1.1783449     -1642.2055      1682.5023     -3324.7078      672.85945      787.292        518.97838     -235.01419      5231.1774     -10313.272    
      5000   300            2229.3835      15886.984      1.1783449     -1626.2178      1727.6775     -3353.8953      660.68812      767.08084      526.19613     -208.49841      5191.2623     -10303.842    
Loop time of 33.5662 on 1 procs for 5000 steps with 1933 atoms

Performance: 12.870 ns/day, 1.865 hours/ns, 148.959 timesteps/s, 287.939 katom-step/s
99.8% CPU use with 1 MPI tasks x 1 OpenMP threads

MPI task timing breakdown:
Section |  min time  |  avg time  |  max time  |%varavg| %total
---------------------------------------------------------------
Pair    | 4.5009     | 4.5009     | 4.5009     |   0.0 | 13.41
Bond    | 4.4099     | 4.4099     | 4.4099     |   0.0 | 13.14
Kspace  | 3.2464     | 3.2464     | 3.2464     |   0.0 |  9.67
Neigh   | 20.463     | 20.463     | 20.463     |   0.0 | 60.96
Comm    | 0.55395    | 0.55395    | 0.55395    |   0.0 |  1.65
Output  | 0.035761   | 0.035761   | 0.035761   |   0.0 |  0.11
Modify  | 0.21544    | 0.21544    | 0.21544    |   0.0 |  0.64
Other   |            | 0.1403     |            |       |  0.42

Nlocal:           1933 ave        1933 max        1933 min
Histogram: 1 0 0 0 0 0 0 0 0 0
Nghost:          12531 ave       12531 max       12531 min
Histogram: 1 0 0 0 0 0 0 0 0 0
Neighs:              0 ave           0 max           0 min
Histogram: 1 0 0 0 0 0 0 0 0 0
FullNghs:  1.70045e+06 ave 1.70045e+06 max 1.70045e+06 min
Histogram: 1 0 0 0 0 0 0 0 0 0

Total # of neighbors = 1700452
Ave neighs/atom = 879.69581
Ave special neighs/atom = 9.7082256
Neighbor list builds = 204
Dangerous builds = 0
unfix           nve_settle
unfix           temp_settle

min_style       cg
minimize        1e-06 1e-06 20000 200000
PPPM initialization ...
  using 12-bit tables for long-range coulomb
  G vector (1/distance) = 0.25694315
  grid = 12 12 12
  stencil order = 5
  estimated absolute RMS force accuracy = 0.015735977
  estimated relative force accuracy = 4.7388427e-05
  using double precision KISS FFT
  3d grid and FFT values/proc = 4913 1728
Generated 45 of 45 mixed pair_coeff terms from arithmetic mixing rule
Per MPI rank memory allocation (min/avg/max) = 32.34 | 32.34 | 32.34 Mbytes
   Step          Temp          Press          Volume        Density         TotEng         KinEng         PotEng         E_bond        E_angle        E_dihed         E_vdwl         E_coul         E_long    
      5000   300            2229.3833      15886.984      1.1783449     -1626.2179      1727.6775     -3353.8954      660.68812      767.08084      526.19613     -208.49842      5191.2623     -10303.842    
      5357   300            699.4976       15886.984      1.1783449     -3443.2442      1727.6775     -5170.9217      200.01483      177.09628      320.88598     -370.36208      4815.5885     -10316.441    
Loop time of 2.66596 on 1 procs for 357 steps with 1933 atoms

99.7% CPU use with 1 MPI tasks x 1 OpenMP threads

Minimization stats:
  Stopping criterion = energy tolerance
  Energy initial, next-to-last, final = 
     -3353.89536287005  -5170.91771702573  -5170.92165897921
  Force two-norm initial, final = 1377.0382 4.9616443
  Force max component initial, final = 97.638134 1.3235157
  Final line search alpha, max atom move = 0.014438439 0.019109501
  Iterations, force evaluations = 357 714

MPI task timing breakdown:
Section |  min time  |  avg time  |  max time  |%varavg| %total
---------------------------------------------------------------
Pair    | 0.45655    | 0.45655    | 0.45655    |   0.0 | 17.13
Bond    | 0.7341     | 0.7341     | 0.7341     |   0.0 | 27.54
Kspace  | 0.52505    | 0.52505    | 0.52505    |   0.0 | 19.69
Neigh   | 0.82288    | 0.82288    | 0.82288    |   0.0 | 30.87
Comm    | 0.07117    | 0.07117    | 0.07117    |   0.0 |  2.67
Output  | 0          | 0          | 0          |   0.0 |  0.00
Modify  | 0.00011944 | 0.00011944 | 0.00011944 |   0.0 |  0.00
Other   |            | 0.05609    |            |       |  2.10

Nlocal:           1933 ave        1933 max        1933 min
Histogram: 1 0 0 0 0 0 0 0 0 0
Nghost:          12455 ave       12455 max       12455 min
Histogram: 1 0 0 0 0 0 0 0 0 0
Neighs:              0 ave           0 max           0 min
Histogram: 1 0 0 0 0 0 0 0 0 0
FullNghs:  1.70115e+06 ave 1.70115e+06 max 1.70115e+06 min
Histogram: 1 0 0 0 0 0 0 0 0 0

Total # of neighbors = 1701154
Ave neighs/atom = 880.05898
Ave special neighs/atom = 9.7082256
Neighbor list builds = 8
Dangerous builds = 0

fix             shake_all all shake 0.0001 20 0 b 9 a 14
Finding SHAKE clusters ...
       0 = # of size 2 clusters
       0 = # of size 3 clusters
       0 = # of size 4 clusters
      81 = # of frozen angles
  find clusters CPU = 0.001 seconds

# ---------------------------------------------------------------- NPT ---------
# Swelling is the point: the box must be free to expand as water goes in, so the
# uptake is measured at constant pressure, not constant volume.
fix             npt_swell all npt temp 300.0 300.0 100.0 iso 1.0 1.0 1000.0
run             25000
PPPM initialization ...
  using 12-bit tables for long-range coulomb
  G vector (1/distance) = 0.25694315
  grid = 12 12 12
  stencil order = 5
  estimated absolute RMS force accuracy = 0.015735977
  estimated relative force accuracy = 4.7388427e-05
  using double precision KISS FFT
  3d grid and FFT values/proc = 4913 1728
Generated 45 of 45 mixed pair_coeff terms from arithmetic mixing rule
Per MPI rank memory allocation (min/avg/max) = 32.14 | 32.14 | 32.14 Mbytes
   Step          Temp          Press          Volume        Density         TotEng         KinEng         PotEng         E_bond        E_angle        E_dihed         E_vdwl         E_coul         E_long    
      5357   313.12804      73.453685      15886.984      1.1783449     -3618.0016      1727.6775     -5345.6791      50.260956      152.09275      320.88598     -370.36208      4815.5885     -10316.441    
      5500   163.75823      2684.3144      15822.174      1.1831716     -3065.7802      903.53268     -3969.3129      367.72287      467.55242      436.6106      -393.74879      5461.2627     -10316.925    
      6000   293.68161     -2282.1479      16304.54       1.1481677     -1676.4017      1620.3822     -3296.7839      503.56659      709.85933      499.98432     -346.24556      5625.6144     -10300.125    
      6500   293.16669      2233.0432      16163.506      1.158186      -1726.2668      1617.5411     -3343.808       480.94933      718.94028      489.54893     -333.82013      5591.1991     -10301.084    
      7000   298.80026      641.55163      16177.452      1.1571876     -1639.1232      1648.6243     -3287.7475      511.30245      745.31992      504.63555     -352.36265      5603.6319     -10313.438    
      7500   311.81003      798.39852      16048.582      1.1664798     -1529.1741      1720.4054     -3249.5795      509.09122      755.47572      508.0567      -336.3402       5607.5735     -10305.115    
      8000   297.16396      1700.0364      16178.724      1.1570966     -1589.4899      1639.596      -3229.086       535.97756      741.85         515.20936     -340.09063      5608.7195     -10302.946    
      8500   300.36151      88.604103      16166.556      1.1579675     -1670.3187      1657.2385     -3327.5572      485.42657      767.6705       500.89755     -372.56427      5587.7965     -10309.621    
      9000   296.57498     -2827.8523      16221.863      1.1540195     -1639.5001      1636.3463     -3275.8464      507.53134      779.09991      503.21326     -335.33767      5568.4542     -10310.547    
      9500   305.92176      457.28781      15979.274      1.1715392     -1637.4714      1687.917      -3325.3884      527.5056       731.72321      487.15446     -352.59742      5574.4627     -10305.559    
     10000   294.57383      1403.9615      15954.221      1.1733789     -1622.0549      1625.3051     -3247.36        543.59267      757.78257      501.49536     -322.82771      5584.3538     -10323.419    
     10500   305.73655      731.43337      16026.003      1.1681232     -1586.0667      1686.8951     -3272.9618      540.21059      768.91954      510.2172      -399.10746      5606.7755     -10312.245    
     11000   306.83759     -304.41938      16137.498      1.1600526     -1538.7507      1692.9701     -3231.7208      569.62507      759.53584      502.76717     -368.85737      5605.2898     -10311.992    
     11500   301.91546     -949.85024      15832.034      1.1824348     -1595.0312      1665.8123     -3260.8436      570.81729      785.55103      505.6143      -362.91751      5543.5095     -10315.728    
     12000   299.413       -5087.0951      16084.339      1.1638866     -1613.1763      1652.005      -3265.1814      578.17627      770.08023      504.73182     -416.18127      5599.6632     -10313.038    
     12500   291.77357      995.71161      15858.926      1.1804297     -1666.6571      1609.8547     -3276.5117      548.20152      750.49546      505.51451     -333.55574      5550.1606     -10309.198    
     13000   297.94361      1875.946       16055.103      1.166006      -1666.4632      1643.8977     -3310.3609      530.13905      760.46474      476.86462     -346.12251      5575.6964     -10318.93     
     13500   300.51003     -1266.765       15987.353      1.1709472     -1638.4754      1658.0579     -3296.5333      559.29027      722.49524      484.52496     -364.53984      5603.3751     -10312.294    
     14000   300.10661     -1611.938       16067.069      1.1651377     -1607.2085      1655.8321     -3263.0406      550.54727      784.71617      488.17153     -397.03095      5610.5475     -10311.854    
     14500   301.55462      604.31209      16137.123      1.1600796     -1575.5477      1663.8214     -3239.3691      544.84612      777.21572      498.39929     -335.61143      5572.5393     -10308.017    
     15000   307.1397       3165.3384      15820.37       1.1833065     -1575.1214      1694.637      -3269.7583      570.84334      765.78486      500.66439     -338.40022      5533.9371     -10315.746    
     15500   300.34313      662.91552      16063.676      1.1653837     -1637.2607      1657.1371     -3294.3978      527.10333      775.77113      496.44159     -397.65543      5605.655      -10314.817    
     16000   300.42666     -11.779766      16017.157      1.1687684     -1678.8458      1657.5979     -3336.4437      529.805        762.4647       479.94692     -360.61085      5558.2848     -10317.865    
     16500   280.67497     -557.01693      16027.859      1.167988      -1703.2572      1548.6184     -3251.8756      561.55397      786.41064      495.73946     -359.3885       5567.9704     -10316.545    
     17000   300.6818      -2478.8603      16043.979      1.1668145     -1671.6271      1659.0056     -3330.6327      529.42887      770.94873      490.98329     -350.63832      5533.8481     -10315.735    
     17500   292.6839      -318.32641      16079.174      1.1642605     -1624.3618      1614.8774     -3239.2392      568.71203      792.28069      505.11693     -334.65048      5524.2554     -10307.017    
     18000   304.28838      492.75622      16026.026      1.1681216     -1658.2279      1678.9049     -3337.1328      515.3866       770.69506      496.75019     -381.21653      5561.8466     -10313.135    
     18500   301.15059      162.97276      15757.211      1.1880495     -1705.107       1661.5922     -3366.6991      540.40171      735.39156      480.30599     -340.37103      5518.8078     -10312.719    
     19000   291.03365     -1680.6491      16079.475      1.1642387     -1735.9548      1605.7722     -3341.727       593.18296      764.08626      479.25887     -378.601        5505.7774     -10315.025    
     19500   303.51023      2414.3912      16006.119      1.1695744     -1616.578       1674.6114     -3291.1894      564.77022      777.95189      501.12694     -376.94758      5533.9991     -10303.533    
     20000   301.60349      488.63744      15869.751      1.1796245     -1620.285       1664.0911     -3284.3761      566.79751      768.81435      480.26365     -392.83832      5596.7475     -10313.928    
     20500   287.4771       908.9434       16005.804      1.1695974     -1703.5602      1586.149      -3289.7091      530.64708      777.9001       518.57944     -334.77153      5518.3895     -10313.033    
     21000   291.79835     -2176.5007      15987.465      1.1709391     -1696.3869      1609.9914     -3306.3783      555.51559      773.25029      491.69275     -357.76013      5525.4916     -10305.58     
     21500   293.07419      684.06006      16044.615      1.1667682     -1723.2116      1617.0308     -3340.2424      535.26757      755.61444      503.68853     -343.92309      5505.8044     -10309.031    
     22000   295.59852     -923.52198      15899.064      1.1774496     -1659.1706      1630.9588     -3290.1294      560.70017      770.02372      493.53051     -357.79804      5541.0704     -10308.152    
     22500   301.83684     -2113.7023      16037.694      1.1672718     -1636.3491      1665.3785     -3301.7277      584.67962      755.68151      479.81421     -352.20489      5528.2591     -10309.352    
     23000   304.03158     -2508.5512      15979.2        1.1715447     -1620.1289      1677.488      -3297.6169      570.02734      775.77664      481.66432     -354.67886      5529.8291     -10311.891    
     23500   298.49773     -633.50063      15970.971      1.1721483     -1681.8918      1646.9551     -3328.8469      513.07245      774.40825      513.84597     -380.29517      5553.0036     -10316.227    
     24000   295.79655     -2290.3317      15954.132      1.1733855     -1665.2973      1632.0514     -3297.3486      536.82567      782.36037      518.20425     -399.07722      5562.5952     -10311.608    
     24500   311.63418     -1427.0057      16124.216      1.1610082     -1578.4702      1719.4352     -3297.9054      580.30341      790.59026      483.56101     -376.16244      5520.843      -10308.322    
     25000   296.25435      160.7394       15834.904      1.1822204     -1622.9532      1634.5773     -3257.5305      588.03728      786.97948      501.52286     -345.03902      5515.8467     -10316.385    
     25500   305.31727     -1730.9544      15956.992      1.1731752     -1616.3841      1684.5818     -3300.9658      573.63111      787.13682      491.89878     -362.76428      5516.1915     -10319.383    
     26000   302.54873      1353.09        15982.601      1.1712954     -1630.1124      1669.3064     -3299.4188      588.34071      750.44703      489.47669     -318.21834      5496.4142     -10317.305    
     26500   300.83924      896.03908      15976.278      1.1717589     -1682.8781      1659.8743     -3342.7523      529.87939      766.34892      489.91789     -300.42057      5469.4213     -10308.866    
     27000   311.35793     -113.7445       16094.217      1.1631723     -1547.1248      1717.911      -3265.0358      557.63865      820.17778      492.4628      -317.82925      5474.5902     -10303.645    
     27500   298.96902      1567.998       15856.637      1.1806        -1680.909       1649.5554     -3330.4644      541.21003      777.20848      505.10483     -344.10895      5489.0263     -10310.554    
     28000   295.61935     -329.07683      16052.007      1.1662309     -1712.1082      1631.0737     -3343.1819      558.10859      743.11722      498.30437     -371.09234      5526.2759     -10310.539    
     28500   287.15233     -1683.2317      15822.856      1.1831206     -1746.2008      1584.3571     -3330.5578      603.57191      744.99425      474.96175     -344.72514      5489.3997     -10308.985    
     29000   295.33037     -770.92791      16161.049      1.1583621     -1665.5861      1629.4792     -3295.0654      562.72398      792.30871      477.35442     -320.69965      5492.8455     -10310.552    
     29500   302.43322      2104.9728      15887.762      1.1782872     -1654.9737      1668.6691     -3323.6428      566.13678      749.71611      491.80909     -361.03969      5532.1161     -10313.74     
     30000   305.12753      249.30079      15979.527      1.1715207     -1612.1866      1683.5349     -3295.7214      551.91829      780.44491      496.83258     -376.15336      5550.2313     -10311.579    
     30357   291.86116      2198.8982      15902.879      1.1771672     -1694.3023      1610.3379     -3304.6402      556.77057      753.13034      494.20818     -341.19361      5524.0099     -10303.521    
Loop time of 198.55 on 1 procs for 25000 steps with 1933 atoms

Performance: 10.879 ns/day, 2.206 hours/ns, 125.913 timesteps/s, 243.389 katom-step/s
99.8% CPU use with 1 MPI tasks x 1 OpenMP threads

MPI task timing breakdown:
Section |  min time  |  avg time  |  max time  |%varavg| %total
---------------------------------------------------------------
Pair    | 28.497     | 28.497     | 28.497     |   0.0 | 14.35
Bond    | 26.976     | 26.976     | 26.976     |   0.0 | 13.59
Kspace  | 16.468     | 16.468     | 16.468     |   0.0 |  8.29
Neigh   | 106.79     | 106.79     | 106.79     |   0.0 | 53.79
Comm    | 2.8445     | 2.8445     | 2.8445     |   0.0 |  1.43
Output  | 0.16546    | 0.16546    | 0.16546    |   0.0 |  0.08
Modify  | 15.997     | 15.997     | 15.997     |   0.0 |  8.06
Other   |            | 0.8102     |            |       |  0.41

Nlocal:           1933 ave        1933 max        1933 min
Histogram: 1 0 0 0 0 0 0 0 0 0
Nghost:          12514 ave       12514 max       12514 min
Histogram: 1 0 0 0 0 0 0 0 0 0
Neighs:              0 ave           0 max           0 min
Histogram: 1 0 0 0 0 0 0 0 0 0
FullNghs:  1.69862e+06 ave 1.69862e+06 max 1.69862e+06 min
Histogram: 1 0 0 0 0 0 0 0 0 0

Total # of neighbors = 1698624
Ave neighs/atom = 878.75013
Ave special neighs/atom = 9.7082256
Neighbor list builds = 1075
Dangerous builds = 0

variable        dens equal density
variable        vol_ equal vol
fix             avg all ave/time 500 10 5000 v_dens v_vol_ file density.dat
run             25000
PPPM initialization ...
  using 12-bit tables for long-range coulomb
  G vector (1/distance) = 0.25691423
  grid = 12 12 12
  stencil order = 5
  estimated absolute RMS force accuracy = 0.015751523
  estimated relative force accuracy = 4.7435243e-05
  using double precision KISS FFT
  3d grid and FFT values/proc = 4913 1728
Generated 45 of 45 mixed pair_coeff terms from arithmetic mixing rule
Per MPI rank memory allocation (min/avg/max) = 32.14 | 32.14 | 32.14 Mbytes
   Step          Temp          Press          Volume        Density         TotEng         KinEng         PotEng         E_bond        E_angle        E_dihed         E_vdwl         E_coul         E_long    
     30357   291.86116      2190.9983      15902.879      1.1771672     -1694.301       1610.3379     -3304.639       556.77057      753.13034      494.20818     -341.19361      5522.8843     -10302.394    
     30500   301.54183     -1400.4763      15944.009      1.1741305     -1671.1208      1663.7508     -3334.8716      568.65307      775.78722      483.84479     -349.39911      5486.4552     -10310.683    
     31000   299.87747      1608.6253      16005.836      1.1695951     -1656.5549      1654.5677     -3311.1226      560.63001      786.61623      496.43538     -326.97095      5469.2236     -10308.138    
     31500   314.9283      -131.41604      16020.216      1.1685453     -1603.119       1737.6104     -3340.7295      556.80994      748.63612      486.23054     -356.04792      5514.873      -10302.956    
     32000   288.93226     -157.30305      15913.388      1.1763898     -1769.4809      1594.1778     -3363.6587      549.43677      731.2989       493.25886     -348.92722      5504.587      -10305.371    
     32500   294.51235     -2178.8228      16023.222      1.168326      -1701.9175      1624.9658     -3326.8833      566.37904      769.79826      473.71942     -379.0476       5533.5226     -10301.564    
     33000   292.77629     -1316.3994      15932.128      1.175006      -1682.7402      1615.3871     -3298.1273      581.97998      762.79946      499.57779     -336.92207      5486.7515     -10302.579    
     33500   302.62162     -2828.6518      16011.84       1.1691565     -1638.5971      1669.7085     -3308.3056      597.55494      768.72219      475.82365     -352.90705      5499.3589     -10309.055    
     34000   306.65902      721.84989      15976.147      1.1717686     -1639.9405      1691.9849     -3331.9254      576.8619       763.35983      476.61692     -359.68831      5502.5603     -10303.061    
     34500   306.70031      748.83672      15960.099      1.1729468     -1599.2495      1692.2126     -3291.4621      558.26052      751.26167      512.12494     -323.02752      5507.9656     -10308.956    
     35000   300.11253     -4229.9752      15884.881      1.1785009     -1682.1103      1655.8647     -3337.975       588.71998      762.35258      486.33316     -352.60968      5471.5743     -10305.76     
     35500   299.18752     -3226.5338      16164.777      1.158095      -1680.9232      1650.761      -3331.6842      566.19785      766.10848      484.05423     -364.82852      5510.9234     -10304.658    
     36000   297.62018      231.99158      16028.531      1.167939      -1704.9917      1642.1132     -3347.1049      563.33059      732.4113       486.36808     -393.77395      5557.221      -10304.664    
     36500   294.73457     -1157.2539      16046.589      1.1666247     -1699.6895      1626.1919     -3325.8814      583.03722      782.44909      470.68182     -380.83126      5517.9274     -10309.774    
     37000   297.64239     -1132.1614      15948.659      1.1737881     -1708.7115      1642.2358     -3350.9472      565.15815      772.7201       479.81829     -357.56571      5490.394      -10312.12     
     37500   302.28559      615.35564      15928.073      1.1753052     -1652.6562      1667.8545     -3320.5107      575.20083      760.43457      499.37724     -352.1429       5484.7115     -10302.149    
     38000   297.6048      -745.73724      16024.25       1.168251      -1672.5333      1642.0284     -3314.5617      578.40703      775.47951      489.02051     -361.91063      5498.807      -10305.382    
     38500   300.30947      3292.6189      15934.299      1.1748459     -1698.585       1656.9513     -3355.5363      540.83714      765.29507      469.45524     -326.27982      5493.926      -10311.159    
     39000   302.19531      3295.396       15950.314      1.1736663     -1695.0186      1667.3564     -3362.375       541.87551      751.02727      487.36491     -323.99576      5480.8447     -10311.771    
     39500   301.15111      676.02963      15870.362      1.1795791     -1685.1358      1661.595      -3346.7308      545.74793      761.75993      497.9156      -370.93058      5514.2286     -10308.012    
     40000   306.57196     -1794.5222      15974.534      1.1718869     -1542.8158      1691.5045     -3234.3203      602.92131      771.07254      493.77339     -418.8246       5608.1716     -10303.737    
     40500   298.82832     -1330.4598      16020.512      1.1685236     -1655.6898      1648.7791     -3304.4688      569.25062      762.11645      490.24516     -350.0133       5518.9396     -10306.468    
     41000   306.69216      187.78414      15989.305      1.1708043     -1606.1019      1692.1677     -3298.2696      568.46228      769.52778      491.13822     -378.37052      5536.865      -10298.131    
     41500   287.39204      1082.273       15911.286      1.1765452     -1774.8597      1585.6797     -3360.5394      542.66368      755.52994      480.80562     -363.5428       5514.8429     -10301.567    
     42000   296.6468      -936.8332       16015.524      1.1688876     -1691.1584      1636.7426     -3327.901       544.20828      749.59196      497.31729     -383.88155      5555.004      -10301.667    
     42500   296.56054     -2700.9958      16122.22       1.161152      -1663.3299      1636.2666     -3299.5966      561.51775      784.55022      505.05615     -342.96177      5481.9        -10300.141    
     43000   302.40568     -366.76377      15974.175      1.1719132     -1656.387       1668.5171     -3324.9041      556.17742      769.39609      477.77778     -357.436        5522.5896     -10303.619    
     43500   290.67083     -2041.0017      16145.144      1.1595032     -1747.6879      1603.7703     -3351.4582      545.27133      746.82432      491.00794     -356.07445      5513.6351     -10302.923    
     44000   299.67951     -1567.8898      15980.228      1.1714693     -1703.1191      1653.4755     -3356.5946      544.31364      773.40435      483.87382     -348.8595       5478.7497     -10299.484    
     44500   293.42528      1055.3358      15998.594      1.1701245     -1649.21        1618.9679     -3268.1779      592.76068      769.41286      483.69958     -383.62721      5563.8433     -10305.875    
     45000   298.63935      4135.3112      15858.335      1.1804736     -1631.7026      1647.7365     -3279.4391      524.00836      803.5231       497.78665     -373.86164      5560.6824     -10302.24     
     45500   297.19947      967.66204      16137.666      1.1600406     -1615.5578      1639.7919     -3255.3498      543.46836      794.24921      507.63268     -333.25606      5523.2496     -10303.781    
     46000   299.62827      3941.9192      15954.775      1.1733382     -1685.442       1653.1928     -3338.6349      540.67223      731.02807      503.30506     -327.86077      5510.5422     -10309.252    
     46500   303.92935      905.36109      16018.951      1.1686375     -1628.4853      1676.9239     -3305.4092      569.77828      753.59055      493.21731     -317.04952      5482.2322     -10298.479    
     47000   311.40614      170.18021      15985.628      1.1710736     -1569.4894      1718.177      -3287.6664      535.46371      809.40927      498.91434     -385.52338      5551.6518     -10308.895    
     47500   302.92866     -1109.3881      15996.959      1.1702441     -1629.5467      1671.4026     -3300.9493      562.92131      773.25981      476.17827     -372.9503       5557.721      -10308.029    
     48000   293.72233      667.35445      15950.822      1.1736289     -1658.6555      1620.6069     -3279.2625      577.80997      802.36595      488.25964     -391.29153      5540.2705     -10309.159    
     48500   294.78636      3251.9526      15811.047      1.1840042     -1714.7151      1626.4777     -3341.1927      540.38174      757.04202      485.4842      -370.44312      5549.9194     -10313.049    
     49000   290.30067     -3002.1798      16015.801      1.1688673     -1727.3887      1601.728      -3329.1167      587.01519      750.98733      469.44963     -352.17705      5516.5747     -10310.906    
     49500   299.91398     -902.58074      16005.962      1.1695859     -1659.7348      1654.7692     -3314.504       591.22593      727.64786      495.05146     -387.51565      5550.8132     -10302.202    
     50000   305.64067     -1119.1109      15989.748      1.1707718     -1604.1825      1686.3661     -3290.5486      562.7624       803.8329       486.09349     -371.54834      5523.4674     -10306.868    
     50500   294.8493       338.28168      15907.898      1.1767958     -1669.8098      1626.8249     -3296.6348      548.65329      781.09022      484.10935     -336.11186      5524.4624     -10310.937    
     51000   301.67211     -1849.2774      15917.007      1.1761223     -1693.1761      1664.4697     -3357.6458      553.84353      755.28811      504.58521     -374.18168      5500.0646     -10311.414    
     51500   297.89503      2489.9556      16138.525      1.1599788     -1644.6251      1643.6297     -3288.2548      535.53538      796.57784      493.92654     -354.15974      5538.6364     -10310.532    
     52000   303.60621     -1466.2563      16087.73       1.1636413     -1601.632       1675.141      -3276.773       549.76329      803.88165      486.36685     -360.69237      5546.0108     -10313.1      
     52500   303.89797     -836.03345      16043.163      1.1668738     -1636.7357      1676.7508     -3313.4865      518.52502      789.18259      490.12863     -368.26581      5552.5303     -10307.867    
     53000   296.29933     -1272.2519      16060.421      1.16562       -1675.6846      1634.8254     -3310.51        561.22711      779.12836      496.80914     -343.05234      5487.1191     -10303.931    
     53500   297.0691      -882.03894      15923.894      1.1756136     -1691.2902      1639.0727     -3330.3628      554.13303      770.80211      484.24701     -358.72499      5514.6203     -10307.426    
     54000   296.40196      929.44568      16176.51       1.157255      -1667.1694      1635.3917     -3302.5611      536.78942      767.23182      488.80482     -353.99509      5549.6437     -10301.988    
     54500   312.0685       1227.2054      15946.765      1.1739276     -1512.3709      1721.8315     -3234.2024      602.29748      809.98327      493.31521     -331.61154      5493.1728     -10312.61     
     55000   301.44349      149.33454      16057.187      1.1658547     -1655.5986      1663.2082     -3318.8068      568.94601      754.45611      509.71479     -371.04437      5516.0577     -10310.768    
     55357   296.7543      -782.68312      16010.691      1.1692404     -1663.9501      1637.3357     -3301.2859      584.60551      769.67149      489.39186     -345.19708      5497.3456     -10308.777    
Loop time of 196.364 on 1 procs for 25000 steps with 1933 atoms

Performance: 11.000 ns/day, 2.182 hours/ns, 127.314 timesteps/s, 246.099 katom-step/s
99.8% CPU use with 1 MPI tasks x 1 OpenMP threads

MPI task timing breakdown:
Section |  min time  |  avg time  |  max time  |%varavg| %total
---------------------------------------------------------------
Pair    | 27.776     | 27.776     | 27.776     |   0.0 | 14.14
Bond    | 26.818     | 26.818     | 26.818     |   0.0 | 13.66
Kspace  | 16.603     | 16.603     | 16.603     |   0.0 |  8.46
Neigh   | 105.3      | 105.3      | 105.3      |   0.0 | 53.63
Comm    | 2.8391     | 2.8391     | 2.8391     |   0.0 |  1.45
Output  | 0.16428    | 0.16428    | 0.16428    |   0.0 |  0.08
Modify  | 16.056     | 16.056     | 16.056     |   0.0 |  8.18
Other   |            | 0.8081     |            |       |  0.41

Nlocal:           1933 ave        1933 max        1933 min
Histogram: 1 0 0 0 0 0 0 0 0 0
Nghost:          12379 ave       12379 max       12379 min
Histogram: 1 0 0 0 0 0 0 0 0 0
Neighs:              0 ave           0 max           0 min
Histogram: 1 0 0 0 0 0 0 0 0 0
FullNghs:  1.68787e+06 ave 1.68787e+06 max 1.68787e+06 min
Histogram: 1 0 0 0 0 0 0 0 0 0

Total # of neighbors = 1687872
Ave neighs/atom = 873.18779
Ave special neighs/atom = 9.7082256
Neighbor list builds = 1051
Dangerous builds = 0

# ------------------------------------------------------------- chemical pot ---
# Widom insertion of a test water into the swollen membrane, to be compared with
# the same quantity in bulk water. The comparison is only meaningful if both
# sides use identical cutoff, kspace accuracy and water model -- see bulk.in.j2.
#
# The test particle is inserted but never kept, so this measures the free energy
# the *next* water would pay, which is exactly the saturation question.
molecule        h2o h2o.mol
Read molecule template h2o:
# Rigid water for Widom test insertions.
  1 molecules
  0 fragments
  0 bodies
  3 atoms with max type 10
  2 bonds with max type 9
  1 angles with max type 14
  0 dihedrals with max type 0
  0 impropers with max type 0
fix             w all widom 100 400 0 87233 300.0 mol h2o full_energy
WARNING: Molecule attributes do not match system attributes
For more information see https://docs.lammps.org/err0026 (src/molecule.cpp:3634)
variable        muex equal f_w[1]
variable        boltz equal f_w[2]
variable        wvol equal f_w[3]
# Preserve one observation per Widom burst.  Python groups this raw time series
# into contiguous blocks; averaging a whole block here leaves only n_blocks
# values and makes the effective-sample-size diagnostic impossible.
fix             muavg all ave/time 100 1 100 v_muex v_boltz v_wvol file mu.dat
run             50000
PPPM initialization ...
  using 12-bit tables for long-range coulomb
  G vector (1/distance) = 0.2567187
  grid = 12 12 12
  stencil order = 5
  estimated absolute RMS force accuracy = 0.015856945
  estimated relative force accuracy = 4.7752718e-05
  using double precision KISS FFT
  3d grid and FFT values/proc = 4913 1728
Generated 45 of 45 mixed pair_coeff terms from arithmetic mixing rule
0 atoms in group FixWidom:widom_exclusion_group:w
0 atoms in group FixWidom:rotation_gas_atoms:w
WARNING: Neighbor exclusions used with KSpace solver may give inconsistent Coulombic energies (src/neighbor.cpp:671)
Per MPI rank memory allocation (min/avg/max) = 32.15 | 32.15 | 32.15 Mbytes
   Step          Temp          Press          Volume        Density         TotEng         KinEng         PotEng         E_bond        E_angle        E_dihed         E_vdwl         E_coul         E_long    
     55357   296.7543      -803.28708      16010.691      1.1692404     -1663.9485      1637.3357     -3301.2842      584.60551      769.67149      489.39186     -345.19708      5489.7337     -10301.163    
     55500   310.9328       3614.4842      15881.921      1.1787206     -1623.555       1715.5653     -3339.1203      542.58195      779.86251      486.60392     -335.84535      5484.9012     -10307.89     
     56000   300.33288     -3964.7631      16125.87       1.1608891     -1580.6069      1657.0805     -3237.6874      624.21937      780.27539      495.35626     -361.39678      5514.5256     -10301.122    
     56500   304.12915     -1973.5984      16119.702      1.1613333     -1579.5169      1678.0263     -3257.5432      578.21583      813.8895       492.43469     -346.0584       5491.7481     -10300.209    
     57000   296.78594      1301.8457      15943.447      1.1741719     -1674.9639      1637.5103     -3312.4742      577.55622      770.87915      497.47187     -336.08865      5473.0055     -10306.376    
     57500   294.48296     -2290.072       16076.675      1.1644415     -1686.5282      1624.8037     -3311.3318      560.72721      782.89992      477.54187     -368.60505      5528.279      -10303.7      
     58000   310.06111     -1740.5553      16101.231      1.1626655     -1646.1389      1710.7558     -3356.8946      576.66046      756.53189      486.61668     -421.76944      5536.0736     -10302.483    
     58500   298.66408     -767.1211       15952.074      1.1735368     -1636.5511      1647.8729     -3284.4241      607.84729      783.92857      486.16497     -355.85045      5484.9649     -10304.152    
     59000   289.49489     -348.31564      16028.379      1.1679501     -1748.5455      1597.2821     -3345.8276      551.68072      760.82643      475.9245      -332.96551      5491.5768     -10305.59     
     59500   287.40966     -1185.316       15860.767      1.1802926     -1738.0052      1585.7769     -3323.7821      549.30147      782.8159       498.83528     -382.20195      5518.5854     -10303.556    
     60000   296.36838     -2681.818       16219.492      1.1541882     -1673.6877      1635.2064     -3308.8942      572.63459      804.53117      492.80024     -415.26278      5521.9414     -10297.651    
     60500   304.20472      282.71367      16018.502      1.1686703     -1708.4015      1678.4432     -3386.8447      539.09896      772.65461      471.75678     -362.06793      5482.0059     -10300.849    
     61000   303.46806      228.66114      16142.182      1.159716      -1613.3976      1674.3788     -3287.7764      583.34028      781.93412      480.21621     -375.83897      5531.7467     -10299.555    
     61500   311.34556      1757.7949      15956.386      1.1732197     -1576.909       1717.8427     -3294.7517      573.81481      803.625        487.11073     -386.33147      5517.7627     -10301.455    
     62000   306.60532      2270.6402      16036.021      1.1673935     -1594.8158      1691.6885     -3286.5043      553.77135      754.94311      499.77531     -345.5951       5541.4961     -10301.713    
     62500   294.90364     -2538.8349      16132.947      1.1603799     -1648.2446      1627.1247     -3275.3693      596.13483      759.94996      484.46083     -372.15776      5544.5437     -10300.169    
     63000   299.97647      1144.5235      15877.232      1.1790687     -1697.9294      1655.114      -3353.0434      532.69456      754.41435      507.66047     -356.72996      5499.0212     -10301.908    
     63500   299.09025     -734.5995       16017.205      1.1687649     -1653.1059      1650.2243     -3303.3302      565.33058      774.5581       481.16418     -348.16835      5518.934      -10305.701    
     64000   304.16095      691.51636      16076.952      1.1644214     -1573.5485      1678.2018     -3251.7502      573.3907       791.30936      503.45413     -345.89677      5509.4581     -10295.436    
     64500   296.21038     -69.466029      16075.171      1.1645504     -1631.54        1634.3347     -3265.8747      583.80984      770.32623      484.2541      -314.85547      5496.7304     -10297.07     
     65000   304.94111      78.693888      16003.46       1.1697687     -1676.614       1682.5063     -3359.1203      552.77816      756.42395      469.96407     -339.56359      5489.3745     -10299.116    
     65500   305.48519      3903.7474      16039.067      1.1671718     -1682.6246      1685.5082     -3368.1328      508.19451      768.74407      464.41645     -327.67703      5505.1303     -10297.107    
     66000   295.00188     -56.605544      16100.947      1.1626861     -1721.2886      1627.6668     -3348.9554      532.65466      757.92603      503.93814     -326.83745      5465.2003     -10294.751    
     66500   299.96108      1305.5219      15897.976      1.1775302     -1668.8923      1655.0291     -3323.9214      535.0701       764.22624      501.11954     -320.00465      5483.1375     -10299.151    
     67000   302.19494      1143.6924      16045.395      1.1667115     -1718.5812      1667.3544     -3385.9356      541.47593      745.76131      464.12777     -335.1521       5486.7995     -10298.157    
     67500   287.07643      1589.3848      16023.451      1.1683093     -1715.026       1583.9383     -3298.9643      520.20052      774.20728      516.01807     -331.31659      5517.453      -10307.398    
     68000   305.32292      2631.2166      16040.454      1.1670709     -1652.8057      1684.6129     -3337.4186      503.03551      774.60732      488.53408     -320.84226      5498.9555     -10293.258    
     68500   299.75751     -3229.882       16161.24       1.1583484     -1656.8453      1653.9059     -3310.7512      544.6993       786.36379      486.09924     -330.24476      5487.2578     -10297.471    
     69000   290.30967      2688.1579      15973.041      1.1719964     -1687.5076      1601.7776     -3289.2853      533.85186      784.46386      479.00923     -292.91796      5500.2731     -10305.408    
     69500   303.09586     -684.99262      16173.293      1.1574852     -1610.5091      1672.3252     -3282.8342      549.81463      802.38499      481.35129     -392.0253       5562.9468     -10297.826    
     70000   298.41616     -3137.6407      16035.338      1.1674433     -1709.692       1646.505      -3356.197       541.39659      771.59959      481.23473     -402.78782      5539.9682     -10299.265    
     70500   285.78953      199.74836      16128.17       1.1607235     -1731.4414      1576.8378     -3308.2793      535.71513      778.27341      471.39394     -353.8985       5543.9435     -10295.033    
     71000   301.1526       522.89114      16072.716      1.1647283     -1639.3504      1661.6033     -3300.9537      552.80814      742.42276      510.33361     -359.02552      5534.6337     -10295.362    
     71500   295.73984      720.43954      16056.782      1.1658841     -1653.4344      1631.7385     -3285.1729      562.47724      768.24812      488.7108      -309.12839      5493.7401     -10302.359    
     72000   304.79415      1161.058       16138.572      1.1599754     -1703.6233      1681.6954     -3385.3188      498.77991      764.29333      462.90817     -361.4756       5540.144      -10299.655    
     72500   296.63493      408.20953      16075.383      1.1645351     -1648.0481      1636.6771     -3284.7252      550.11076      751.15123      491.48375     -392.75535      5598.4938     -10296.33     
     73000   292.28235     -635.48663      16178.367      1.1571222     -1629.4046      1612.6618     -3242.0665      580.48435      769.7821       492.99376     -340.29106      5541.272      -10297.447    
     73500   317.17696      486.41667      16045.394      1.1667115     -1549.6669      1750.0174     -3299.6843      543.01374      753.43619      496.87652     -422.34163      5631.9369     -10313.373    
     74000   296.90196      2490.8608      15959.568      1.1729858     -1704.54        1638.1505     -3342.6905      547.99677      739.39925      497.21284     -323.29443      5479.3034     -10295.292    
     74500   297.7935      -2704.7941      16185.674      1.1565997     -1677.1322      1643.0695     -3320.2017      567.31182      770.34722      482.84376     -356.12439      5503.8944     -10300.449    
     75000   293.94007      1076.8064      16118.568      1.161415      -1710.594       1621.8083     -3332.4022      542.05049      756.74735      467.21007     -341.40088      5530.7981     -10297.552    
     75500   294.908        290.23983      16109.548      1.1620653     -1672.366       1627.1488     -3299.5148      549.13912      765.7298       476.41048     -324.89772      5514.1683     -10289.891    
     76000   303.36251      555.88179      15984.553      1.1711524     -1635.2304      1673.7964     -3309.0269      583.26195      762.10418      459.5368      -324.03751      5496.5727     -10297.719    
     76500   292.90744      304.7793       16106.766      1.162266      -1689.8685      1616.1108     -3305.9793      558.07585      771.4688       476.69838     -330.98841      5507.4105     -10300.119    
     77000   299.08527     -2719.8503      16064.926      1.1652931     -1727.9546      1650.1968     -3378.1514      531.19329      779.72955      471.9966      -374.85329      5503.233      -10300.523    
     77500   302.01619     -1982.2332      16040.849      1.1670422     -1680.694       1666.3681     -3347.0621      583.10533      739.12458      478.31233     -387.81452      5528.3094     -10299.029    
     78000   306.51424      932.37846      16207.316      1.1550554     -1604.2952      1691.186      -3295.4812      582.88378      761.97614      482.84867     -350.08049      5516.2582     -10301.783    
     78500   310.958        2493.0785      16092.798      1.1632748     -1653.6218      1715.7043     -3369.3262      554.25869      742.65899      474.81719     -378.43938      5526.8868     -10299.916    
     79000   299.10422      834.69713      15978.256      1.1716139     -1703.0655      1650.3013     -3353.3668      551.19662      734.65595      490.59574     -325.87411      5489.6625     -10305.433    
     79500   301.86041      1889.3233      15869.201      1.1796654     -1676.4576      1665.5086     -3341.9662      551.05097      774.22488      483.43736     -363.52713      5501.5102     -10300.009    
     80000   299.93967     -1166.0497      16171.955      1.157581      -1609.7286      1654.9109     -3264.6396      571.24893      803.40743      470.4966      -368.0649       5546.722      -10299.235    
     80500   294.42004      830.92219      15909.813      1.1766541     -1766.3178      1624.4565     -3390.7743      524.22542      742.36497      492.21876     -346.28349      5483.604      -10298.337    
     81000   296.91891      2436.4166      16070.649      1.1648781     -1686.7945      1638.2439     -3325.0385      537.51073      792.38173      484.17691     -308.38248      5450.72       -10293.335    
     81500   300.4567      -2225.6178      15966.125      1.1725041     -1648.0568      1657.7637     -3305.8205      574.97672      766.76445      498.58734     -397.75202      5533.1428     -10292.533    
     82000   305.58464      464.42456      16098.103      1.1628915     -1666.5602      1686.057      -3352.6172      518.45079      762.60445      492.92529     -406.66865      5569.1418     -10301.128    
     82500   294.24734     -1871.9375      15909.733      1.17666       -1737.9293      1623.5036     -3361.4329      543.31         764.92877      495.85836     -360.57642      5490.1308     -10307.795    
     83000   295.90855     -2203.2073      16037.773      1.167266      -1679.4528      1632.6694     -3312.1222      558.10206      788.87977      465.59423     -401.80517      5565.7708     -10301.711    
     83500   303.15256      2155.5455      16000.281      1.1700011     -1656.4722      1672.638      -3329.1102      527.53124      751.07817      478.98068     -349.12821      5554.4411     -10303.367    
     84000   299.17057      831.33999      16044.225      1.1667966     -1621.9246      1650.6675     -3272.5921      578.63952      777.34597      479.18598     -349.55533      5537.9        -10306.919    
     84500   300.93244      4539.547       15946.04       1.1739809     -1676.0795      1660.3885     -3336.468       520.69051      760.85005      493.22184     -328.85155      5508.8988     -10303        
     85000   299.12606     -486.25484      16132.36       1.1604221     -1695.3578      1650.4218     -3345.7796      558.1123       779.87623      463.22918     -400.70143      5544.5054     -10301.282    
     85500   307.17459      368.3443       15973.967      1.1719285     -1627.5034      1694.8295     -3322.3329      591.84913      752.10404      496.08885     -386.6507       5510.3955     -10298.334    
     86000   312.18585     -1915.2401      16077.98       1.164347      -1584.8652      1722.479      -3307.3442      568.68858      783.09492      481.81552     -365.16606      5508.8489     -10296.366    
     86500   290.6064       1377.7665      15937.157      1.1746353     -1641.6718      1603.4148     -3245.0866      578.18085      835.90395      498.2321      -324.06836      5458.4373     -10303.456    
     87000   302.01828     -1511.6646      16229.82       1.1534538     -1639.2065      1666.3797     -3305.5861      569.17092      755.83995      477.51806     -333.21328      5517.6215     -10303.795    
     87500   302.4196      -1508.6203      16065.641      1.1652412     -1670.4074      1668.5939     -3339.0013      568.3833       742.39129      489.5552      -344.80548      5492.945      -10299.365    
     88000   287.58182     -2198.6901      16123.763      1.1610408     -1733.9993      1586.7268     -3320.7261      549.00284      776.44681      476.59821     -391.37677      5558.0355     -10300.23     
     88500   299.23441     -1022.9237      16068.339      1.1650456     -1711.9356      1651.0197     -3362.9553      559.52218      746.4699       473.10016     -366.91391      5513.3518     -10299.23     
     89000   307.12019      41.748001      16267.797      1.150761      -1618.0412      1694.5293     -3312.5706      576.46835      749.20929      465.48954     -389.92839      5570.4228     -10295.384    
     89500   302.45222     -751.20586      15978.528      1.1715939     -1657.2125      1668.7739     -3325.9864      565.41366      751.17553      488.1813      -336.67399      5495.7753     -10301.38     
     90000   297.27147      1342.5389      16155.715      1.1587446     -1645.0171      1640.1892     -3285.2063      553.02903      771.47406      490.25106     -368.60927      5560.775      -10303.33     
     90500   289.92831     -1174.7818      16115.728      1.1616197     -1776.7606      1599.6735     -3376.4341      560.33154      736.61248      485.70189     -349.41955      5478.9739     -10300.286    
     91000   302.95498     -2671.5027      16062.992      1.1654334     -1642.2488      1671.5478     -3313.7967      587.3505       741.66989      480.49512     -368.64262      5531.3947     -10298.956    
     91500   301.17189     -2629.3331      16165.257      1.1580606     -1698.3419      1661.7097     -3360.0516      546.65462      744.68789      475.64159     -350.76882      5509.4826     -10297.064    
     92000   304.45052      1410.4682      15997.804      1.1701823     -1652.6759      1679.7995     -3332.4753      533.2512       777.4017       477.22258     -317.43423      5489.1205     -10303.28     
     92500   297.51932     -1991.0688      16158.481      1.1585462     -1560.8264      1641.5567     -3202.3831      617.71496      786.82434      501.14924     -335.73639      5520.2318     -10305.305    
     93000   309.63585      143.44681      15989.996      1.1707537     -1688.2606      1708.4094     -3396.67        531.11875      757.30356      465.31904     -332.54001      5470.9216     -10299.958    
     93500   296.43984      1186.3664      16085.152      1.1638278     -1718.1714      1635.6007     -3353.7721      519.89883      740.76519      513.34923     -350.93285      5512.3929     -10302.065    
     94000   292.47803     -1375.5513      15978.178      1.1716196     -1753.3786      1613.7415     -3367.1201      569.76473      734.55261      478.45369     -346.15011      5486.0514     -10300.633    
     94500   295.49149      999.60936      16139.433      1.1599135     -1667.4748      1630.3682     -3297.843       557.70952      755.15456      490.09556     -327.99184      5511.617      -10295.687    
     95000   304.38694     -890.20349      16093.601      1.1632168     -1632.8703      1679.4487     -3312.3189      575.57909      761.46796      497.23633     -382.25693      5525.2621     -10301.315    
     95500   292.44777      854.76505      16026.799      1.1680652     -1715.1845      1613.5746     -3328.759       578.3208       760.92897      504.2469      -376.14156      5486.9129     -10296.234    
     96000   289.85744      2840.3486      15995.222      1.1703712     -1770.1326      1599.2824     -3369.4151      547.49668      742.44955      488.60251     -295.52982      5442.8589     -10306.049    
     96500   300.11225     -1163.8545      16115.38       1.1616448     -1655.0881      1655.8631     -3310.9512      554.033        783.17681      502.29548     -351.75609      5486.5348     -10297.54     
     97000   299.39912      1349.4466      16109.522      1.1620672     -1677.5602      1651.9285     -3329.4887      539.24095      803.96658      475.33477     -351.34883      5486.0919     -10294.798    
     97500   302.05648      4595.8784      16018.571      1.1686652     -1659.977       1666.5904     -3326.5675      534.22463      746.40536      510.20911     -279.60909      5450.0193     -10299.908    
     98000   317.16504      2003.2807      16064.835      1.1652997     -1543.8708      1749.9516     -3293.8223      569.17041      755.20871      504.65476     -339.47763      5499.4906     -10294.97     
     98500   286.84025      1674.0645      16040.5        1.1670675     -1718.5472      1582.6351     -3301.1823      571.08677      763.06599      481.48001     -323.29681      5490.5617     -10296.218    
     99000   294.78337     -480.30366      16043.695      1.1668351     -1702.23        1626.4612     -3328.6912      554.31162      776.59011      480.09454     -376.52573      5518.1541     -10292.952    
     99500   306.20408     -2161.6242      16135.605      1.1601887     -1600.3259      1689.4747     -3289.8006      584.52493      786.13928      499.33858     -398.1742       5524.3722     -10297.931    
    100000   298.94899      2240.816       16113.687      1.1617668     -1584.1213      1649.4449     -3233.5662      577.90283      797.25587      516.34196     -285.64528      5449.9451     -10302.213    
    100500   292.64121      426.25199      16061.203      1.1655632     -1712.6923      1614.6418     -3327.3341      581.65029      756.83136      469.75709     -343.40481      5497.0048     -10300.611    
    101000   308.32575     -520.2559       16202.294      1.1554134     -1703.7227      1701.181      -3404.9037      553.44109      722.17068      470.45946     -367.20616      5505.7492     -10300.086    
    101500   291.13848      1517.1418      15994.346      1.1704353     -1632.1491      1606.3506     -3238.4997      581.27208      833.27567      496.44936     -362.64598      5497.2185     -10296.601    
    102000   301.36275      2300.4423      15982.844      1.1712776     -1625.297       1662.7628     -3288.0597      589.71384      755.73733      480.77969     -344.14507      5516.6262     -10299.342    
    102500   301.36488     -338.70497      16120.448      1.1612796     -1663.2173      1662.7745     -3325.9918      543.10185      780.59762      484.57027     -379.73136      5534.5628     -10301.008    
    103000   299.26431      3594.5618      16025.642      1.1681495     -1668.439       1651.1847     -3319.6236      550.47728      762.07562      496.99846     -291.05547      5457.5649     -10306.266    
    103500   300.51646      1506.4958      16035.358      1.1674418     -1634.5113      1658.0934     -3292.6047      576.30736      734.39163      491.78985     -313.56105      5504.1611     -10296.383    
    104000   292.99768     -1694.0325      16155.754      1.1587418     -1697.8965      1616.6087     -3314.5052      580.9515       764.89142      475.49632     -386.9302       5539.4315     -10298.576    
    104500   295.33865     -891.2858       16055.451      1.1659807     -1696.913       1629.5249     -3326.4379      550.22406      789.46741      482.19758     -379.05286      5514.2874     -10294.762    
    105000   289.41659      2576.8287      15975.353      1.1718268     -1656.678       1596.8501     -3253.528       577.75485      785.18543      484.60517     -343.37745      5525.5725     -10294.553    
    105357   298.15467     -1535.2749      16166.728      1.1579552     -1712.4265      1645.0622     -3357.4887      561.54867      743.79703      503.2323      -404.05928      5526.814      -10301.022    
Loop time of 37560.7 on 1 procs for 50000 steps with 1933 atoms

Performance: 0.115 ns/day, 208.671 hours/ns, 1.331 timesteps/s, 2.573 katom-step/s
100.0% CPU use with 1 MPI tasks x 1 OpenMP threads

MPI task timing breakdown:
Section |  min time  |  avg time  |  max time  |%varavg| %total
---------------------------------------------------------------
Pair    | 62.466     | 62.466     | 62.466     |   0.0 |  0.17
Bond    | 52.097     | 52.097     | 52.097     |   0.0 |  0.14
Kspace  | 30.845     | 30.845     | 30.845     |   0.0 |  0.08
Neigh   | 408.71     | 408.71     | 408.71     |   0.0 |  1.09
Comm    | 5.5528     | 5.5528     | 5.5528     |   0.0 |  0.01
Output  | 0.33194    | 0.33194    | 0.33194    |   0.0 |  0.00
Modify  | 32.412     | 32.412     | 32.412     |   0.0 |  0.09
Other   |            | 3.697e+04  |            |       | 98.42

Nlocal:           1933 ave        1933 max        1933 min
Histogram: 1 0 0 0 0 0 0 0 0 0
Nghost:          12391 ave       12391 max       12391 min
Histogram: 1 0 0 0 0 0 0 0 0 0
Neighs:              0 ave           0 max           0 min
Histogram: 1 0 0 0 0 0 0 0 0 0
FullNghs:  1.67242e+06 ave 1.67242e+06 max 1.67242e+06 min
Histogram: 1 0 0 0 0 0 0 0 0 0

Total # of neighbors = 1672420
Ave neighs/atom = 865.194
Ave special neighs/atom = 9.7082256
Neighbor list builds = 202873
Dangerous builds = 0
unfix           w
unfix           muavg

# Written WITH coefficients: each stage reads the previous stage's data file, so
# the file has to be self-contained. `nocoeff` would force every downstream stage
# to re-derive the force field, and any drift between the two paths would be
# silent.
write_data      relaxed.data
System init for write_data ...
PPPM initialization ...
  using 12-bit tables for long-range coulomb
  G vector (1/distance) = 0.25643782
  grid = 12 12 12
  stencil order = 5
  estimated absolute RMS force accuracy = 0.016009453
  estimated relative force accuracy = 4.8211993e-05
  using double precision KISS FFT
  3d grid and FFT values/proc = 4913 1728
Generated 45 of 45 mixed pair_coeff terms from arithmetic mixing rule
write_restart   relaxed.restart
System init for write_restart ...
PPPM initialization ...
  using 12-bit tables for long-range coulomb
  G vector (1/distance) = 0.25643782
  grid = 12 12 12
  stencil order = 5
  estimated absolute RMS force accuracy = 0.016009453
  estimated relative force accuracy = 4.8211993e-05
  using double precision KISS FFT
  3d grid and FFT values/proc = 4913 1728
Generated 45 of 45 mixed pair_coeff terms from arithmetic mixing rule
Total wall time: 10:33:12
