LAMMPS data file via write_data, version 22 Jul 2025, timestep = 105357, units = real

1933 atoms
10 atom types
1847 bonds
9 bond types
3141 angles
14 angle types
4790 dihedrals
10 dihedral types
300 impropers
1 improper types

-0.07334712084561801 25.212298120845865 xlo xhi
-0.07334712084561801 25.212298120845865 ylo yhi
-0.07334712084561801 25.212298120845865 zlo zhi

Masses

1 12.01
2 12.01
3 14.01
4 1.008
5 1.008
6 1.008
7 15.9994
8 1.008
9 15.9994
10 1.008

Pair Coeffs # lj/cut/coul/long/gpu

1 0.1078 3.39771
2 0.0988 3.31521
3 3.8748 2.49951
4 0.0208 2.60018
5 0.0161 2.62548
6 0.0208 1.88746
7 0.1553 3.166
8 0 0
9 0.1553 3.166
10 0 0

Bond Coeffs # harmonic

1 228.89 1.5354
2 243.91 1.5147
3 354.25 1.3986
4 215.86 1.5167
5 345.25 1.0962
6 360.69 1.086
7 352.86 1.0911
8 553 0.98
9 553 1

Angle Coeffs # harmonic

1 60.33 112.42
2 59.87 112.63
3 60.74 120.83
4 63.67 120.02
5 63.53 115.67
6 76.02 109.36
7 43.27 109.68
8 43.61 110.63
9 44.9 119.88
10 43.48 111.41
11 46.79 108.17
12 35.8 107.73
13 35.63 109.79
14 100 109.47

Dihedral Coeffs # charmm

1 0.24 2 180 0
2 0.52 3 0 0
3 3.625 2 180 0
4 0.155556 3 0 0
5 0 2 0 0
6 0.7 2 0 0
7 0.156 3 0 0
8 0.13 3 0 0
9 0 1 0 0
10 0.12 3 0 0

Improper Coeffs # cvff

1 1.1 -1 2

Atoms # full

399 2 5 0.137136 4.512783550516722 5.433012725416244 4.211363823649953 3 1 -1
844 3 6 0.102614 4.619295140903627 4.378269453964752 6.018020287292694 3 2 -2
461 2 5 0.137136 4.018329552108076 2.6309140094985572 2.7012021585714145 3 1 -1
472 2 6 0.102614 5.501584697315603 4.232839263821884 2.8142706874425576 3 1 -1
385 2 2 -0.120364 2.419028026195338 5.686188130086562 4.0150794851325715 3 1 -1
398 2 5 0.160636 2.229718847579767 4.916689010170097 4.787134269990717 3 1 -1
447 2 2 -0.120364 1.9667266092019773 2.397675078290025 2.2712468593095845 3 1 -1
460 2 5 0.160636 1.722355296802231 2.1888713470897057 3.3308600823175096 3 1 -1
448 2 2 -0.09836399999999999 3.291336486977482 2.604980262402581 1.9189586249431727 3 1 -1
446 2 2 -0.011164 0.9434208117454004 2.4694279563317814 1.2456348471942045 3 1 -1
464 2 6 0.102614 4.027498325940727 5.33884369788081 0.688370195746962 3 1 -1
1912 129 10 0.4238 0.5781669351198007 1.4378678485262404 5.7351830936096775 3 0 -1
1681 51 7 -1.32 24.86989902790328 2.785771871790513 6.041033165922419 1 1 -2
451 2 3 -0.6068 5.8658093770253315 4.300781586356591 0.5675545881578977 3 1 -1
463 2 6 0.100836 5.945202388358907 2.15066571162844 0.411870673886218 3 1 -1
449 2 2 -0.188164 3.709434838303307 2.828849848153407 0.6246167446883857 3 1 -1
428 2 4 0.069836 0.2983154412443523 4.922652879829433 1.588172629278952 3 1 -1
594 2 6 0.102614 3.5230974258174075 0.616380812336131 0.1159374415673883 3 1 -1
1682 51 8 0.32 24.649836793387557 3.0661875528675235 5.116183435675687 1 1 -2
386 2 2 -0.09836399999999999 3.77243778444704 5.985151265481718 3.7781411666025613 3 1 -1
1799 92 9 -0.8476 5.57849157751511 0.49294492659617417 3.2158590762986288 2 1 -2
1911 129 10 0.4238 0.3300990642274524 0.22987973718091648 4.6646914936279105 3 0 -1
1910 129 9 -0.8476 0.8715306512202572 0.5247320604059135 5.452061131295484 3 0 -1
1680 50 8 0.32 5.6797690634078535 0.4891879690262765 0.6105611664798788 3 1 -2
1874 117 9 -0.8476 5.453700849741966 2.845587679696961 4.656550225567613 3 0 -1
1875 117 10 0.4238 5.246704788306006 1.9493691683783796 4.264144717637744 3 0 -1
454 2 1 0.090236 6.345791721640961 4.108163176756335 2.030894270908623 3 1 -1
1876 117 10 0.4238 6.394731554534662 2.852036369468682 4.994864655968362 3 0 -1
471 2 6 0.102614 6.71309724095764 3.0393867000134795 2.2160385601885855 3 1 -1
470 2 6 0.102614 7.195749146447349 4.722458343442897 2.2945289692442508 3 1 -1
1867 114 10 0.4238 7.3737165984982695 1.4235808042365405 5.806274830392376 3 0 -1
1659 40 7 -1.32 7.943352522642636 2.866077063666106 5.601900435348632 1 2 -3
1660 40 8 0.32 8.193241587238402 3.101854636709149 4.648165228302919 1 2 -3
1924 133 10 0.4238 9.352045029902557 3.797891023526043 5.692652141858216 1 0 1
1922 133 9 -0.8476 10.23335947617712 4.250698665950438 5.557422262876696 1 0 1
1845 107 10 0.4238 11.900167581736213 2.381265320160576 3.1756739776104985 3 0 -1
1923 133 10 0.4238 10.901286477865188 3.586525217348769 5.221588735032236 1 0 1
1885 120 10 0.4238 7.725925885968748 0.8977287036235878 0.5207212038273833 2 0 -1
1883 120 9 -0.8476 8.578432749143152 1.3177728211458801 0.20954208219783083 2 0 -1
1798 91 10 0.4238 10.352839908263666 5.837134971796569 4.943535067901951 2 1 -2
405 2 6 0.102614 6.606095584426826 6.262052114613468 5.050616885881429 3 1 -1
407 2 6 0.102614 5.503076856301344 7.486649676399938 6.0070635453399515 3 1 -1
1800 92 10 0.4238 6.126770983769524 0.12099647532627114 2.466805607544172 2 1 -2
1801 92 10 0.4238 5.9729060939179215 0.20985611245257113 4.090121578679983 2 1 -2
1865 114 9 -0.8476 7.043972750560164 0.48208429335753056 5.876207410270701 3 0 -1
1844 107 9 -0.8476 12.00621349268365 2.760624329399784 4.094846455665024 3 0 -1
1846 107 10 0.4238 12.86030268771342 2.4291812317198986 4.495738274850792 3 0 -1
1761 79 10 0.4238 14.037139558280877 3.596743107142817 2.9923531651341326 2 1 -2
1760 79 9 -0.8476 14.126174018966292 4.080194718995675 2.121499890284407 2 1 -2
1698 58 10 0.4238 13.983271325636316 1.1603305955286956 3.4872846354987694 2 1 -2
1762 79 10 0.4238 14.215429585872664 3.416082190594483 1.379188634255351 2 1 -2
1689 55 7 -1.32 14.441746849595418 1.9922931543555817 4.636992734733934 2 -1 -1
1690 55 8 0.32 14.433483409828566 1.7105744725182643 5.59219744002881 2 -1 -1
376 2 6 0.102614 15.387146254381172 4.75799358634203 4.902830843044664 2 1 -1
375 2 6 0.102614 16.15985218207313 4.680393429282893 3.1885348477192075 2 1 -1
1810 95 10 0.4238 15.711599645283691 1.8157081646031337 3.693455800812473 2 1 -2
360 2 1 0.090236 16.201413910892295 4.477881012978039 4.299156268072367 2 1 -1
374 2 6 0.102614 16.58651357556613 3.4648948623671565 4.463560997787426 2 1 -1
358 2 3 -0.6068 17.32272292051485 5.389423053944394 4.748848712933346 2 1 -1
1808 95 9 -0.8476 16.50801529342078 1.617832212452544 3.1219625951436805 2 1 -2
1809 95 10 0.4238 16.24765933653332 0.9806986159772426 2.396488447850243 2 1 -2
500 2 6 0.102614 16.010731148901613 4.477730849284762 0.5169633810113893 2 1 -1
498 2 6 0.102614 17.481980515920846 4.252829767101199 1.4359068685303737 2 1 -1
1699 58 10 0.4238 14.34540902539351 0.40363826221193794 2.086214121498689 2 1 -2
1764 80 10 0.4238 14.006223885109904 1.490631216033517 0.6198486790852474 2 1 -2
484 2 1 0.090236 16.79796378655814 3.7578089413638107 0.7526161127994055 2 1 -1
1685 53 7 -1.32 15.656277271735664 0.10230274751152604 1.150980939634921 2 1 -2
1697 58 9 -0.8476 13.602214623341602 0.6930282101959938 2.6894990480759953 2 1 -2
1763 80 9 -0.8476 13.862863640250724 2.235685243420735 -0.031595387024449195 2 1 -2
493 2 6 0.100836 17.618604420238672 1.3619273132976781 0.15816907955897277 2 1 -1
499 2 6 0.102614 16.26226619438831 2.822390818373609 1.1649386044317576 2 1 -1
370 2 6 0.100836 18.394857786112958 5.074701730475673 2.9007749508059173 2 1 -1
357 2 1 0.188236 18.55494761805675 4.91096623743452 3.978867465320664 2 1 -1
369 2 6 0.100836 18.607492724752316 3.864384052769978 4.1681751341704345 2 1 -1
523 2 5 0.137136 18.33703329910128 1.7583221979657813 5.32587023580419 2 1 -1
492 2 5 0.137136 19.397288940611187 2.877577648678889 2.0017992319817157 2 1 -1
510 2 2 -0.09836399999999999 19.045028183314876 0.9245006528215373 5.429346427007025 2 1 -1
509 2 2 -0.120364 19.665000453301488 0.2686718688710738 4.287424139980054 2 1 -1
522 2 5 0.160636 19.36909701727479 0.6581844284305678 3.3409964509892136 2 1 -1
356 2 2 -0.188164 19.964043534086223 5.457052406819635 4.33214492026973 2 1 -1
368 2 5 0.137136 20.617946599710486 3.5800808954070833 5.117628483664668 2 1 -1
355 2 2 -0.09836399999999999 20.92721825827826 4.6454332499783195 4.929442910718082 2 1 -1
354 2 2 -0.120364 22.159185552730833 5.127591956573044 5.375678262047803 2 1 -1
520 2 4 0.046836 22.7118760082777 0.5361295105930355 4.0270828292915954 2 1 -1
457 2 4 0.046836 23.22707865357121 3.416230882152911 2.5771466833404033 2 1 -1
491 2 5 0.160636 21.440794269533985 1.9132874993693636 3.027856742473084 2 1 -1
476 2 1 -0.036264 23.233248225729753 0.15311201812768432 1.951863572659113 2 1 -1
478 2 2 -0.120364 21.23890597632477 1.8271158226691475 2.0057923336990444 2 1 -1
479 2 2 -0.09836399999999999 20.099813087745428 2.3420773461841273 1.4157660520443207 2 1 -1
477 2 2 -0.011164 22.11342469723045 0.9518731797015518 1.2407695231913165 2 1 -1
429 2 5 0.160636 21.957052388332283 5.219336126458138 0.993910684733184 2 1 -1
506 2 1 -0.07226399999999999 22.767202577910826 24.950954629527565 3.3193644411612095 2 0 -1
415 2 2 -0.011164 23.993424513372915 5.0846930451044186 0.42737803429148946 2 1 -1
1688 54 8 0.32 19.521733827143414 5.759062984452346 1.7910806269168764 4 2 1
427 2 4 0.046836 23.253210470172803 6.010125343594385 2.910517889790468 2 1 -1
1687 54 7 -1.32 18.815127120084178 6.200165491962343 1.227275944973788 4 2 1
246 1 6 0.102614 22.397724524927824 2.7122449168867875 6.344491061964833 2 1 -2
416 2 2 -0.120364 22.56422577950011 5.2390614715271075 0.14649114866975563 2 1 -1
444 2 1 -0.07226399999999999 24.294060470037554 3.426966776636743 2.4521695271283805 2 1 -1
459 2 4 0.069836 24.310778028989148 2.3034610470442827 0.5409081199445335 2 1 -1
414 2 1 -0.036264 24.59843156436319 4.8513463638245025 1.8107130806588012 2 1 -1
475 2 1 -0.07226399999999999 24.662155958316863 0.8969925958750699 1.9733282377436865 2 1 -1
489 2 4 0.046836 25.086351086339715 0.7960631115493508 2.9431161695269012 2 1 -1
397 2 4 0.069836 25.14962342597462 5.356630989509665 4.561506190927321 2 1 -1
458 2 4 0.046836 24.72970833763284 3.2687680466528124 3.4777758815797446 2 1 -1
445 2 1 -0.036264 24.755590854570055 2.341061471530237 1.5080594846997837 2 1 -1
488 2 4 0.046836 -0.015760235541841257 0.2760387182654068 1.2697241390871041 3 1 -1
413 2 1 -0.07226399999999999 24.325337740284347 6.07262161846652 2.704304912503045 2 1 -1
404 2 6 0.102614 4.674006095618692 9.612178437641086 3.905501979708228 3 1 -1
390 2 1 0.090236 5.629619337937965 9.526785924657894 4.382424208246231 3 1 -1
403 2 6 0.102614 5.379349223158039 9.514387243773195 5.3873314282207785 3 1 -1
387 2 2 -0.188164 4.2011381438404465 7.0959408505938635 3.05719204618355 3 1 -1
388 2 1 0.188236 5.632402889489265 7.443397773707718 2.882109652419203 3 1 -1
393 2 2 -0.09836399999999999 3.166887268461397 7.878994730506481 2.4447364917038352 3 1 -1
411 2 5 0.137136 3.4282226117792622 8.836431974854388 1.881108409934825 3 1 -1
620 2 6 0.102614 5.838188935883018 11.386465807182246 2.3230345864266266 3 0 -1
400 2 6 0.100836 6.208400912191693 6.47940526864837 2.834200324961847 3 1 -1
401 2 6 0.100836 5.715104445444583 8.07770063652185 1.9723496360881683 3 1 -1
1843 106 10 0.4238 1.9693276053404523 11.049926106128092 5.532651552951879 3 0 -1
394 2 2 -0.120364 1.8282492175792786 7.5412176709899725 2.7370980625688173 3 1 -1
622 2 6 0.102614 4.606249517782583 11.146839590004324 0.8724834632320158 3 0 -1
1868 115 9 -0.8476 1.8248616660358081 10.181098302781905 3.8696929757457235 3 0 -1
1869 115 10 0.4238 1.4817020251444601 10.512266392130472 2.990712490851218 3 0 -1
384 2 2 -0.011164 1.388611109619798 6.518271072115888 3.587081062108296 3 1 -1
1649 35 7 -1.32 1.0577830533214854 10.66082346173592 1.4547025448110613 2 1 -3
1650 35 8 0.32 1.1323161369006418 11.139831200803135 0.5669217997710116 2 1 -3
412 2 5 0.160636 1.0174627445373392 8.098880659504845 2.2903810326008185 3 1 -1
607 2 1 0.090236 5.263286208230284 11.82679633882266 1.4167088459335464 3 0 -1
1870 115 10 0.4238 1.8019636185734866 9.181408214268242 3.881203586008968 3 0 -1
396 2 4 0.046836 0.43520837788784905 7.9624699788299775 5.289653366501355 3 1 -1
627 2 6 0.102614 3.0299682164727764 11.631802052173727 2.5599974553819838 3 0 -1
626 2 6 0.102614 3.945073091685572 12.617708249050587 3.867620649659795 3 0 -1
402 2 6 0.102614 6.326103506728879 10.319531701689124 4.062619790243392 3 1 -1
389 2 3 -0.6068 6.257692290420876 8.14751579231031 4.034655281275499 3 1 -1
391 2 1 0.090236 6.332394540921867 7.317552199182953 5.345909061212409 3 1 -1
406 2 6 0.102614 7.257233888288109 7.609125870747201 5.925197358287485 3 1 -1
392 2 1 0.090236 7.7588772429577615 8.42933848779446 3.6518272138029033 3 1 -1
408 2 6 0.102614 7.7802798476891075 8.866575435589931 2.6707379638682345 3 1 -1
410 2 6 0.102614 8.178780762922528 9.122225948414204 4.355935553461995 3 1 -1
409 2 6 0.102614 8.407114011775992 7.530696615688634 3.699131618467347 3 1 -1
314 1 4 0.045503 9.951985273437183 9.744138163377276 5.204609841375237 2 0 -2
1 1 1 -0.07226399999999999 12.103186770797953 10.159433728569594 5.844329450757585 2 0 -2
16 1 4 0.046836 12.338667332791836 9.280131912939838 5.325088881154846 2 0 -2
1797 91 10 0.4238 11.334163485137195 7.037675358924315 4.431253807533861 2 1 -2
1796 91 9 -0.8476 10.38502937078339 6.78032026468738 4.612774725216757 2 1 -2
1199 4 6 0.102614 10.877159127716595 9.289641479062553 3.0073581784210828 1 1 -1
1180 4 3 -0.6068 11.971862611246824 11.03572391341718 2.1205246979937553 1 1 -1
1197 4 6 0.102614 10.627628446138699 11.457149243502652 3.6905138605480543 1 1 -1
1191 4 6 0.100836 10.062215878265896 10.869111557669799 0.9788846371231932 1 1 -1
1179 4 1 0.188236 11.087241139838213 11.206785687340156 0.8308074396328555 1 1 -1
1202 4 5 0.137136 10.680102088071434 8.677133340425423 0.18648703068396377 1 1 -1
1183 4 1 0.090236 11.868496950126746 9.626972719573551 2.612366630132232 1 1 -1
15 1 4 0.046836 12.518511941587294 10.956366499395191 5.220644267493166 2 0 -2
1201 4 6 0.102614 12.686935494272248 9.436241893685013 3.367558314271795 1 1 -1
1200 4 6 0.102614 12.072584410038553 8.997401383881742 1.7114770754230237 1 1 -1
1898 125 9 -0.8476 8.150310512805438 11.49258484019594 2.4862556409419794 3 0 -1
662 3 6 0.102614 7.721174163122163 10.438892640921047 24.96064664839952 3 1 -2
1255 4 6 0.100836 16.927990373601276 6.3719647034370706 0.13405915334563895 1 1 -1
1850 109 9 -0.8476 13.216630814422164 7.0305744830903905 4.069126876973923 2 0 -1
1852 109 10 0.4238 13.657871013485874 6.185133179163491 3.768173204869532 2 0 -1
1851 109 10 0.4238 13.868569629306988 7.786484456880297 4.009016398387258 2 0 -1
1257 4 6 0.102614 14.322168351998771 8.32020966080383 1.945610316268772 1 1 -1
1594 7 8 0.32 14.662614387548638 9.281903445131244 5.158705262375167 2 -1 -3
1593 7 7 -1.32 14.791951869324906 9.021515693379138 4.155282689469038 2 -1 -3
345 2 6 0.102614 15.87860721618868 11.082154332166239 3.0285686221029264 2 1 -1
377 2 6 0.102614 16.898608407534287 6.846606077053622 3.2381149921019037 2 1 -1
339 2 6 0.100836 16.890413354167286 9.765714723988797 4.723599508219167 2 1 -1
325 2 1 0.188236 17.31239270047454 10.517572599952722 5.413037469289593 2 1 -1
361 2 1 0.090236 16.947891512172593 6.789862460599038 4.333623247147081 2 1 -1
378 2 6 0.102614 16.033319656937167 7.03856790817543 4.813175649483442 2 1 -1
379 2 6 0.102614 17.716884666396425 7.492906693074883 4.659434500005879 2 1 -1
1261 4 6 0.102614 16.869541496116828 9.696147900239488 1.4214439242942098 1 1 -1
1259 4 6 0.102614 16.533466664943102 8.208840145209455 2.3978801856024474 1 1 -1
1258 4 6 0.102614 14.83163095881754 6.670348080108295 1.821789381965962 1 1 -1
1244 4 1 0.090236 16.817064707805212 8.607888972225949 1.4228369398006397 1 1 -1
1243 4 1 0.090236 14.600948355032278 7.531891322829758 1.1930087939166742 1 1 -1
1260 4 6 0.102614 17.76038611870623 8.171191898296211 1.2101367505047407 1 1 -1
326 2 3 -0.6068 17.32201034625241 11.76891949480285 4.450946939216635 2 1 -1
328 2 1 0.090236 15.927322439364954 11.911150078716549 3.7690690382856724 2 1 -1
1242 4 3 -0.6068 15.75125923863421 8.139123035085856 0.4656908986312118 1 1 -1
1181 4 1 0.090236 13.484696782424919 11.41826547841061 1.9437435164972858 1 1 -1
1256 4 6 0.102614 13.821204952427632 7.303385856356949 0.5286743667906619 1 1 -1
347 2 6 0.102614 18.405391425858415 10.601786457983291 2.9663761760695015 2 1 -1
1609 15 7 -1.32 17.14798674405619 11.65405588570185 0.5316094435935571 2 0 -1
1195 4 6 0.102614 14.106162382818953 10.821841904509672 2.6186828872642844 1 1 -1
1193 4 6 0.102614 13.792737107042177 11.210930778477323 0.9767176350887665 1 1 -1
329 2 1 0.090236 18.52088703745756 11.629231519209943 3.3930997045708278 2 1 -1
380 2 5 0.137136 19.62269871061559 7.515687260069133 3.5340550027641164 2 1 -1
1108 4 6 0.102614 19.698451548042293 9.665851351488222 1.9749839282281845 1 1 -1
362 2 2 -0.09836399999999999 20.239886598598275 6.829126104557937 4.128580998584855 2 1 -1
363 2 2 -0.120364 21.505312212466468 7.342737372435562 4.550969081367494 2 1 -1
381 2 5 0.160636 21.663561358071146 8.40424119718622 4.42643382390821 2 1 -1
353 2 2 -0.011164 22.394214166094393 6.487354794598132 5.252976226600872 2 1 -1
352 2 1 -0.036264 23.751334990436536 7.08850415206936 5.914518169064782 2 1 -1
273 1 6 0.102614 22.55545761820847 11.220666083726735 3.7311539724844254 2 0 -2
426 2 4 0.046836 24.520477341457983 6.997379384948173 2.121231631647854 2 1 -1
1105 4 6 0.102614 20.616340100569456 7.3774375124697436 1.4842538142069335 1 1 -1
1838 105 9 -0.8476 23.82745311856928 10.202705284946186 1.866247442837492 1 0 -2
1107 4 6 0.102614 20.970004958515375 10.649247844505844 1.6106307189684186 1 1 -1
1839 105 10 0.4238 23.297501943015877 10.903957463261978 1.389346116201836 1 0 -2
1090 4 1 0.090236 20.162102656616415 10.10767461573593 1.1090447625597888 1 1 -1
1089 4 1 0.090236 21.391201202253463 7.944186003041779 1.016505254676546 1 1 -1
1104 4 6 0.102614 22.108937344836246 8.324739493213611 1.7413806184870677 1 1 -1
1103 4 6 0.102614 22.022704491836336 7.332334918802185 0.41413833900322733 1 1 -1
364 2 4 0.046836 23.71795380906713 9.16020033208274 6.51192166094872 2 1 -1
1106 4 6 0.102614 19.39351222654104 10.648851894118467 0.5614696200727646 1 1 -1
1087 4 3 -0.6068 20.703173001383743 8.995225302871448 0.1988243657679754 1 1 -1
348 2 6 0.102614 19.513938514574257 11.818385473959856 3.807713069089283 2 1 -1
259 1 1 0.090236 22.3887528734104 12.270089414012235 4.020828158749402 2 0 -2
1099 4 6 0.100836 18.55542593899372 8.64775533062885 -0.05082414235456456 1 1 -1
1100 4 6 0.102614 22.67456913169665 9.71932662538236 25.00002028234689 1 1 -2
1634 27 8 0.32 23.389546861771617 12.082345844594172 0.07963240821457451 3 -1 -3
395 2 4 0.046836 24.389834930953754 8.188219455294222 4.182706813231088 2 1 -1
382 2 1 -0.07226399999999999 24.82921596863128 7.460005071318867 4.832506878041298 2 1 -1
1840 105 10 0.4238 24.803327389559616 10.36694192302883 1.7222570262042782 1 0 -2
383 2 1 -0.036264 25.19667967344839 6.28761754535306 3.99077390848331 2 1 -1
270 1 6 0.102614 24.299815112994494 11.235343569309405 5.8700483538723525 2 0 -2
277 1 6 0.102614 25.19002833392511 11.821504050309644 3.5470197566272232 2 0 -2
1039 4 6 0.102614 25.010642384356373 8.857290972940545 0.1976094874370936 1 1 -1
621 2 6 0.102614 5.945626640699244 12.155630125135751 0.6160759226241753 3 0 -1
624 2 6 0.102614 5.72232730031992 14.250211028098212 3.151644571548514 3 0 -1
623 2 6 0.102614 4.429262449701207 15.1227870509057 2.53711104007602 3 0 -1
609 2 1 0.090236 3.480478075889021 12.56376426237824 2.8623300739726165 3 0 -1
625 2 6 0.102614 5.85536859987949 14.733739317512919 1.4944821499890992 3 0 -1
608 2 1 0.090236 5.165096163420731 14.365210530998569 2.2814497447532935 3 0 -1
606 2 3 -0.6068 4.399982446190951 13.087439277142366 1.8130628248197402 3 0 -1
628 2 6 0.102614 2.668392505949964 13.266327247960147 2.909964345665207 3 0 -1
1787 88 9 -0.8476 4.327232771999859 16.158772637793298 4.522701981988982 2 0 -2
629 2 5 0.137136 3.772388988719563 16.0858647992553 0.7545041737339427 3 0 -1
611 2 2 -0.120364 1.7184304514153763 16.7435485144993 1.01734825188834 3 0 -1
610 2 2 -0.09836399999999999 2.745184911043422 15.784203417873064 0.7764968522920745 3 0 -1
605 2 1 0.188236 3.5930471418578236 13.411364661580723 0.6174060499089614 3 0 -1
604 2 2 -0.188164 2.4360868185498927 14.407383874197285 0.705921469532887 3 0 -1
603 2 2 -0.09836399999999999 1.1172135814921713 14.018280029440765 0.8374149305677954 3 0 -1
1789 88 10 0.4238 3.7018099870129277 15.411251737090229 4.7465230538584775 2 0 -2
1788 88 10 0.4238 5.254637857250876 15.913279189237489 4.8049958346846084 2 0 -2
630 2 5 0.160636 1.9617257043547802 17.802991329151286 1.027885242559464 3 0 -1
619 2 6 0.100836 3.092542340224068 12.42380683073788 0.42129494360985664 3 0 -1
617 2 5 0.137136 0.9049070038935433 12.962859815932283 0.8634808581567341 3 0 -1
981 4 6 0.102614 4.844609011183733 17.840147097339518 1.1226222737843754 2 1 -1
964 4 1 0.090236 5.655923331686455 17.50276817187373 0.37876714964809216 2 1 -1
253 1 2 -0.120364 0.6337894569187482 17.118545424971515 5.218358874137192 3 0 -2
278 1 6 0.102614 0.3100500098578922 13.552092249386952 3.872951861356768 3 0 -2
266 1 5 0.160636 1.344788589184274 17.65358242819211 4.4919164855264935 3 0 -2
1888 121 10 0.4238 4.111689429595199 18.075969753028218 3.4924710253432116 3 0 -1
618 2 6 0.100836 4.304741838970916 13.59771727230498 25.107353275426426 3 0 -2
979 4 6 0.102614 5.449418800980631 16.503077218034132 -0.0037252036517640558 2 1 -1
1900 125 10 0.4238 7.628314013428278 11.707581211579214 3.3116847010095616 3 0 -1
1892 123 9 -0.8476 6.721550065416438 12.413524807334673 4.696026184639672 3 0 -1
1192 4 6 0.100836 10.914205775209082 12.311002928712497 0.66711626635392 1 1 -1
1632 26 8 0.32 8.138192987317584 12.562170229592429 0.20949396449841712 3 -1 0
1903 126 10 0.4238 7.360483383049896 15.056093162029834 5.018346599386513 3 0 -1
1753 76 10 0.4238 8.031982220105895 13.943897651624312 2.5724848599478674 2 0 -2
1751 76 9 -0.8476 8.156552124302605 14.34998392967023 3.477809876733482 2 0 -2
90 1 6 0.102614 8.524021064984769 17.154588060037227 6.1232218903651825 2 0 -2
1805 94 9 -0.8476 11.237701040859784 15.181535557098517 3.613861388090333 2 0 -2
1806 94 10 0.4238 10.941614436133165 15.224400947489052 2.659643199851339 2 0 -2
1198 4 6 0.102614 12.171301800716343 12.211538365187947 3.785527416119134 1 1 -1
1752 76 10 0.4238 9.119869281411383 14.584625879346028 3.6081943863541444 2 0 -2
1182 4 1 0.090236 11.327950342792253 11.990646121310032 3.1499532008353457 1 1 -1
1860 112 10 0.4238 12.330619654188043 14.558220712357407 0.5658286788517438 3 0 -1
1196 4 6 0.102614 10.73606453911727 12.82294294775761 2.7476010063756884 1 1 -1
1899 125 10 0.4238 7.90381368133024 12.133799632245072 1.7595368561687497 3 0 -1
1631 26 7 -1.32 7.84972147863355 13.337014915414098 0.8050240314634232 3 -1 0
1864 113 10 0.4238 8.406003291615434 17.06045264170476 1.5384061615698372 3 0 -1
87 1 6 0.102614 11.36292327070972 17.386395070472346 4.71613341327177 2 0 -2
1855 110 10 0.4238 9.52224790309727 14.113949306200153 1.2036912918594762 3 0 -1
1854 110 10 0.4238 10.32156194381107 15.24843059013681 0.3430088541729385 3 0 -1
1853 110 9 -0.8476 10.412544012666844 14.54008638128914 1.0430144289247472 3 0 -1
1879 118 10 0.4238 11.619024648991887 16.869437560201533 0.371817790252484 3 0 -1
1705 60 10 0.4238 8.066355438535155 14.949382544879553 0.3425928433568871 2 0 -2
88 1 6 0.102614 9.97533209804416 18.263987786251462 4.096937695393018 2 0 -2
1901 126 9 -0.8476 6.679783290136441 15.518874252590395 5.58625332149403 3 0 -1
1703 60 9 -0.8476 8.42470500088692 15.842305990824068 0.06999324416993791 2 0 -2
1610 15 8 0.32 16.298031628447987 11.379836875306285 0.8936377172434617 2 0 -1
343 2 6 0.102614 15.063909335826212 11.770337218945974 4.5195264817389615 2 1 -1
1194 4 6 0.102614 13.706394586049823 12.468159265229376 2.017254345450717 1 1 -1
344 2 6 0.102614 15.88282463958058 12.900906985224216 3.32014837733766 2 1 -1
1861 112 10 0.4238 13.24769681375204 14.055330352959308 1.819940338924417 3 0 -1
1859 112 9 -0.8476 13.26251398014134 14.35402983882956 0.8656887529138877 3 0 -1
1807 94 10 0.4238 12.082528966615085 14.650220722750655 3.6771678849642053 2 0 -2
179 1 6 0.102614 14.315443326799697 16.666343307473873 4.355108182520977 2 0 -2
1671 46 7 -1.32 13.529518233180655 13.944270410741039 3.750187505443637 2 0 -3
1672 46 8 0.32 13.474936244532072 13.350885285115954 4.567884065630846 2 0 -3
165 1 1 0.090236 13.916401541958901 17.00995040954982 3.436337260279022 2 0 -2
180 1 6 0.102614 15.231241182715241 15.120337031177927 2.1478460313963748 2 0 -2
342 2 6 0.102614 16.457935914499824 13.357039393720793 5.509249994488454 2 1 -1
327 2 1 0.090236 17.465235027990914 13.119092063585493 5.148666852674106 2 1 -1
340 2 6 0.102614 17.64939913049085 13.930106010696013 4.398950718341726 2 1 -1
181 1 6 0.102614 16.30020554720461 15.577706721453305 3.3900301516063633 2 0 -2
164 1 3 -0.6068 15.087353247369842 17.248024728316697 2.524395031534243 2 0 -2
166 1 1 0.090236 15.915092982333144 15.951749495039603 2.4462791367360825 2 0 -2
182 1 6 0.102614 16.689697114803618 16.069551003188483 1.6862349483757983 2 0 -2
1010 4 6 0.102614 17.918751360761405 15.274572152128826 0.4631319814141236 1 1 -1
185 1 6 0.102614 13.73639692101545 16.79787616517427 0.9593174939167417 2 0 -2
178 1 6 0.102614 13.395220822057741 16.09060235607896 3.0657845760457767 2 0 -2
1168 4 6 0.102614 15.591548243900105 14.300942845995108 0.17542625291353567 1 1 -1
177 1 6 0.102614 13.253942104402256 17.900587624879552 3.502369800676206 2 0 -2
167 1 1 0.090236 14.466625516475203 17.62873400218636 1.098207221918353 2 0 -2
162 1 2 -0.188164 16.90418072831353 18.078610592657004 4.175186278930357 2 0 -2
346 2 6 0.102614 18.396540691712364 12.345483639766035 2.6257976759404986 2 1 -1
341 2 6 0.102614 18.283257888687373 13.186878404273756 5.868056927996063 2 1 -1
1012 4 6 0.102614 17.880511632586508 13.739620783292924 1.4247419681681301 1 1 -1
161 1 2 -0.09836399999999999 18.162442044489595 17.49706299854913 3.908271414893376 2 0 -2
174 1 5 0.137136 18.441383548813093 17.227661865725445 2.8930926881299106 2 0 -2
996 4 1 0.090236 18.476084687800782 14.660136962063994 1.156750635212746 1 1 -1
1011 4 6 0.102614 18.64910817245795 15.313299465917419 2.0898781891101135 1 1 -1
160 1 2 -0.120364 19.091587263901026 17.279074779181958 4.938931136954686 2 0 -2
1592 6 8 0.32 19.76229557833525 14.363726969193854 5.58461413307642 2 0 -2
173 1 5 0.160636 20.069139393579864 16.932008352820745 4.695675777280486 2 0 -2
1013 4 6 0.102614 21.879630640927616 14.297882992736536 1.3413224921098275 1 1 -1
1591 6 7 -1.31955 20.241200274878977 14.193795299834536 4.7157547663316794 2 0 -2
274 1 6 0.102614 21.464864473298377 12.353889326402422 4.628345250813275 2 0 -2
275 1 6 0.102614 22.254686403537256 12.645811994124353 2.9438262885248783 2 0 -2
269 1 6 0.100836 22.278658172648957 14.410846403884207 5.425768736589883 2 0 -2
256 1 1 0.188236 23.23181349240674 14.434170520367942 4.844530814398386 2 0 -2
255 1 2 -0.188164 24.201258236092283 15.407217497662623 5.542016533839159 2 0 -2
257 1 3 -0.6068 23.643421261825853 12.939405324483221 4.63282858354506 2 0 -2
268 1 6 0.100836 22.998172941707622 14.840226740402851 3.9228292408915 2 0 -2
276 1 6 0.102614 24.5699527556399 13.22676332099614 2.568086492673187 2 0 -2
1015 4 6 0.102614 20.65878381288434 13.38762129769534 2.2772029598208468 1 1 -1
997 4 1 0.090236 20.857122628558937 14.32223962270833 1.7634843643245126 1 1 -1
1014 4 6 0.102614 20.820150710524555 15.084954629491076 2.5414189463304924 1 1 -1
1006 4 6 0.100836 20.729025439852723 16.432975183601936 0.5189039249753064 1 1 -1
615 2 4 0.069836 23.599227303161594 16.695748316321303 0.613645130025788 2 0 -1
1633 27 7 -1.32 22.74067986300197 12.127829779340239 0.7726198625672465 3 -1 -3
994 4 3 -0.6068 19.885845659260795 14.457401322861806 0.5914276928947224 1 1 -1
616 2 5 0.160636 24.33959502801997 14.666593203760035 1.0947724093653803 2 0 -1
1008 4 6 0.102614 19.375295002450414 12.461611829389467 0.4823936072840299 1 1 -1
613 2 4 0.046836 23.48585317047497 17.912181719951857 2.3993844095689036 2 0 -1
601 2 2 -0.011164 0.3509154713566103 16.34349924856383 1.0529553732595756 3 0 -1
602 2 2 -0.120364 0.09625179143099585 15.004641346765425 0.971570009087992 3 0 -1
258 1 1 0.090236 24.0115051869113 12.325098739546968 5.960400137320692 2 0 -2
254 1 2 -0.09836399999999999 -0.07029122751485241 15.997993308273308 4.800952380617428 3 0 -2
267 1 5 0.137136 0.09691523675583283 15.632626756174501 3.8048913576513335 3 0 -2
260 1 1 0.090236 24.802563640213286 12.876939744592644 3.6009488610875464 2 0 -2
600 2 1 -0.036264 24.50424346856568 17.304107366706983 0.693783061357855 2 0 -1
980 4 6 0.102614 6.584282705196396 17.573028902006676 0.9951400149024567 2 1 -1
1887 121 10 0.4238 4.183396042412774 19.68791304081508 3.7439111821648248 3 0 -1
1886 121 9 -0.8476 3.8102168968075882 18.968773176111068 3.1577267279643 3 0 -1
292 1 2 -0.09836399999999999 5.169497769799389 22.583974736221908 4.8611053747902355 3 0 -2
284 1 2 -0.120364 5.299731381534888 19.85256067642783 5.403940707590979 3 0 -2
298 1 5 0.160636 5.360259222735416 18.81286360574732 5.739352843652811 3 0 -2
293 1 2 -0.120364 4.426497460302499 22.012197990773956 5.856606873613822 3 0 -2
286 1 2 -0.188164 6.037503487272513 21.693653051338714 4.111282636917817 3 0 -2
295 1 4 0.046836 2.1182266767735736 19.33961661712996 5.449185147446211 3 0 -2
584 2 5 0.160636 0.7264703613005481 20.49343959543241 2.430136625673774 3 0 -1
571 2 2 -0.120364 0.6527942343067746 20.90391952271093 1.4311822244885437 3 0 -1
311 1 5 0.137136 5.100641218736947 23.667189686153705 4.619878925108728 3 0 -2
572 2 2 -0.09836399999999999 1.7079673657602064 21.614479818275736 0.8284417661165389 3 0 -1
585 2 5 0.137136 2.6923498998732702 21.75637353796233 1.2821290507310283 3 0 -1
264 1 4 0.046836 0.014796103356528312 20.644970339385637 5.900477636300849 3 0 -2
595 2 6 0.102614 3.854477979521503 24.1917125691873 0.7630597669129163 3 0 -1
1734 70 10 0.4238 6.059633528047518 23.432272491782168 0.6488607126608257 2 0 -2
1733 70 9 -0.8476 5.638464373799391 22.618081615537942 0.2491772397261422 2 0 -2
984 4 6 0.102614 5.066632324244453 20.092240445180988 0.5037766071254761 2 1 -1
285 1 2 -0.09836399999999999 6.133548716068301 20.315039239887195 4.441111691386 3 0 -2
299 1 5 0.137136 6.7482608414168945 19.63457302070089 3.9060880737243857 3 0 -2
89 1 6 0.102614 11.469224235478933 19.106742572916293 4.579967725652588 2 0 -2
300 1 6 0.100836 6.338666167720474 23.211860669210495 2.566500502814429 3 0 -2
1862 113 9 -0.8476 8.509581593422542 17.886537867107883 2.0923842129040664 3 0 -1
287 1 1 0.188236 6.814157892568398 22.29766052320212 2.9383191412062986 3 0 -2
301 1 6 0.100836 6.787316491223831 21.566603328887673 2.1447432843245036 3 0 -2
288 1 3 -0.6068 8.26757474287475 22.63889585921946 3.1231359420363303 3 0 -2
303 1 6 0.102614 9.504161532891871 23.84147588074191 4.486133232386888 3 0 -2
307 1 6 0.102614 8.792113990834627 20.60276897962397 3.7016620957919373 3 0 -2
73 1 1 0.090236 10.833728989945554 18.273394547886376 4.853976955629965 2 0 -2
1754 77 9 -0.8476 11.554785449221995 21.815123730317055 4.804211244813951 2 0 -2
1756 77 10 0.4238 11.830400838278058 22.77117185440399 4.703986251170027 2 0 -2
290 1 1 0.090236 9.06645423975616 21.292060948628905 2.905068303037952 3 0 -2
306 1 6 0.102614 10.16290657367035 21.396956546924912 2.893802532213438 3 0 -2
289 1 1 0.090236 8.601494095138309 23.240802129708868 4.556325035239006 3 0 -2
305 1 6 0.102614 8.720456899975273 20.783198913133173 1.9384783638179561 3 0 -2
304 1 6 0.102614 8.60830618797267 22.40201641141179 5.233362883143831 3 0 -2
85 1 6 0.102614 8.92781780864349 20.08311557338147 5.3955792170877235 2 0 -2
1863 113 10 0.4238 9.192320805379849 18.485289121966844 1.6735750672757121 3 0 -1
291 1 1 0.090236 8.790413855572256 23.701588445067582 2.2015744970059457 3 0 -2
309 1 6 0.102614 9.883988384279562 23.808052426969788 2.343969238171128 3 0 -2
1847 108 9 -0.8476 10.302466281935523 19.18302979599398 0.4269401694916939 2 0 -1
1849 108 10 0.4238 11.13113398928883 19.392262659957083 0.9461398965053862 2 0 -1
308 1 6 0.102614 8.615317967769265 23.343235651425356 1.1570758578327862 3 0 -2
302 1 6 0.102614 7.813866491562061 23.973016382363785 4.841620933885612 3 0 -2
1707 61 10 0.4238 11.797746248716603 23.743763823054575 2.455924018338791 2 0 -2
978 4 6 0.102614 7.4752007081029594 19.421997425297967 0.3224090782232429 2 1 -1
1708 61 10 0.4238 12.729665697959824 23.84345679646193 1.118645959226062 2 0 -2
183 1 6 0.102614 15.203353413140315 17.590714652341106 0.23988078848181127 2 0 -2
1834 103 10 0.4238 12.145074993159719 21.354288753434904 2.020804994129772 2 0 -2
1706 61 9 -0.8476 12.048189357546045 23.29189537643999 1.5996938118458022 2 0 -2
1832 103 9 -0.8476 12.363135756963654 20.383388233536593 2.1199953305056165 2 0 -2
1755 77 10 0.4238 12.311724142562602 21.219961831402046 4.534279405872158 2 0 -2
1833 103 10 0.4238 12.775119876351871 20.224264497030834 3.0172054929722325 2 0 -2
184 1 6 0.102614 14.04254848091807 18.59755314377094 1.0938247715083558 2 0 -2
1621 21 7 -1.32 13.591773907242551 20.04689767199742 4.3807054598682456 2 1 2
1622 21 8 0.32 14.170806655638682 19.58770050832961 5.031683643808773 2 1 2
198 1 1 0.090236 14.795381844201488 22.944908041791905 3.4855939632363646 2 0 -2
176 1 6 0.100836 15.341169813031078 19.192927603656162 3.3378897018180154 2 0 -2
186 1 5 0.137136 15.79499937578581 19.258778870235226 5.6781067296797545 2 0 -2
195 1 3 -0.6068 16.10801569040701 23.07757775782569 4.1633654654319 2 0 -2
206 1 6 0.100836 16.053196972012703 20.944473673183204 4.3469571064054335 2 0 -2
168 1 2 -0.09836399999999999 16.689161212011278 18.557580727310683 5.539660675527347 2 0 -2
194 1 1 0.188236 16.43478850587293 21.781114957753527 4.988600664675277 2 0 -2
163 1 1 0.188236 15.998847577950908 18.37891717788139 2.988029900896436 2 0 -2
197 1 1 0.090236 17.195636239987188 23.321251734678466 3.1793502514133034 2 0 -2
212 1 6 0.102614 17.03191101762123 22.617906161010048 2.3295706792969506 2 0 -2
565 2 6 0.102614 15.757122224026595 20.2706221199128 1.3711198474054318 2 0 -1
175 1 6 0.100836 16.60103181358052 18.728818284302715 2.1537445248719607 2 0 -2
563 2 6 0.102614 14.969120409453165 21.83673661389225 1.283504180858183 2 0 -1
547 2 1 0.090236 15.158915127124484 20.902049992563725 0.792379178788901 2 0 -1
215 1 6 0.102614 14.564917967056266 21.923826516401135 3.1520484361238603 2 0 -2
216 1 6 0.102614 14.070978753179414 23.108681990569067 4.2892645337198525 2 0 -2
564 2 6 0.102614 14.22038301871614 20.453534667282305 0.4912348209647588 2 0 -1
556 2 6 0.100836 16.44154979790425 23.07663684233217 0.2618355103782664 2 0 -1
193 1 2 -0.188164 17.78389627757953 21.405848713391503 5.478704723420909 2 0 -2
93 1 5 0.137136 13.713735564508182 17.91401026599699 5.73480768837626 2 0 -2
207 1 6 0.100836 15.705918654045988 21.68880729064664 5.787115662238799 2 0 -2
209 1 6 0.102614 17.058379603860217 24.530309589188 5.439080771284256 2 0 -2
560 2 6 0.102614 17.460446702175748 19.536427670740206 24.7192853430928 2 0 -2
566 2 5 0.137136 17.81437648121514 20.366658003289082 1.4924557986743223 2 0 -1
1647 34 7 -1.32 18.045853451718557 17.6745757407374 0.6219870827655376 2 0 -2
217 1 5 0.137136 18.4118810446231 20.546543236934944 3.5937527098356745 2 0 -2
211 1 6 0.102614 18.193678841190252 23.27273550110821 3.6098164246619366 2 0 -2
542 2 2 -0.188164 18.412324025136726 21.988250468337846 0.1348771089125081 2 0 -1
199 1 2 -0.09836399999999999 18.664703818092136 20.71982035463085 4.650625561758721 2 0 -2
548 2 2 -0.09836399999999999 18.690195279931565 21.00048312841327 1.0720743796154395 2 0 -1
200 1 2 -0.120364 19.85766374780482 20.138363960203975 5.1357054964021085 2 0 -2
567 2 5 0.160636 20.199024112755044 20.008089807341843 2.2304632326520237 2 0 -1
218 1 5 0.160636 20.487767445189654 19.58849157891508 4.50379981787004 2 0 -2
551 2 4 0.046836 20.902140757032868 22.00914490689811 3.8680923444890114 2 0 -1
233 1 4 0.046836 22.747760431467174 20.60443485454824 5.605654940417408 2 0 -2
232 1 4 0.046836 23.14399582148434 19.009398209962775 6.0045344281197135 2 0 -2
550 2 4 0.046836 22.599958591951182 22.39686402915334 4.181914951506827 2 0 -1
537 2 1 -0.07226399999999999 21.781522321556128 22.517582568443405 3.4381692826158377 2 0 -1
582 2 4 0.046836 23.610682545481122 20.674102187415805 3.4027989319191403 2 0 -1
581 2 4 0.046836 22.217085768006864 19.74192412303117 2.967189434694448 2 0 -1
538 2 1 -0.036264 22.24147930208272 21.850577458701558 2.1633528273864413 2 0 -1
568 2 1 -0.07226399999999999 22.92622735952529 20.443188944286785 2.5631411013445664 2 0 -1
549 2 2 -0.120364 19.99794257788691 20.764586881607798 1.5310931021195284 2 0 -1
552 2 4 0.069836 22.990816438871832 22.480057747377145 1.7311208023892424 2 0 -1
539 2 2 -0.011164 20.998756413172842 21.68087511192506 1.2403214023709486 2 0 -1
569 2 1 -0.036264 23.68849449163526 19.700305364516765 1.3291765375969609 2 0 -1
583 2 4 0.069836 22.789953372202977 19.471438710462884 0.6461794896343845 2 0 -1
540 2 2 -0.120364 20.761894117105683 22.645747322594055 0.24420278137811535 2 0 -1
553 2 5 0.160636 21.630645710325677 23.31188318947453 0.08071759737393336 2 0 -1
1648 34 8 0.32 18.816714240389082 18.26392922665665 0.5413238328836841 2 0 -2
599 2 1 -0.07226399999999999 24.269145721254485 18.3775526536567 1.7763041014011003 2 0 -1
612 2 4 0.046836 25.121375383795165 18.470523234151855 2.400252502903672 2 0 -1
570 2 2 -0.011164 24.702012739595343 20.703047632013796 0.7363568172433596 2 0 -1
596 2 6 0.102614 2.169506221873003 24.94892439103929 0.5900560517066508 3 0 -1
578 2 1 0.090236 3.193455773229118 24.84183497199062 0.10713109037370064 3 0 -1
310 1 6 0.102614 8.338873627519318 24.651559738979525 2.3389299193254116 3 0 -2
1738 71 10 0.4238 11.20301963395596 25.198004887981934 4.736803803369866 2 0 -2
1736 71 9 -0.8476 11.799226069299314 24.56516740816403 4.242747470907139 2 0 -2
1679 50 7 -1.32 6.533451612990295 -0.022297182698670093 0.8241061342294934 3 1 -2
208 1 6 0.102614 15.723103897659934 25.181447467363174 4.31441926770289 2 0 -2
1737 71 10 0.4238 12.595654425674903 25.060100141946705 3.8952125924802568 2 0 -2
1686 53 8 0.32 15.828717171677704 0.9933545528004961 0.7309674354550317 2 1 -2
214 1 6 0.102614 14.783501212933336 23.581130894959735 2.643774615764741 2 0 -2
196 1 1 0.090236 16.02452205695346 24.34529607762614 5.028041308727554 2 0 -2
213 1 6 0.102614 17.08806195530496 24.32696677016347 2.7744357215430884 2 0 -2
1694 57 9 -0.8476 13.705962660015999 24.505900797452615 -0.018845560353858447 2 0 -2
1695 57 10 0.4238 14.489788066304834 24.727093268471265 0.5614383159636546 2 0 -2
519 2 4 0.046836 23.62006985640752 24.35690908959369 3.835995186616762 2 0 -1
508 2 2 -0.011164 20.501583186810766 24.439446540278706 4.49291906353244 2 0 -1
507 2 1 -0.036264 21.501324986035716 24.026033288657384 3.332166616277436 2 0 -1
521 2 4 0.069836 20.999403311776543 24.220191718798993 2.335976260032909 2 0 -1
490 2 4 0.069836 23.43575072206995 24.608876585312636 1.3810158777355221 2 0 -1
848 3 6 0.102614 2.264351527280539 2.8873048338495804 6.439325683913111 3 2 -2
845 3 6 0.102614 5.307729573406709 5.325278760918028 7.599337908614733 3 2 -2
832 3 1 0.090236 4.4162494212527985 4.808819611872796 7.013542663281053 3 2 -2
843 3 6 0.100836 4.814973815038393 2.008787895570628 7.028726015440498 3 2 -2
841 3 5 0.137136 2.7200619247383018 0.4091182720983064 7.077247652117363 3 2 -2
847 3 6 0.102614 1.7517085101490912 4.406463041992739 7.115119663540648 3 2 -2
849 3 6 0.102614 1.7084646144355606 2.8919900716949427 8.073951248064581 3 2 -2
833 3 1 0.090236 2.2563446248338517 3.4832131700224913 7.34766723101048 3 2 -2
830 3 1 0.188236 4.475068920707559 2.4105249515514444 7.954306574383935 3 2 -2
831 3 3 -0.6068 3.6887509948061434 3.7730113541579717 7.864702596858156 3 2 -2
842 3 6 0.100836 5.484761690125425 2.6488013483323107 8.442249815339462 3 2 -2
828 3 2 -0.09836399999999999 2.8491760569786546 0.4700346889681628 8.138886436351578 3 2 -2
829 3 2 -0.188164 3.739201648455753 1.4037928935500756 8.772967313097027 3 2 -2
850 3 6 0.102614 4.5762576123398775 4.569599359378206 9.567805170502494 3 2 -2
853 3 5 0.137136 4.608127947356446 2.1179843060660026 10.501810593003938 3 2 -2
1904 127 9 -0.8476 5.673902548107116 4.213616647564687 11.650010770932672 3 0 -1
835 3 2 -0.09836399999999999 3.790352501938522 1.4768651202698067 10.167782410358047 3 2 -2
834 3 1 0.090236 3.540417095948371 4.421786258885163 9.204557077205221 3 2 -2
852 3 6 0.102614 2.9711188546947955 3.806945761331861 9.854428823920482 3 2 -2
854 3 5 0.160636 3.3879573057280714 0.5947441474172663 12.060732230592215 3 2 -2
836 3 2 -0.120364 3.054834482876144 0.6146885206968836 11.002946581664629 3 2 -2
826 3 2 -0.011164 2.0880888471056833 25.061532068817783 10.4551782306754 3 1 -2
827 3 2 -0.120364 1.9702523996102252 25.060168168033485 9.00510506503213 3 1 -2
851 3 6 0.102614 3.1410190139556398 5.407254900214336 9.092093944501055 3 2 -2
903 3 5 0.137136 1.2479336252174478 5.148167979537605 10.63640705907999 3 2 -2
902 3 5 0.160636 0.046896643353521214 2.938751691546506 11.051538181875275 3 2 -2
890 3 2 -0.09836399999999999 0.717053010519952 4.926734174986176 11.585500639656503 3 2 -2
846 3 6 0.102614 3.6804498338352607 5.597301442592763 6.895348319027443 3 2 -2
1759 78 10 0.4238 9.493624836181146 1.5906205482448437 5.639146463334627 2 1 -2
1757 78 9 -0.8476 10.028365880518237 0.7559996208823112 5.771422626181257 2 1 -2
1837 104 10 0.4238 7.706197374010251 4.203545093771854 6.449502878001269 2 1 -2
1836 104 10 0.4238 7.637072838513143 4.52378859250799 8.049312519565097 2 1 -2
1835 104 9 -0.8476 7.648527123139389 4.929158731571 7.135211461486848 2 1 -2
1882 119 10 0.4238 8.236425687792508 2.4230771340823525 7.112656915489414 2 0 -1
1310 5 2 -0.188164 7.824338912117197 0.9523855984036371 11.563866362203727 2 1 -2
1880 119 9 -0.8476 8.409207767312097 2.0499925627954685 8.024244211041783 2 0 -1
1881 119 10 0.4238 8.406796604310578 1.0508928817970749 7.981454626416928 2 0 -1
26 1 6 0.102614 10.586627942267278 4.933504502448068 8.30141954936486 2 0 -2
27 1 6 0.102614 10.332779763635438 3.191129603303309 8.038414205319228 2 0 -2
1316 5 2 -0.09836399999999999 9.145583862993659 1.378824656070612 11.563098243859272 2 1 -2
1334 5 5 0.137136 9.87724613620109 0.9931205550752742 10.840886904406702 2 1 -2
10 1 1 0.090236 10.787873226374936 3.9394436290323283 8.77517599198581 2 0 -2
25 1 6 0.102614 10.268807771199695 3.874324442632651 9.733898178261148 2 0 -2
29 1 6 0.102614 12.059832882883786 2.2912477862092517 10.250940690357965 2 0 -2
28 1 6 0.102614 12.137533851138512 1.5181452754812186 8.689132992150133 2 0 -2
11 1 1 0.090236 12.614790143504301 2.3382375885822158 9.298443584487192 2 0 -2
1933 136 10 0.4238 8.580815087585467 6.323600732768273 7.052356742263244 1 0 1
1335 5 5 0.160636 10.573454406871457 2.6565972623086487 12.392788175444467 2 1 -2
359 2 1 0.090236 17.49637842206976 5.2298949886090975 6.256949547769759 2 1 -1
371 2 6 0.102614 18.49100879333971 5.459824341266564 6.661493265980279 2 1 -1
20 1 6 0.100836 12.648199489287924 4.781996494542342 10.56409141051322 2 0 -2
372 2 6 0.102614 17.288547602831525 4.212144549413379 6.473433084933496 2 1 -1
1779 85 10 0.4238 13.15361416651241 -0.06077456817533049 6.6613985001534495 2 1 -2
8 1 3 -0.6068 12.300019763496238 3.77205048460874 8.807185180972045 2 0 -2
23 1 6 0.102614 12.465775583454892 4.707865165088509 6.945779213796774 2 0 -2
534 2 6 0.102614 16.117977415857563 1.4249004016961109 6.368790317900259 2 1 -1
24 1 6 0.102614 12.303756799352376 2.9818674754983636 6.826883075966252 2 0 -2
373 2 6 0.102614 16.741149900852964 5.839350476640922 6.774758169060762 2 1 -1
7 1 1 0.188236 13.059940459309498 4.791540035838942 9.534358488022798 2 0 -2
9 1 1 0.090236 12.81397115500841 3.772716805634582 7.363902033398382 2 0 -2
30 1 6 0.102614 13.67981239031119 2.134171938145038 9.358297262348689 2 0 -2
22 1 6 0.102614 13.908631146494914 3.6146759782559497 7.37811195487003 2 0 -2
533 2 6 0.102614 16.54758064647989 2.810017239889583 7.262297683332901 2 1 -1
516 2 1 0.090236 16.219332872311213 1.7998226477896855 7.366981348264186 2 1 -1
21 1 6 0.100836 14.15169620331833 4.442932015189561 9.6980152146161 2 0 -2
532 2 6 0.102614 15.259416307978743 1.7972361146800928 7.777005557157282 2 1 -1
513 2 3 -0.6068 17.20060936988139 1.0602461579401845 8.299731119691195 2 1 -1
1645 33 7 -1.32 15.196331410620376 3.575577720478076 11.404660682814438 1 0 -1
1646 33 8 0.32 14.874868510330092 2.903035010362844 12.05488700357294 1 0 -1
1724 67 9 -0.8476 16.185599976969474 4.206392836016007 9.152715090951228 2 1 -2
1725 67 10 0.4238 17.181669866544766 4.222258788688375 9.065364826045931 2 1 -2
1726 67 10 0.4238 15.936296533729507 3.892117658374954 10.068747960479843 2 1 -2
530 2 6 0.102614 16.114064080257616 2.1511438561587544 9.869479543817668 2 1 -1
515 2 1 0.090236 17.103621783688975 1.670256738285749 9.760015463920809 2 1 -1
529 2 6 0.102614 17.81998568622551 2.453880816302766 9.949323898169851 2 1 -1
531 2 6 0.102614 17.189444483582026 0.9236661458772435 10.525375932179994 2 1 -1
57 1 6 0.102614 15.061814949014375 5.713038196801857 10.480021701441254 2 0 -2
1778 85 9 -0.8476 13.535162908299469 -0.06257266394774774 7.585765505552769 2 1 -2
43 1 1 0.090236 17.549094144567142 5.8847829787413515 11.788205249034078 2 0 -2
59 1 6 0.102614 18.19934162293173 6.469162566994329 12.368791926618426 2 0 -2
31 1 5 0.137136 14.685210620455388 5.949302101544021 7.594651025892521 2 0 -2
247 1 6 0.102614 23.274902729703108 1.1976232903766593 6.64543040380509 2 1 -2
367 2 5 0.160636 22.92949479332246 4.420932903795611 5.695789716378494 2 1 -1
245 1 6 0.102614 21.523480721558585 1.1838670253851622 6.631089698921078 2 1 -2
229 1 1 0.090236 22.403463498571867 1.7445920448143333 6.929263439333822 2 1 -2
512 2 1 0.188236 18.685289244761634 1.1462845086268276 7.937141458460175 2 1 -1
1677 49 7 -1.32 18.79545903140768 4.233309826105623 8.677527361535954 2 1 -1
952 3 4 0.045503 19.081038197012745 3.1860294844346373 11.50682563706148 2 2 -2
1678 49 8 0.32 19.089815531743163 5.1077893238630345 8.965295063840124 2 1 -1
511 2 2 -0.188164 19.181437697836017 0.3813822371433871 6.68081554941033 2 1 -1
525 2 6 0.100836 18.874853844563518 2.2246182473970597 7.829369720459423 2 1 -1
524 2 6 0.100836 19.17721471961221 0.70654948116054 8.860437879859282 2 1 -1
932 3 1 -0.088964 19.813775029759036 2.4873531312822292 11.797337252357554 2 2 -2
953 3 4 0.045503 19.972131349199852 1.8634622237254477 10.909740125756299 2 2 -2
241 1 6 0.102614 20.476485048661534 2.510979967181143 8.639746110560813 2 1 -2
226 1 3 -0.6068 22.51993584195988 1.836577236164372 8.395926462229953 2 1 -2
239 1 6 0.102614 21.540074844355583 3.2288820626410217 9.721169574911317 2 1 -2
227 1 1 0.090236 21.46412857904367 2.940110805345679 8.656628679011984 2 1 -2
238 1 6 0.100836 21.10151626454041 0.43508829852534425 8.806020664180224 2 1 -2
225 1 1 0.188236 22.109172652316104 0.5381268578177224 9.077998523574015 2 1 -2
933 3 4 0.069836 21.280437926903268 3.9386996552844993 11.426735383897336 2 2 -2
930 3 4 0.046836 22.765247213671532 2.1758312448447334 11.037112690903063 2 2 -2
240 1 6 0.102614 21.535201534367804 3.754237435124575 7.952458269334299 2 1 -2
237 1 6 0.100836 22.075098583356144 0.6546984857981727 10.163189021054325 2 1 -2
60 1 6 0.102614 16.792595476329296 5.317370217103967 12.373448922364357 2 0 -2
889 3 2 -0.120364 -0.06748987716400953 3.754852729928839 11.70967942753965 3 2 -2
900 3 4 0.046836 24.599324717969274 0.953512712358932 11.551342931197636 2 2 -2
228 1 1 0.090236 23.947210707974477 2.2920399067548 8.685103834389464 2 1 -2
242 1 6 0.102614 23.995311099562937 3.338570391068811 8.331852704051386 2 1 -2
243 1 6 0.102614 24.332239897480374 2.03277654091411 9.64565518231895 2 1 -2
244 1 6 0.102614 24.552728107800533 1.7042723894262848 8.049023625485345 2 1 -2
1841 106 9 -0.8476 2.1265368627418684 11.493216204528391 6.415157214877647 3 0 -1
1670 45 8 0.32 3.258190641778273 8.9841753065417 6.507000860456282 3 1 -2
1842 106 10 0.4238 2.7381939744518733 10.927398383921567 6.968115412813146 3 0 -1
1896 124 10 0.4238 5.074431020589302 10.16087301101243 7.394551759975121 3 0 -1
1669 45 7 -1.32 3.6858733420181045 9.292585852216602 7.351669443997077 3 1 -2
1819 98 10 0.4238 4.301693018663401 7.867693191574689 8.307618811815711 2 0 -2
1817 98 9 -0.8476 4.802661466945142 7.146098048366012 8.785497637931737 2 0 -2
1925 134 9 -0.8476 5.763979761922431 10.197409232659055 10.970660722587704 1 0 1
1927 134 10 0.4238 4.8540470822023645 10.259891858817886 10.560593042915102 1 0 1
1732 69 10 0.4238 3.52688184514268 10.16490033144833 8.726774054110045 2 0 -2
912 3 6 0.102614 3.1409236560133533 6.631809349530162 10.685571854718788 3 2 -2
906 3 6 0.102614 2.524048147836908 9.320628712383737 11.640585418576482 3 2 -2
1730 69 9 -0.8476 3.391983411750137 10.551846311149756 9.638976077250547 2 0 -2
1731 69 10 0.4238 2.469132563138126 10.337313791126434 9.958912608517 2 0 -2
1785 87 10 0.4238 2.5719081120848633 8.467598335566313 8.2429854206094 2 0 -2
1784 87 9 -0.8476 1.7048978970326782 8.180702652560317 8.650442337262755 2 0 -2
905 3 6 0.100836 1.1267090579478853 7.659128338840564 11.173166748900563 3 2 -2
1786 87 10 0.4238 1.289331503893577 8.954268239854354 9.128917010878794 2 0 -2
1719 65 10 0.4238 0.668964471072518 11.079863525683349 11.644839398585951 2 0 -2
1693 56 10 0.4238 0.9002926875727694 11.213860424307377 7.461574550531347 2 0 -2
892 3 1 0.188236 1.2421890833825484 7.265916615646548 12.170010198841844 3 2 -2
1692 56 10 0.4238 0.39547529067218085 10.77673095707464 8.951810301888342 2 0 -2
1653 37 7 -1.32 0.8760263558416105 10.022230523687012 10.302581492652363 3 -1 -1
1818 98 10 0.4238 5.6652319367423525 7.513440565240396 9.133446830640105 2 0 -2
1654 37 8 0.32 0.37411170260779775 9.247350929015468 10.600874160731745 3 -1 -1
894 3 1 0.090236 3.2057922849587936 8.82669508281644 12.296121760889545 3 2 -2
907 3 6 0.102614 4.2750481496433546 8.760878287889268 11.99561393278785 3 2 -2
14 1 1 -0.09496400000000001 10.530823579833472 10.178742688850374 5.993774631371916 2 0 -2
313 1 4 0.045503 10.147028375160998 11.194899477863126 5.910620400219864 2 0 -2
1897 124 10 0.4238 5.805337852881073 11.568201951933796 7.004775059394792 3 0 -1
1895 124 9 -0.8476 5.9504854213173575 10.641097054627922 7.3503842630418035 3 0 -1
1926 134 10 0.4238 6.432641934227008 9.96493405402234 10.264344086537543 1 0 1
1932 136 10 0.4238 10.02067734035356 7.0870113056436566 6.948789762397151 1 0 1
1931 136 9 -0.8476 9.036208000838236 7.2137283430953705 7.070444599743234 1 0 1
1858 111 10 0.4238 6.803878576701572 9.49032455555743 8.348159350818005 3 0 -1
315 1 4 0.045503 10.202513680519052 9.745679119875984 6.989910031611301 2 0 -2
1856 111 9 -0.8476 7.360274883032274 8.853669696034558 8.882135714918327 3 0 -1
1857 111 10 0.4238 8.02952799907399 8.413123993598498 8.283757253045902 3 0 -1
1585 5 4 0.045503 7.527226652586814 6.665746096341637 11.388239649414826 2 1 -2
1286 5 1 -0.09496400000000001 8.156349838578071 7.4000532663583405 12.016205231525218 2 1 -2
1586 5 4 0.045503 8.066021053972257 8.46270401983383 11.716150570977224 2 1 -2
47 1 4 0.046836 11.77229594526401 10.984911898719398 8.742209788577004 2 0 -2
4 1 2 -0.120364 11.908243251131893 8.417005762832815 8.720593812869613 2 0 -2
18 1 5 0.160636 11.153565632035896 9.088552459170828 9.184785700038915 2 0 -2
5 1 2 -0.09836399999999999 12.005259772112636 7.144065850671774 9.28508421175609 2 0 -2
19 1 5 0.137136 11.301447256922184 6.793839050990057 10.0306190617076 2 0 -2
1917 131 10 0.4238 7.482038869564101 11.695560384499197 8.25204760743086 1 0 1
338 2 6 0.100836 16.6329321754879 10.728583599068653 6.212837388907229 2 1 -1
349 2 5 0.137136 17.75207226555614 8.189550380709877 6.476713813745355 2 1 -1
33 1 1 -0.07226399999999999 12.43610563197205 11.443625560378953 8.016409231642026 2 0 -2
32 1 5 0.160636 14.7150652737571 8.312267538600114 6.8516133593862465 2 0 -2
3 1 2 -0.011164 12.838427700070019 8.86099569147715 7.738069598156968 2 0 -2
6 1 2 -0.188164 12.990082751148956 6.225179698998936 8.90570671140399 2 0 -2
49 1 5 0.160636 12.900830637603663 10.520181941186385 10.720796337448114 2 0 -2
2 1 1 -0.036264 12.903678843478922 10.208907973490788 7.11491124051171 2 0 -2
17 1 4 0.069836 13.939090056910963 10.422909013358554 6.855001415659089 2 0 -2
13 1 2 -0.120364 13.899566538083667 7.9553908606601755 7.442537157398711 2 0 -2
12 1 2 -0.09836399999999999 13.908980578803977 6.614876485684993 7.944333414900845 2 0 -2
36 1 2 -0.120364 13.983434770384305 10.487376880754066 10.588494049487679 2 0 -2
50 1 5 0.137136 14.196018738773517 8.91462214291876 11.944134448920563 2 0 -2
35 1 2 -0.011164 14.586427725326656 11.283062097774563 9.53774089610213 2 0 -2
58 1 6 0.102614 14.653378576647537 7.410489731944137 10.50554789896612 2 0 -2
37 1 2 -0.09836399999999999 14.740394745440625 9.546739007405117 11.235187216659883 2 0 -2
56 1 6 0.102614 14.819388944799911 6.523449619094077 12.056463591519014 2 0 -2
42 1 1 0.090236 15.212679917948028 6.6125096191621076 11.03278171665146 2 0 -2
45 1 2 -0.120364 15.9758733694426 11.10225853560156 9.349248892063473 2 0 -2
54 1 6 0.102614 17.5391458657942 6.035954635667454 9.308375134239386 2 0 -2
41 1 1 0.090236 17.344507152876126 7.1019136468625685 9.645734744841114 2 0 -2
62 1 5 0.137136 17.941892248461222 10.291299227906634 10.068069337690947 2 0 -2
53 1 6 0.102614 16.605124193425386 7.39331358261165 8.938488722583662 2 0 -2
38 1 2 -0.188164 16.122774748666725 9.431493785735357 11.043559147998172 2 0 -2
44 1 2 -0.09836399999999999 16.8138151641719 10.30922646179134 10.209758160868212 2 0 -2
40 1 3 -0.6068 16.749711874980548 6.944885002405396 11.03388741561109 2 0 -2
39 1 1 0.188236 16.801653594610727 8.334418793549885 11.739446938167704 2 0 -2
52 1 6 0.100836 17.83903394101283 8.60429013545842 12.006304102886125 2 0 -2
324 2 2 -0.188164 18.60614445212754 9.991757282016753 6.046354170227408 2 1 -1
633 2 4 0.045503 22.948531341033377 5.79161024388666 10.31605474453769 2 1 -1
334 2 4 0.046836 21.85885196248463 6.1747613566920725 7.979163208938017 2 1 -1
330 2 2 -0.09836399999999999 18.697534603088364 8.643255708734532 6.40999983707959 2 1 -1
55 1 6 0.102614 18.203005043281447 7.74672510881396 9.534066155643476 2 0 -2
323 2 2 -0.09836399999999999 19.779363225048147 10.771433783039763 6.160050219481323 2 1 -1
366 2 4 0.069836 24.23345214910973 6.31013332214106 6.560476238527075 2 1 -1
351 2 1 -0.07226399999999999 23.57867869370887 8.202860895922681 6.996534937578432 2 1 -1
322 2 2 -0.120364 20.94864816642402 10.179349729785624 6.654471151730126 2 1 -1
336 2 5 0.160636 21.844709018232063 10.789395728831947 6.545245698225511 2 1 -1
331 2 2 -0.120364 19.849278478777965 8.110881508610433 6.942153065622254 2 1 -1
321 2 2 -0.011164 20.981178857673328 8.853968245639884 7.114969213945808 2 1 -1
350 2 5 0.160636 19.870075220661384 7.0486915018777125 7.262686681995788 2 1 -1
1666 43 8 0.32 19.797991767346872 6.692731198218226 11.245288040648653 1 0 -3
1069 4 6 0.102614 20.009206479478966 10.171533319155719 10.675836590098193 1 1 -2
320 2 1 -0.036264 22.268744804119006 8.277377863431115 7.8853017511369705 2 1 -1
1665 43 7 -1.32 19.86785434630599 7.6616662528918615 11.331617750168592 1 0 -3
333 2 4 0.046836 21.303303417635878 7.183404829643601 9.397092950904721 2 1 -1
319 2 1 -0.07226399999999999 22.107309996075568 6.950134329299269 8.764237969564194 2 1 -1
335 2 4 0.069836 22.538381159085418 9.018071998604729 8.640615411026747 2 1 -1
1070 4 6 0.102614 21.390389215601804 10.74611100512844 9.92432677558292 1 1 -2
1071 4 6 0.102614 21.377232143832465 8.96885345978182 10.5863909598451 1 1 -2
1057 4 1 0.090236 21.096235140473187 10.02188604633107 10.719797548951872 1 1 -2
1056 4 3 -0.6068 21.584553374897624 10.555239365249856 12.000820730137322 1 1 -2
332 2 1 -0.09496400000000001 23.284612791906948 6.668952912418733 9.788326449229691 2 1 -1
632 2 4 0.045503 23.470132292710748 7.483237368857886 10.518169747881531 2 1 -1
1076 4 6 0.102614 23.519004655871477 11.337108431924188 11.40736773672054 1 1 -2
1059 4 1 0.090236 23.091548577836463 10.537525354707016 12.071208946777503 1 1 -2
1077 4 6 0.102614 23.371128562747266 9.522526071319707 11.644470867906385 1 1 -2
1691 56 9 -0.8476 0.10399052193119585 11.121096204056471 8.059349380818954 2 0 -2
631 2 4 0.045503 24.208943941281476 6.454632603819329 9.219885446049558 2 1 -1
365 2 4 0.046836 24.49683035530728 8.167621397348249 7.6773001797075135 2 1 -1
1746 74 10 0.4238 4.096082314884314 15.69051728898065 8.468195476792621 2 0 -2
1745 74 9 -0.8476 3.3825401803262083 16.245778063715832 8.040901523218093 2 0 -2
1747 74 10 0.4238 3.3391949450201563 16.038312243590152 7.063601087183568 2 0 -2
154 1 6 0.102614 2.3812462127572074 12.482510331844443 9.137563996348645 3 0 -2
1920 132 10 0.4238 5.290259848013782 12.212827571687372 11.033165755614442 1 0 1
1822 99 10 0.4238 4.4145391769213385 13.747363626512078 5.993081591286256 2 0 -2
1821 99 10 0.4238 2.9253466612516306 13.171075519292321 5.651141721988805 2 0 -2
1820 99 9 -0.8476 3.5333835369280924 13.960974077207483 5.571213678198846 2 0 -2
152 1 6 0.102614 2.750040812877977 13.321600675179996 10.751620155014 3 0 -2
1608 14 8 0.32 5.089907394819176 12.903742995721707 7.640261005851796 4 0 -2
151 1 6 0.102614 1.4499592372464816 15.25283254943467 7.7084119015017585 3 0 -2
153 1 6 0.102614 3.297779848113073 13.932297636910578 9.22512662166757 3 0 -2
1741 72 10 0.4238 5.213970918873068 14.18455398357 9.861395284338093 2 0 -2
1919 132 9 -0.8476 4.973580716993048 13.075090863910146 11.428455539097461 1 0 1
136 1 1 0.090236 2.4481561079586487 13.425741894877975 9.698770749093836 3 0 -2
147 1 6 0.102614 2.358056505270537 16.065842002831502 9.769121010329282 3 0 -2
146 1 6 0.102614 1.41429234182804 15.504432055761376 11.138497644241621 3 0 -2
134 1 1 0.090236 1.390376802700821 15.634912325856716 10.085303104356894 3 0 -2
133 1 3 -0.6068 1.1771687431737734 14.200678817063789 9.512845242022735 3 0 -2
135 1 1 0.090236 0.9423907865047878 14.287923523334909 8.084490322996444 3 0 -2
148 1 6 0.102614 0.6296237211570467 16.287428694384687 9.696430451608817 3 0 -2
149 1 6 0.102614 1.3782791307507778 13.43879257679879 7.595541433095175 3 0 -2
1740 72 10 0.4238 5.662729371605431 14.475710343456882 8.318486077032892 2 0 -2
1739 72 9 -0.8476 5.36012238680582 14.895973122709947 9.173965656575549 2 0 -2
252 1 2 -0.011164 0.33507548594633985 17.744567597280156 6.489250003027311 3 0 -2
145 1 6 0.100836 0.2768169802136458 13.540165350582269 11.309459488664169 3 0 -2
132 1 1 0.188236 0.02464218419522954 13.503849712095787 10.196122676066004 3 0 -2
775 3 4 0.046836 3.104909319629608 17.611292908100108 12.176411023303922 3 1 -2
1894 123 10 0.4238 7.204728960242593 13.167265104143208 4.250548255336237 3 0 -1
1893 123 10 0.4238 6.286588822790249 12.744961475356954 5.533280947647232 3 0 -1
1607 14 7 -1.32 5.6735353830178 13.421822642660286 7.001004049324589 4 0 -2
1902 126 10 0.4238 6.211267932084946 14.84659035269726 6.159459045628911 3 0 -1
74 1 1 0.090236 9.40913551542642 17.216507242706495 6.707619938422136 2 0 -2
92 1 6 0.102614 10.031077308318888 16.366799448561878 6.563977802197721 2 0 -2
91 1 6 0.102614 9.292472202236915 17.252115052100642 7.771194721618777 2 0 -2
1918 131 10 0.4238 6.920278135920556 13.194067381139904 7.927044610173169 1 0 1
1916 131 9 -0.8476 7.679110537708705 12.673697344680274 8.318740586844651 1 0 1
1722 66 10 0.4238 7.400536239743933 16.009096769261248 9.709806929650943 2 0 -2
46 1 4 0.046836 11.851758297173687 12.183777923906224 7.458912243598577 2 0 -2
1723 66 10 0.4238 8.932651805035656 15.535299857411935 9.401807820865178 2 0 -2
1721 66 9 -0.8476 8.358217014496917 16.29688546565174 9.701890790601324 2 0 -2
1890 122 10 0.4238 10.416298106379271 14.244078784653107 8.037897421199183 3 0 -1
1891 122 10 0.4238 9.379307056080968 13.397650078276085 8.973276032892684 3 0 -1
1889 122 9 -0.8476 10.141160295439267 14.04540657701301 8.978570334694583 3 0 -1
1485 5 6 0.102614 9.761323520600822 16.878942378785922 11.73970039155346 2 0 -2
81 1 5 0.137136 11.313313918607504 17.052884684677082 9.304667383912403 2 0 -2
1483 5 6 0.102614 11.133277129136063 15.814428267453794 11.350355519142353 2 0 -2
1711 62 10 0.4238 10.662387655071843 13.256536053459227 10.352985960125983 2 0 -2
1709 62 9 -0.8476 10.86932288370165 12.643059681195627 11.11512880805085 2 0 -2
1710 62 10 0.4238 11.758064760919494 12.884031520893188 11.505139340841332 2 0 -2
68 1 2 -0.09836399999999999 12.179843123378346 16.830907269612375 8.630633934258693 2 0 -2
69 1 2 -0.188164 12.44853366181731 17.594280889184834 7.477019692990942 2 0 -2
63 1 5 0.160636 16.45642239802433 11.710970872561893 8.668947827470818 2 0 -2
94 1 5 0.160636 15.176213288173146 16.04713682177152 6.207954497026568 2 0 -2
80 1 5 0.160636 12.819003671472512 15.103249413806989 9.801062954891579 2 0 -2
67 1 2 -0.120364 13.056894313604696 15.735633328972682 8.922282026868002 2 0 -2
1619 20 7 -1.32 13.034266067929261 13.625469684122349 11.886640000466848 4 2 -3
75 1 2 -0.09836399999999999 13.567703279591978 17.294409626998608 6.65163273231927 2 0 -2
78 1 4 0.046836 13.82909239754092 13.514478000210348 6.921796649723455 2 0 -2
48 1 4 0.069836 13.195588811355783 12.760144858325624 9.456723360747652 2 0 -2
76 1 2 -0.120364 14.38540713471248 16.181355323134767 6.918308093806344 2 0 -2
1620 20 8 0.32 13.756988988462002 13.633794660395692 11.301486257735844 4 2 -3
77 1 4 0.046836 15.125043036746392 12.521397246448615 7.167766705046402 2 0 -2
34 1 1 -0.036264 13.721650916378044 12.192723832086225 8.714084067841835 2 0 -2
64 1 1 -0.07226399999999999 14.4603772489249 13.13461732057489 7.771411982842348 2 0 -2
108 1 4 0.046836 16.855374072036916 15.196191433060324 7.4729523432334926 2 0 -2
109 1 4 0.046836 17.03054652671395 13.545050510811498 7.862982873233052 2 0 -2
66 1 2 -0.011164 14.222485325495715 15.478875515243464 8.10120709098396 2 0 -2
95 1 1 -0.07226399999999999 16.62617340798896 14.513532055027238 8.268101229481008 2 0 -2
65 1 1 -0.036264 15.153353463455481 14.358521665221838 8.488323874058858 2 0 -2
111 1 5 0.160636 16.042881015825014 17.130634806375657 8.443037016151877 2 0 -2
79 1 4 0.069836 14.94603971847751 14.249373817039213 9.541845326707918 2 0 -2
96 1 1 -0.036264 17.441782056285934 14.849216498129696 9.570609100090222 2 0 -2
110 1 4 0.069836 16.912808807355667 14.275111232749223 10.33723497389039 2 0 -2
97 1 2 -0.011164 17.25264687011667 16.29240557112559 10.036547040952827 2 0 -2
107 1 2 -0.120364 17.700989258192628 16.624077819458954 11.327849293670523 2 0 -2
98 1 2 -0.120364 16.538169402482715 17.34882778522646 9.34164743793728 2 0 -2
1481 5 6 0.102614 12.493831729905153 17.89953201564171 11.356417263895057 2 0 -2
169 1 2 -0.120364 17.595229817311683 18.3557806133481 6.51551751556919 2 0 -2
1468 5 1 0.090236 11.843122738204984 18.25782761597842 12.143101596291121 2 0 -2
202 1 4 0.046836 21.64881108199504 17.52208137994317 6.247365405098916 2 0 -2
337 2 5 0.137136 19.856747487046064 11.743401231005173 5.737135051322228 2 1 -1
143 1 5 0.137136 23.377942849332264 12.12864252896219 9.083777937524937 2 0 -2
271 1 6 0.102614 23.187647824478038 12.427318488608257 6.7088432472418 2 0 -2
159 1 2 -0.011164 18.799878821049035 17.62342515639682 6.244890616049379 2 0 -2
125 1 5 0.160636 18.176231150229416 15.930310420549684 12.063785615808953 2 0 -2
139 1 4 0.046836 18.96529661289868 13.37718279947846 9.298392082036544 2 0 -2
170 1 4 0.046836 20.737918351853008 15.35076222862924 6.976477432966711 2 0 -2
261 1 2 -0.09836399999999999 23.847851273472106 15.991647902903807 6.727141190010504 2 0 -2
171 1 4 0.046836 18.95993683950169 15.31866155618964 7.161230417559959 2 0 -2
126 1 1 -0.07226399999999999 18.90445942180013 14.398305805260172 9.609340802967784 2 0 -2
140 1 4 0.046836 19.19593990740628 14.300407135735146 10.664584138306797 2 0 -2
158 1 1 -0.036264 19.801610656626877 17.34642589287879 7.356101951520404 2 0 -2
279 1 5 0.137136 23.080316590500754 15.64627038278139 7.417161196501667 2 0 -2
157 1 1 -0.07226399999999999 19.88707375737425 15.774206052060233 7.569765306181481 2 0 -2
201 1 4 0.046836 21.71248243796072 17.644942642847106 8.065668362974746 2 0 -2
142 1 5 0.160636 21.047555183998277 13.072042481051051 8.264019332282992 2 0 -2
127 1 1 -0.036264 20.007976255323612 15.366595351275466 9.051095634497454 2 0 -2
141 1 4 0.069836 19.813343325730717 16.20880051989209 9.77663321550558 2 0 -2
129 1 2 -0.120364 21.789141414860836 13.596267121556874 8.866751492968163 2 0 -2
128 1 2 -0.011164 21.366056026144268 14.83132412832841 9.34053626293585 2 0 -2
130 1 2 -0.09836399999999999 23.06386085990136 13.158023617200657 9.262978319482011 2 0 -2
1074 4 6 0.102614 21.636543184068795 12.515519314270623 11.493888690554508 1 1 -2
156 1 5 0.160636 21.75468268826601 16.481249088461627 10.70549104056015 2 0 -2
138 1 2 -0.120364 22.123791147569005 15.57259213793283 10.221230005841235 2 0 -2
131 1 2 -0.188164 23.932849562007746 14.004121423312897 9.956385356826672 2 0 -2
137 1 2 -0.09836399999999999 23.411289086082263 15.186235613101257 10.528674601683209 2 0 -2
172 1 4 0.069836 19.30812800897011 17.720779314986224 8.190874821229626 2 0 -2
155 1 5 0.137136 24.08314678269992 15.769559226075264 11.095092469922282 2 0 -2
188 1 1 -0.07226399999999999 21.201474266055282 18.009325658600662 7.150403410170449 2 0 -2
272 1 6 0.102614 24.926608455441485 12.811938100823955 6.411739528742582 2 0 -2
144 1 6 0.100836 0.07009494619437506 12.447355505435429 9.950758192220782 3 0 -2
150 1 6 0.102614 -0.06593429343141466 14.35832738915099 7.891277400278222 3 0 -2
262 1 2 -0.120364 24.58141930648653 17.08252336821996 7.2471644146316 2 0 -2
280 1 5 0.160636 24.22918923544199 17.424436345934442 8.188090547630031 2 0 -2
283 1 2 -0.011164 4.386887475486166 20.65504851691015 6.056491884528768 3 0 -2
312 1 5 0.160636 3.7859288532871402 22.644904541360614 6.478363258692594 3 0 -2
294 1 4 0.046836 2.9306272547384706 18.129585841974198 6.29371005967387 3 0 -2
316 1 4 0.045503 5.000062204639091 18.80848944522955 7.995225754241217 3 0 -2
281 1 1 -0.07226399999999999 2.4299813336394376 19.123636612827486 6.460115002155788 3 0 -2
263 1 4 0.046836 0.7801514578419495 21.121283418187215 7.336685625992057 3 0 -2
251 1 1 -0.036264 1.0045534046277411 18.994334801012606 7.1078747419239 3 0 -2
282 1 1 -0.036264 3.427684935241217 20.11166935218496 7.131965151148607 3 0 -2
297 1 4 0.069836 2.9393025807517708 20.99998079496632 7.555667812077555 3 0 -2
296 1 1 -0.088964 4.251293715879217 19.519443258843022 8.326028345390146 3 0 -2
317 1 4 0.045503 4.7428851558773175 20.31372285793846 8.97595358489517 3 0 -2
318 1 4 0.045503 3.630773136482212 18.9258163883548 8.967578778565885 3 0 -2
806 3 4 0.046836 3.373060799893668 20.523687103451607 11.483086567562118 3 1 -2
1327 5 6 0.102614 6.066081595409809 22.75608938858415 9.77796368721007 2 0 -2
837 3 4 0.046836 2.901937645292449 22.749270984781674 10.896919279627358 3 1 -2
793 3 1 -0.07226399999999999 2.3775147625628597 20.30209489063613 11.911700933914187 3 1 -2
807 3 4 0.046836 1.8951767804258453 19.641850553690777 11.216319517829755 3 1 -2
824 3 1 -0.07226399999999999 1.7984080828231412 22.64351753050594 10.947932425491464 3 1 -2
265 1 4 0.069836 1.1396931440564506 18.93732039215037 8.23681316981479 3 0 -2
838 3 4 0.046836 1.3994861984215312 22.23453959034495 10.042520156029813 3 1 -2
250 1 1 -0.07226399999999999 0.16825028620411075 20.33714952884897 6.917881481832366 3 0 -2
1329 5 6 0.102614 4.934917750424668 24.20342214178433 11.35558629013807 2 0 -2
1702 59 10 0.4238 8.869226997963342 17.96829145502744 9.878699438653152 2 0 -2
86 1 6 0.102614 10.242402870812716 20.54149990957366 6.471528728975325 2 0 -2
1325 5 6 0.102614 6.781237643038962 21.668267486546558 10.91983326508285 2 0 -2
1313 5 1 0.090236 6.92823443942827 22.642205370004483 10.411632920319981 2 0 -2
1312 5 3 -0.6068 6.99156574036157 23.82638083560401 11.446602274852026 2 0 -2
72 1 1 0.090236 9.51675882740258 19.752987284303536 6.319428988684768 2 0 -2
71 1 3 -0.6068 10.363778325420343 18.387986199818776 6.208720457733543 2 0 -2
1790 89 9 -0.8476 6.795109591880682 19.377303741019947 11.63853984576006 2 0 -2
1794 90 10 0.4238 7.087456380336971 21.991449772819333 7.150069851321825 2 0 -2
1792 89 10 0.4238 7.009181653674797 18.51942258123393 11.17136729130448 2 0 -2
83 1 6 0.100836 12.02253612061927 19.48993341692179 6.915792277865526 2 0 -2
1326 5 6 0.102614 7.828161418023512 22.571813874861103 9.907571195940575 2 0 -2
1793 90 9 -0.8476 8.05071393586701 21.995518674140534 7.4186872251615155 2 0 -2
84 1 6 0.102614 8.795847923001814 19.62900977041369 7.137621613383069 2 0 -2
1795 90 10 0.4238 8.343652377946487 22.935296885475754 7.5948725113923015 2 0 -2
70 1 1 0.188236 11.46632004616026 18.60643454735242 7.176889729222414 2 0 -2
1420 5 6 0.102614 10.56416092831714 22.807486371379966 7.534310832262143 2 0 -2
1406 5 1 0.090236 11.454924306175354 22.434390026047783 8.060736246361392 2 0 -2
1700 59 9 -0.8476 9.516453778904847 18.72475103959536 9.973056925485148 2 0 -2
1701 59 10 0.4238 9.259551410063244 19.287157991598754 10.759019325223614 2 0 -2
82 1 6 0.100836 10.938330803638264 18.863231278024333 8.145583632079184 2 0 -2
1425 5 6 0.102614 9.955107690051978 22.081024370213918 11.182517307198237 2 0 -2
1424 5 6 0.102614 9.346411240798151 22.075235055325354 9.44467203796804 2 0 -2
1408 5 1 0.090236 10.18223091227723 21.88489206886828 10.095408538696278 2 0 -2
1405 5 3 -0.6068 11.364576545166369 22.623058002143704 9.586434856641912 2 0 -2
1426 5 6 0.102614 10.407676280512021 20.833347585833724 10.136857946323113 2 0 -2
1480 5 6 0.102614 10.99663719436123 18.682493849152188 11.686142606259981 2 0 -2
1783 86 10 0.4238 6.845272485885451 24.453204044281886 7.774825021439614 2 0 -2
1407 5 1 0.090236 11.27566409736747 24.103184933444147 9.891490623413302 2 0 -2
1638 29 8 0.32 9.465712710427113 24.267027730483438 7.714922388330258 2 0 -2
1333 5 6 0.102614 8.965916686338225 23.498389383535812 12.13111318714339 2 0 -2
210 1 6 0.102614 15.372643538833106 24.301067617492954 5.770926872958891 2 0 -2
1419 5 6 0.102614 11.686631184655228 21.403679667252042 7.814918473974048 2 0 -2
1416 5 6 0.100836 12.761694564360855 21.139230083336244 10.20803894655356 2 0 -2
1418 5 6 0.102614 12.357178401578315 22.992595145105582 7.737828715235872 2 0 -2
1404 5 1 0.188236 12.700067123250825 22.164755393979593 10.3263862507711 2 0 -2
1813 96 10 0.4238 13.561509654816367 20.686597477574917 6.249842935646 2 0 -2
1403 5 2 -0.188164 12.892904114996563 22.589098348408076 11.78709247568738 2 0 -2
1811 96 9 -0.8476 13.999959355199223 20.636425476523122 7.147217824912537 2 0 -2
1812 96 10 0.4238 14.302676002341748 21.549120375127398 7.421786696911976 2 0 -2
187 1 5 0.160636 17.43846524699578 18.80191861373675 7.4633269298022515 2 0 -2
1417 5 6 0.100836 13.675121998780394 22.499858182316885 9.73450138229379 2 0 -2
1402 5 2 -0.09836399999999999 13.903708033142637 23.560460381735595 12.137828890611772 2 0 -2
1675 48 7 -1.32 14.794898079751121 22.965066498719704 7.7979204858789 2 0 -2
119 1 6 0.102614 17.626482984105742 22.98614226329075 9.598356585420289 2 0 -2
112 1 5 0.137136 15.733587404124872 19.377455420222248 9.429085134749917 2 0 -2
120 1 6 0.102614 16.93456322685569 21.372022663700232 9.248021943872544 2 0 -2
118 1 6 0.102614 16.01839288604721 22.734245381409245 10.02691903740825 2 0 -2
104 1 1 0.090236 16.974061061979775 22.176859975203442 9.93509333061129 2 0 -2
99 1 2 -0.09836399999999999 16.34643528564039 18.611994379081846 9.907278165212857 2 0 -2
100 1 2 -0.188164 16.881553517357805 18.967833746538904 11.11213185700297 2 0 -2
102 1 3 -0.6068 17.472735280649015 21.64226547005981 11.261483355203424 2 0 -2
106 1 2 -0.09836399999999999 17.567361764205824 17.951837027351242 11.824458623427768 2 0 -2
1415 5 5 0.137136 14.430202283227485 24.134066528472474 11.296763612498847 2 0 -2
1676 48 8 0.32 15.740004449597645 22.850136137042206 7.461264058749056 2 0 -2
205 1 5 0.137136 17.746812298904427 22.61924394006736 7.338199525508364 2 0 -2
528 2 6 0.102614 17.025528591074348 24.44143182773734 7.443341951354944 2 0 -1
1482 5 6 0.102614 12.364027522301214 18.9805907766782 12.749910713607179 2 0 -2
536 2 5 0.160636 21.234823084632396 23.024275175149494 5.936493234923857 2 0 -1
518 2 2 -0.120364 20.720535851724613 23.968076631824168 5.764943206382123 2 0 -1
122 1 6 0.102614 17.988074967432837 23.625155789810265 12.018509803205504 2 0 -2
219 1 1 -0.07226399999999999 22.81364419834006 19.942520840941828 6.484837906567045 2 0 -2
810 3 5 0.137136 22.906202029537646 19.148185197767457 10.81003040564713 2 1 -2
192 1 2 -0.09836399999999999 18.266083941837184 21.84769499542321 6.753681108534143 2 0 -2
190 1 2 -0.011164 20.251255471207095 20.427231955079066 6.441748847984639 2 0 -2
189 1 1 -0.036264 21.38153398517215 19.591459651426792 7.098930978358197 2 0 -2
103 1 1 0.090236 18.974066111774405 21.267414812951603 11.147621184708065 2 0 -2
116 1 6 0.102614 19.07262177587783 20.3625988944941 10.51385926576517 2 0 -2
191 1 2 -0.120364 19.469824420055634 21.3246617611312 7.2145476907637995 2 0 -2
221 1 2 -0.011164 23.657312688053484 21.86782885969844 8.036297367002684 2 0 -2
117 1 6 0.102614 19.513468842843533 22.0558371796908 10.669246740434223 2 0 -2
204 1 5 0.160636 19.759945464599053 21.634696121015505 8.209059852248044 2 0 -2
203 1 4 0.069836 21.41890776088493 19.751186075918184 8.230938769789681 2 0 -2
222 1 2 -0.120364 22.806667377590045 22.04399353802227 9.143026295633868 2 0 -2
223 1 2 -0.09836399999999999 22.373839754718798 23.348382911584373 9.443934843239763 2 0 -2
235 1 5 0.160636 22.210744829962714 21.2735305042446 9.65381752415357 2 0 -2
797 3 2 -0.09836399999999999 23.395234418507908 19.85024355330735 11.486181612287174 2 1 -2
236 1 5 0.137136 21.64523085541321 23.48986771786291 10.22534399511187 2 0 -2
231 1 2 -0.120364 24.132848723245708 22.999363407800626 7.356329626175314 2 0 -2
220 1 1 -0.036264 23.949462096202176 20.43336536695567 7.575242521772143 2 0 -2
234 1 4 0.069836 23.927392568570777 19.669497275687412 8.363638935735466 2 0 -2
535 2 5 0.137136 20.21787426840402 24.119997224791373 7.801797084445269 2 0 -1
249 1 5 0.160636 24.771201580621117 22.77547962285994 6.5208567931631105 2 0 -2
809 3 5 0.160636 25.13606319156613 20.186944779155972 10.273435853571199 2 1 -2
796 3 2 -0.120364 24.65792601048802 20.394866622395174 11.164902599893425 2 1 -2
1782 86 10 0.4238 5.361339706116175 25.11131031741261 7.597159988946983 2 0 -2
1781 86 9 -0.8476 5.8786733621695495 24.364677287075565 8.01542068744626 2 0 -2
825 3 1 -0.036264 1.2760683081933304 24.139359568359776 11.275216405892811 3 1 -2
840 3 5 0.160636 1.2660163125527883 24.364060747112166 8.562857489917045 3 1 -2
839 3 4 0.069836 0.2578391945693606 24.20102873398504 10.938536099694437 3 1 -2
1758 78 10 0.4238 9.585560310218716 0.18210466911930823 6.460338326452023 2 1 -2
1324 5 6 0.100836 6.493500029479185 0.07881828182018707 10.045660487943332 2 1 -2
1866 114 10 0.4238 7.554213402467098 0.002365240506962671 6.590043010605202 3 0 -1
1311 5 1 0.188236 7.36214647910644 25.06747189049347 10.697045313906202 2 0 -2
1421 5 6 0.102614 11.431444967166353 24.324587810525017 10.927276649937623 2 0 -2
1423 5 6 0.102614 10.212050746882598 24.41553842810265 9.685654008649404 2 0 -2
1323 5 6 0.100836 8.268938142950795 24.737233776661864 10.060261335074747 2 0 -2
1637 29 7 -1.32 8.51821704374863 24.541524177358827 7.654605274666897 2 0 -2
1422 5 6 0.102614 11.947355896475148 24.670462101538988 9.219885239019995 2 0 -2
1780 85 10 0.4238 14.002818213638525 24.35484398208973 7.7516422708375385 2 0 -2
514 2 1 0.090236 16.814424323007064 24.91299216548384 8.406051608255213 2 0 -1
526 2 6 0.102614 15.812489832143852 24.891053165812565 8.609450728800084 2 0 -1
527 2 6 0.102614 17.330696796777104 24.50804852670825 9.292845267950586 2 0 -1
1668 44 8 0.32 19.767886671078955 24.49750667670318 11.011622856707323 2 0 -2
1667 44 7 -1.32 19.260540562470595 24.28245259345396 10.2096063827875 2 0 -2
517 2 2 -0.09836399999999999 20.088284570490888 24.63334358162924 6.8874394282513665 2 0 -1
230 1 2 -0.09836399999999999 23.83427557145329 24.321902050548026 7.746115742094227 2 0 -2
224 1 2 -0.188164 22.882973983577823 24.481886439381174 8.755195457453643 2 0 -2
248 1 5 0.137136 24.32645655607572 25.098171701280005 7.1752118455167375 2 0 -2
1906 127 10 0.4238 6.334952674423821 3.5028962224317386 11.409332256739564 3 0 -1
913 3 6 0.102614 3.2768010916372647 5.428551181798557 12.057953613354321 3 2 -2
1905 127 10 0.4238 4.9348025245438825 3.8120217944138903 12.190834825802826 3 0 -1
1322 5 5 0.137136 5.831563552664049 1.312332842329593 12.580249964349425 2 1 -2
870 3 4 0.069836 1.100407098484071 1.5296127924834562 12.637101544203292 3 2 -2
1643 32 7 -1.32 3.978968405800515 3.0475533018320258 13.074243251252073 4 3 -1
1644 32 8 0.32 3.4879821896454413 3.256633532953334 13.90887833193245 4 3 -1
1304 5 5 0.160636 5.368416930172245 5.222161284754575 14.392731720120057 2 1 -2
1285 5 2 -0.120364 5.836094826139211 5.192265875223738 15.368034335693963 2 1 -2
1284 5 2 -0.09836399999999999 5.038676285437956 4.961492073004558 16.516743618540144 2 1 -2
1303 5 5 0.137136 3.962773150512402 4.76423068169674 16.435212116977297 2 1 -2
770 3 1 0.090236 4.970530419210313 1.159960864681801 17.038709258473133 3 2 -2
784 3 6 0.102614 5.747951390901662 1.9199636814376677 16.71361425181644 3 2 -2
787 3 6 0.102614 4.604084731646687 1.4376074933718248 14.55007614083016 3 2 -2
871 3 5 0.160636 1.456850123599034 2.9160296983148033 14.164340421967006 3 2 -2
872 3 5 0.137136 1.580440754496941 3.6743504572689587 16.620169870093346 3 2 -2
858 3 2 -0.120364 1.0911888078172745 2.2806486518670135 14.974894724762203 3 2 -2
859 3 2 -0.09836399999999999 1.2199306181498593 2.7043969059870423 16.352059743941407 3 2 -2
856 3 1 -0.036264 0.56084915726736 0.6789587684988951 13.17071314884252 3 2 -2
857 3 2 -0.011164 0.6265753979619851 1.0013218003904152 14.650969486472247 3 2 -2
860 3 2 -0.188164 0.74109784710561 1.800755968898167 17.39219756489356 3 2 -2
866 3 2 -0.09836399999999999 0.19894956039234563 0.5457531165307878 17.023985778854797 3 2 -2
867 3 2 -0.120364 0.16799802832062846 0.09303540789716033 15.6385629835714 3 2 -2
1278 5 2 -0.188164 5.659575929922243 5.1026498789268855 17.754721655026383 2 1 -2
771 3 1 0.090236 4.055607604836779 0.6049913210035789 14.873192434560947 3 2 -2
782 3 6 0.102614 4.071603254972688 1.7473151350138998 16.926707844355906 3 2 -2
1317 5 2 -0.120364 9.551401272927917 2.35315182452352 12.399044368542274 2 1 -2
788 3 6 0.102614 6.986363234940812 0.766545560810422 15.694526893367346 3 2 -2
1321 5 5 0.160636 6.651389416178156 2.7361757300914706 14.281181186863714 2 1 -2
1309 5 2 -0.09836399999999999 6.904166094930691 1.4970246630166602 12.527330361721978 2 1 -2
1318 5 4 0.046836 9.810823249216128 5.33056584828375 13.240434013196172 2 1 -2
1289 5 4 0.069836 7.365682952303776 5.21527034075349 13.362843094676892 2 1 -2
1308 5 2 -0.120364 7.4193137102565165 2.3068956256203577 13.567300074345718 2 1 -2
1307 5 2 -0.011164 8.697673226968494 2.8338321326330447 13.433612884797393 2 1 -2
1305 5 1 -0.07226399999999999 9.311114851309842 5.197059463202167 14.198740377503654 2 1 -2
1349 5 4 0.046836 11.181905889597756 3.0758539656807944 14.367040553010195 2 1 -2
1320 5 4 0.069836 8.497097583243296 3.5927469321068553 15.4441984608214 2 1 -2
1306 5 1 -0.036264 9.159699488028409 3.698204393421831 14.606329132864126 2 1 -2
1352 5 5 0.160636 8.769807263343923 0.01724188815851946 16.653490833857344 2 1 -2
1339 5 2 -0.120364 8.795994373226256 0.8269775506034585 17.37200979354705 2 1 -2
1336 5 1 -0.07226399999999999 10.532791077624214 3.2156868989378147 15.163672148947125 2 1 -2
1351 5 4 0.069836 10.082022128341627 1.183884426586615 15.027166053062109 2 1 -2
1350 5 4 0.046836 10.957529266164931 4.0332126107056 15.847060869567471 2 1 -2
1338 5 2 -0.011164 9.529572530885016 1.9615884982781822 17.074221053952854 2 1 -2
1337 5 1 -0.036264 10.467303767665054 1.8606855691391149 15.846951009244405 2 1 -2
1367 5 1 -0.07226399999999999 11.85360359040581 1.3698982662482853 16.289706901385617 2 1 -2
1348 5 2 -0.120364 9.67006265583741 3.0008939560810317 17.974981419464925 2 1 -2
1366 5 5 0.160636 10.275679266391293 3.9126145910766255 17.918557669520396 2 1 -2
1368 5 1 -0.036264 11.93283739146938 25.137032162150255 16.557476496882764 2 0 -2
1929 135 10 0.4238 13.998573849493985 4.585470668172836 12.01165100901906 1 0 1
1381 5 4 0.046836 12.665871125344514 1.5781066044591838 15.518202121317977 2 1 -2
1380 5 4 0.046836 12.203034583258365 2.052673708243909 17.10800292804458 2 1 -2
1928 135 9 -0.8476 13.299805929360424 4.955789206075191 12.623716986971047 1 0 1
1137 4 6 0.102614 17.04737398181402 3.154234596559209 12.751094765781312 1 1 -2
1412 5 4 0.046836 13.973931417760955 -0.02752719335668702 15.748723196700503 2 1 -2
1138 4 6 0.102614 16.082606095923133 1.8764076583946803 13.42778576246104 1 1 -2
1121 4 1 0.090236 16.90470887741308 2.5174807000085875 13.630965372699661 1 1 -2
1139 4 6 0.102614 17.833526310396724 1.9331446060873212 13.880298096667637 1 1 -2
1131 4 6 0.102614 14.570683953847709 3.6412748136089044 14.053689590245307 1 1 -2
1119 4 1 0.090236 15.311041582356342 4.2777286215622565 14.456192866152891 1 1 -2
1118 4 3 -0.6068 16.562653818130784 3.4986313875801716 14.770540661030834 1 1 -2
1135 4 6 0.102614 15.593734768988703 2.1079877300079994 15.87224107758724 1 1 -2
1120 4 1 0.090236 16.459364508094293 2.714450758557638 15.987756321768721 1 1 -2
1136 4 6 0.102614 16.270957414545837 3.3554000823915895 16.806096812309086 1 1 -2
1661 41 7 -1.32 17.055681639790542 -0.06929184030741098 16.471389496132783 1 -1 -3
1134 4 6 0.102614 17.32545502347238 2.1181202863820627 16.084253419516532 1 1 -2
1133 4 6 0.102614 15.47850789408836 5.014565289399921 13.660936106100873 1 1 -2
1132 4 6 0.102614 14.892539142311023 4.718015004603107 15.420104363142604 1 1 -2
1122 4 2 -0.09836399999999999 17.743564344203712 5.480564690699423 17.431569652995965 1 1 -2
1116 4 2 -0.188164 17.6358005164881 5.6937630323015105 16.043644719616097 1 1 -2
918 3 1 -0.036264 21.20942920363531 3.150884558682176 12.222564963827798 2 2 -2
1117 4 1 0.188236 17.73669533257868 4.514869752779752 15.017536539184302 1 1 -2
954 3 4 0.045503 19.300557062129446 1.9109753421117708 12.611625047336432 2 2 -2
917 3 1 -0.07226399999999999 22.397547050885173 2.1420431310120702 12.081809521273287 2 2 -2
1140 4 5 0.137136 17.817004289470635 4.489998801178606 17.786969695377465 1 1 -2
1130 4 6 0.100836 18.12748593508188 4.825853573020792 14.030989003600565 1 1 -2
1129 4 6 0.100836 18.633027031044097 3.890456540252364 15.30002291335805 1 1 -2
931 3 4 0.046836 21.96835065379075 1.1175058778605813 12.24623050970988 2 2 -2
887 3 1 -0.036264 23.674479439084532 2.1881099529216286 13.024235437540037 2 2 -2
899 3 4 0.046836 23.84250440844239 0.006196708528483655 12.816769729841997 2 2 -2
1581 5 6 0.102614 19.272057102231138 2.1079513061360973 18.25418116623846 2 1 -2
919 3 2 -0.011164 21.147993368886272 3.944182719356225 13.5236705973722 2 2 -2
901 3 4 0.069836 23.40350575662191 2.0812131579011344 14.09658437987112 2 2 -2
1547 5 6 0.102614 22.73124649444114 24.457703805735356 14.664630841430018 2 0 -2
934 3 5 0.160636 21.198072185359884 2.1711312230964035 14.833151168155188 2 2 -2
920 3 2 -0.120364 21.08595395293161 3.2414963306436952 14.807594041873553 2 2 -2
916 3 5 0.160636 23.67235431179497 4.473581452468595 14.491701115794692 2 2 -2
921 3 2 -0.09836399999999999 21.102761626785597 3.9727346358329596 15.998709622772509 2 2 -2
935 3 5 0.137136 21.152069173095267 3.453937426586856 16.97486452789782 2 2 -2
1639 30 7 -1.32 22.030147326014568 1.6610103200229902 18.099125915295556 1 2 -3
1640 30 8 0.32 21.97681529470817 0.731781508312326 17.825415242936145 1 2 -3
945 3 6 0.102614 23.48690683411387 4.489221874305462 16.679104745428816 2 2 -2
929 3 2 -0.120364 21.04412939741129 5.356188523643095 13.556959127562079 2 2 -2
922 3 2 -0.188164 21.081944857841787 5.359127403425159 16.054890838701688 2 2 -2
940 3 6 0.102614 23.022784740107475 7.11387475368151 15.635326011207509 2 2 -2
1544 5 6 0.102614 20.872291055472186 0.33972573612382917 16.26911021150766 2 1 -2
886 3 1 -0.07226399999999999 24.44339639211327 0.9370273269600151 12.641077207923045 2 2 -2
888 3 2 -0.011164 24.451080417415945 3.5022541086623082 12.851435791758192 2 2 -2
898 3 2 -0.120364 24.384486749642832 4.527182897890406 13.771621417201674 2 2 -2
891 3 2 -0.188164 0.6391477447396935 5.886051762007758 12.499171112806833 3 2 -2
896 3 1 0.090236 3.5085858286987626 6.435869269314479 11.711526794936168 3 2 -2
914 3 6 0.102614 4.578730861866185 6.675060025714009 11.771381613067252 3 2 -2
1718 65 9 -0.8476 0.5887104897097201 11.585313808327248 12.503976485584738 2 0 -2
910 3 6 0.102614 2.6427397841760403 5.983913017061096 14.311603316503916 3 2 -2
893 3 3 -0.6068 2.7384002384763813 7.3417991999265455 12.528888205125485 3 2 -2
904 3 6 0.100836 0.8906330524380481 7.960084081255761 12.92285607115544 3 2 -2
1301 5 6 0.102614 3.3204789923929785 6.467396434669602 17.513110828008003 2 1 -2
895 3 1 0.090236 2.9722421851979326 7.013809389248112 14.029620883182623 3 2 -2
908 3 6 0.102614 3.157612472921118 9.334997647472287 13.279697845002651 3 2 -2
911 3 6 0.102614 4.068402892943 7.148399334954557 14.283684581112633 3 2 -2
1749 75 10 0.4238 4.775498268731276 10.122350766343393 16.770723543033988 2 0 -2
1748 75 9 -0.8476 4.681524152283646 9.75713290169126 17.69691025464548 2 0 -2
1750 75 10 0.4238 3.713992627553491 9.604453246511866 17.89842613450794 2 0 -2
909 3 6 0.102614 2.410381830400619 7.803437536581674 14.530858493060874 3 2 -2
1744 73 10 0.4238 2.4202553220573133 10.061574574722266 16.557997875555525 2 0 -2
1597 9 7 -1.32 2.053116579530778 9.729858634900033 18.04350100494346 4 2 -3
1769 82 9 -0.8476 0.9549503608134682 7.99941601429391 16.357707422784337 2 0 -3
1771 82 10 0.4238 1.3392882936535762 8.565599878433385 17.08692428833666 2 0 -3
1742 73 9 -0.8476 2.6390902061035013 10.252182665267462 15.601014558150526 2 0 -2
1770 82 10 0.4238 0.8565947382501473 8.54738419175001 15.526988323607393 2 0 -3
1743 73 10 0.4238 1.805214152982939 10.199566880109659 15.051542565276101 2 0 -2
1825 100 10 0.4238 0.9528709883330235 10.465948750885733 17.414117565650443 2 0 -3
1720 65 10 0.4238 0.44100239713322475 10.942978175976252 13.25605664603857 2 0 -2
1915 130 10 0.4238 3.0834664173625588 11.642768449588427 14.282462027643486 3 0 -1
1615 18 7 -1.32 0.34249105101637506 9.763548576677824 14.363892509239427 3 -1 -2
1824 100 10 0.4238 0.25384030837342225 10.437867229219764 15.938552311440972 2 0 -3
1823 100 9 -0.8476 0.22472579171057533 10.85253056310997 16.84808180823137 2 0 -3
1587 5 4 0.045503 9.184894652191964 7.125651303266063 11.784012788215339 2 1 -2
1319 5 4 0.046836 9.959972358279972 5.722699632921904 14.946419308105352 2 1 -2
1275 5 2 -0.011164 7.079014624923267 5.690434815129866 15.444400410028491 2 1 -2
1274 5 1 -0.036264 7.898609993985329 5.829908692859362 14.146578299564307 2 1 -2
1287 5 4 0.046836 6.917293612621291 7.692443046388679 13.77955407074865 2 1 -2
668 3 5 0.160636 6.4890324363889995 11.690051765738895 17.492276142022178 3 1 -2
1231 4 6 0.102614 11.663157952880825 11.333062030448788 12.835119919768255 1 1 -2
1277 5 2 -0.09836399999999999 6.971081636540073 5.510610134142003 17.88062501013184 2 1 -2
1273 5 1 -0.07226399999999999 7.909635165014341 7.2198474483297925 13.53563844936595 2 1 -2
1276 5 2 -0.120364 7.655970100684825 5.825551275653321 16.69482198386802 2 1 -2
651 3 4 0.046836 8.103472795249868 11.078958043290276 15.547476690517296 3 1 -2
1288 5 4 0.046836 8.693989079837252 7.76752414076388 14.078895617667596 2 1 -2
1223 4 6 0.100836 10.849137532314705 8.835782227000333 13.974188497522393 1 1 -2
1290 5 5 0.160636 8.722763698127544 6.094347028761222 16.80212858514247 2 1 -2
1211 4 3 -0.6068 12.076212497860954 10.49056300901241 14.836832958907499 1 1 -2
1210 4 1 0.188236 10.92703854234781 9.440106188635147 14.910305428367652 1 1 -2
1233 4 5 0.137136 9.708685068996155 9.808996856626939 17.370323178501096 1 1 -2
1222 4 6 0.100836 10.055791194718715 10.034780070377382 14.960809220513124 1 1 -2
1221 4 5 0.137136 12.42655171012652 7.166695263414718 15.23797982300168 1 1 -2
1215 4 2 -0.09836399999999999 10.240491230778144 8.84879522004196 17.333604480948637 1 1 -2
1209 4 2 -0.188164 10.981755894613755 8.612664564991233 16.1784795627389 1 1 -2
1208 4 2 -0.09836399999999999 11.870922364561933 7.460427015628347 16.13142406026787 1 1 -2
1207 4 2 -0.120364 12.034188809265784 6.67744660196338 17.2460850632036 1 1 -2
1226 4 6 0.102614 11.676206421276726 11.41211958759092 16.678294106142545 1 1 -2
1214 4 1 0.090236 11.886915437049833 11.692419374519684 13.798259619192452 1 1 -2
951 3 4 0.045503 9.388730613924883 12.404727225069522 13.655477883184899 3 1 -2
949 3 4 0.045503 8.090125088202257 11.437446584629651 13.152890006555362 3 1 -2
637 3 1 -0.07226399999999999 7.985500296373356 12.12081742534818 15.272922344563465 3 1 -2
61 1 6 0.102614 18.171758419102463 5.25793466951219 11.154959658672581 2 0 -2
1930 135 10 0.4238 13.686749261224044 5.71063423011789 13.153359266932853 1 0 1
1220 4 5 0.160636 12.84161423657841 6.005541172876138 17.196123437544692 1 1 -2
1212 4 1 0.090236 12.488122288407064 10.890285422653648 16.182070544625116 1 1 -2
1225 4 6 0.102614 12.746185304329371 9.980573327157826 16.764470824261284 1 1 -2
1228 4 6 0.102614 13.063362162447344 9.261167871407244 13.345636551217838 1 1 -2
51 1 6 0.100836 16.36507486656475 8.222079622315492 12.779509062226621 2 0 -2
1600 10 8 0.32 15.285033236787411 6.82916529155886 14.89832032167556 2 -1 -3
1599 10 7 -1.32 14.658115565629567 7.059007282284228 14.146176952137944 2 -1 -3
1213 4 1 0.090236 13.320957342840233 9.653517854753513 14.342221016199966 1 1 -2
1227 4 6 0.102614 13.483193878926235 8.80691570557872 15.068684753687737 1 1 -2
1229 4 6 0.102614 14.234072911049031 10.23355408340337 14.285656459411943 1 1 -2
1517 5 6 0.102614 15.429283560364869 11.249244260965973 13.702550232229864 2 0 -2
1156 4 4 0.046836 14.495495532676264 8.459451651335861 17.742958050394545 1 1 -2
1155 4 4 0.046836 14.876143589494834 10.146906616627405 17.56967006669715 1 1 -2
1128 4 5 0.137136 17.348094887408514 7.128620597305589 14.402686678691708 1 1 -2
1115 4 2 -0.09836399999999999 17.361680038420378 6.982021001376868 15.551275533510875 1 1 -2
1127 4 5 0.160636 16.931893168827305 9.006791651420968 16.046848750912744 1 1 -2
1114 4 2 -0.120364 17.090143341639642 8.047374175868935 16.424570120812483 1 1 -2
1113 4 2 -0.011164 17.01665430584282 7.852037144082905 17.83790793151392 1 1 -2
1125 4 4 0.046836 17.531682346370737 10.722145816043367 17.73120042975862 1 1 -2
1224 4 6 0.102614 13.44427315092894 11.494503369031923 16.178509848849533 1 1 -2
1519 5 6 0.102614 16.77529871399787 12.085862314180517 12.65672386560253 2 0 -2
1072 4 6 0.102614 19.972877293025732 12.011121797010713 12.016653997444996 1 1 -2
1058 4 1 0.090236 21.060749873420292 11.970271597943857 12.215733104580046 1 1 -2
948 3 5 0.160636 21.020626241205765 5.914135019013844 12.651003408277301 2 2 -2
923 3 1 0.188236 21.443587830631916 6.183617706694523 17.316318480207876 2 2 -2
1067 4 6 0.100836 20.002074928599455 9.492892798881767 12.733165261125766 1 1 -2
1068 4 6 0.100836 21.517204558314297 8.62881754545667 12.869462291007391 1 1 -2
1055 4 1 0.188236 21.068544378573108 9.601132413367782 13.048876601181473 1 1 -2
1075 4 6 0.102614 23.203026509255427 10.571208252218748 13.14387797226486 1 1 -2
1053 4 2 -0.09836399999999999 20.057997459480593 10.788530322753019 15.048626627253936 1 1 -2
1052 4 2 -0.120364 20.10437220894427 11.162449148828848 16.35753608220932 1 1 -2
1051 4 2 -0.011164 21.136998879322853 10.800670534871806 17.224936438083443 1 1 -2
1054 4 2 -0.188164 21.14823010597248 10.050313028369626 14.547331016780237 1 1 -2
928 3 2 -0.09836399999999999 20.970758925692827 5.988991838534283 14.822991238318703 2 2 -2
947 3 5 0.137136 20.93645181659254 7.120617833692274 14.86525998664236 2 2 -2
937 3 6 0.100836 21.25942745962432 7.230368333873743 17.190185494219353 2 2 -2
1078 4 5 0.137136 23.153304655895028 9.221281781237858 15.005149577541685 1 1 -2
924 3 3 -0.6068 22.931825563299284 6.26512209507227 17.64647893378064 2 2 -2
1060 4 2 -0.09836399999999999 22.284315885847807 9.801131988431145 15.388976886438563 1 1 -2
1061 4 2 -0.120364 22.24520444915837 10.133687943478924 16.735755436637145 1 1 -2
939 3 6 0.102614 23.949091527638203 8.03747419904762 17.017747176408548 2 2 -2
1079 4 5 0.160636 23.126143821695905 9.962879227511396 17.370918462085026 1 1 -2
925 3 1 0.090236 23.62549961799351 7.057763035591789 16.559322397312744 2 2 -2
1066 4 5 0.137136 19.187006896410686 11.067003624215884 14.467648076820113 1 1 -2
758 3 6 0.102614 24.13496951503855 12.287297641633893 16.108245547993825 2 1 -2
1065 4 5 0.160636 19.229182160629822 11.774062152114894 16.671332208096686 1 1 -2
897 3 2 -0.09836399999999999 25.067029781097055 5.704476964406481 13.588318899321358 2 2 -2
1616 18 8 0.32 25.039250089391935 9.483877947213614 13.609673432689098 2 -1 -2
915 3 5 0.137136 24.90583806666191 6.5603617470424185 14.245745713695662 2 2 -2
938 3 6 0.102614 24.496246688114038 6.4728722289948895 16.28044770030779 2 2 -2
1914 130 10 0.4238 2.0457254837533334 12.000179673178208 13.0732987407627 3 0 -1
1913 130 9 -0.8476 2.8772818559603075 12.2890704302996 13.547738630499552 3 0 -1
1921 132 10 0.4238 4.19498254634305 12.899508043096336 12.03094463366844 1 0 1
745 3 4 0.046836 5.585770540598932 16.886396299587634 13.410216079629599 3 1 -2
747 3 5 0.160636 2.538516525019934 14.844699810614758 13.488124005330395 3 1 -2
744 3 4 0.046836 4.6691053067385635 15.397191379534878 13.597651929995711 3 1 -2
731 3 1 -0.07226399999999999 4.878952086252118 16.351562320380275 14.076098305647983 3 1 -2
701 3 1 -0.036264 5.645699091466233 16.217191740746166 15.40327794238212 3 1 -2
730 3 5 0.160636 4.444910237838672 13.579121001226314 15.479696723004475 3 1 -2
702 3 2 -0.011164 4.678786898902492 15.58998247738869 16.441329375682162 3 1 -2
703 3 2 -0.120364 4.345754795143377 16.358614256611787 17.54468043888325 3 1 -2
712 3 2 -0.120364 4.1849385892247675 14.278783843482014 16.31942015762043 3 1 -2
715 3 4 0.069836 5.999609067889667 17.207072183512185 15.776301345420627 3 1 -2
711 3 2 -0.09836399999999999 3.517522008447305 13.72608487160028 17.445282814938913 3 1 -2
729 3 5 0.137136 3.1860672253854405 12.717864826070194 17.310916443133028 3 1 -2
716 3 5 0.160636 4.796925162757841 17.37081264677352 17.71192431151362 3 1 -2
733 3 2 -0.011164 2.3806842491048874 16.626217417496598 14.684922222905934 3 1 -2
734 3 2 -0.120364 1.9499484082794463 15.41516840694034 14.181000353783897 3 1 -2
743 3 2 -0.120364 1.5643070874273983 17.243507119538958 15.658439769656205 3 1 -2
732 3 1 -0.036264 3.6190472762532075 17.313934743357027 14.320038449088202 3 1 -2
748 3 5 0.137136 0.685456373217917 13.750682196747057 14.267360106740378 3 1 -2
735 3 2 -0.09836399999999999 0.8073052546129981 14.740570031324912 14.675112558989822 3 1 -2
736 3 2 -0.188164 -0.06733308510123592 15.418668998890508 15.550923021568776 3 1 -2
742 3 2 -0.09836399999999999 0.34846044969844125 16.64797630586097 16.13331756923303 3 1 -2
1469 5 1 0.090236 10.555875036184807 16.259612095588185 12.117781234023276 2 0 -2
650 3 1 -0.09496400000000001 8.338078988114363 12.344603588229296 13.792176373692808 3 1 -2
1230 4 6 0.102614 11.226207165846718 12.433124104966486 14.126372754395991 1 1 -2
714 3 4 0.046836 6.617277210519605 14.385812616579468 14.859674900944821 3 1 -2
652 3 4 0.046836 6.955851431155349 12.429307337744987 15.355471218583679 3 1 -2
1484 5 6 0.102614 10.125492921449636 15.536313660409558 12.757009014418328 2 0 -2
700 3 1 -0.07226399999999999 6.8802427113698315 15.337689606759392 15.309399208590433 3 1 -2
1467 5 3 -0.6068 11.478240713377067 17.001947949746864 13.024199229942695 2 0 -2
684 3 4 0.069836 7.041615495495167 14.413417686014492 17.234909323748482 3 1 -2
950 3 4 0.045503 7.885872891581447 13.257921952131055 13.419878476462571 3 1 -2
713 3 4 0.046836 7.615210429766036 15.816270275091291 14.600634038806161 3 1 -2
670 3 1 -0.036264 7.632803998237298 15.079777396176599 16.65492142687952 3 1 -2
671 3 2 -0.011164 7.7674028798894446 16.33055531681628 17.450021385892207 3 1 -2
669 3 1 -0.07226399999999999 8.95767518513754 14.404011844082822 16.337896542009307 3 1 -2
638 3 1 -0.036264 8.900004435246336 12.839704084161996 16.30515518181901 3 1 -2
683 3 4 0.046836 9.40429597394961 14.742121943307637 15.395252602061252 3 1 -2
682 3 4 0.046836 9.642234483369675 14.693822539469366 17.15091850848853 3 1 -2
653 3 4 0.069836 9.897941463047173 12.341217637106547 16.05879195806603 3 1 -2
1455 5 6 0.102614 11.024813174602981 15.731166198699105 18.19033945717515 2 0 -2
681 3 2 -0.120364 8.374205020014927 17.51237323002219 16.942564898887273 3 1 -2
699 3 5 0.160636 8.888257468517702 17.518859741755296 15.981724923779751 3 1 -2
1486 5 6 0.102614 10.484405072594996 16.638439539824798 14.892791517728801 2 0 -2
1630 25 8 0.32 11.538985778940546 13.586413115368616 16.670242000909806 2 1 -3
1479 5 6 0.100836 12.247306514490608 15.226469964604755 14.023991992016127 2 0 -2
1232 4 6 0.102614 12.851209249865432 12.144862385808812 13.686339067209394 1 1 -2
1478 5 6 0.100836 13.090489883632046 15.711625305535987 12.585002642134395 2 0 -2
1518 5 6 0.102614 15.083466117218927 12.51900546828992 12.470299093431885 2 0 -2
1514 5 6 0.102614 15.906490265393177 14.773932844756422 12.807479789275694 2 0 -2
1629 25 7 -1.32 12.416729659356948 13.612120079366257 16.988710609078385 2 1 -3
1516 5 6 0.102614 17.481350674164194 14.50694745242128 13.566281747081732 2 0 -2
1501 5 1 0.090236 15.821351345054632 12.167352586051061 13.228926282903714 2 0 -2
1466 5 1 0.188236 12.636694896404403 16.12128155979714 13.524280980185312 2 0 -2
1477 5 5 0.137136 12.56748560904583 16.199919398475668 16.222715458697994 2 0 -2
1509 5 6 0.100836 16.145712626640922 12.070857188669349 16.100456347409665 2 0 -2
1500 5 1 0.090236 16.470356502952946 14.564309734476804 13.747072823856406 2 0 -2
1511 5 6 0.102614 13.7052916684602 13.874140185003284 13.919223743834017 2 0 -2
1464 5 2 -0.09836399999999999 13.4114929401529 16.791964566990618 15.827613606811406 2 0 -2
1465 5 2 -0.188164 13.55932546768549 16.852507956200817 14.433620474428434 2 0 -2
1515 5 6 0.102614 16.325245015086107 15.297838044436212 14.564251717342989 2 0 -2
1512 5 6 0.102614 13.974639585900201 12.676090478263689 15.201978590782819 2 0 -2
1498 5 3 -0.6068 15.841115063996192 13.260461759858902 14.297681691567531 2 0 -2
1510 5 6 0.100836 17.50280317572074 12.312039124949502 15.065854173007473 2 0 -2
1476 5 5 0.160636 14.542253606505055 17.14483601487732 17.75018535204598 2 0 -2
1499 5 1 0.090236 14.444335707479649 13.530002210571675 14.712565274665636 2 0 -2
1513 5 6 0.102614 14.479150028679662 14.280049531461637 15.500676421673214 2 0 -2
1497 5 1 0.188236 16.665602352780176 12.790799617843852 15.506749314996647 2 0 -2
1520 5 5 0.137136 15.37673890334768 13.83114662918602 17.53540777071914 2 0 -2
1502 5 2 -0.09836399999999999 16.37383181830891 14.375359842420705 17.39940832852876 2 0 -2
1496 5 2 -0.188164 17.185731159636724 13.925379393337153 16.395822326665854 2 0 -2
1493 5 2 -0.011164 17.990018548754424 16.21414967077475 17.78588560512005 2 0 -2
1463 5 2 -0.120364 14.534273820528309 17.34600060120301 16.65372895315008 2 0 -2
1489 5 5 0.137136 14.766356667253197 17.72593371885296 12.819011165698349 2 0 -2
1471 5 2 -0.09836399999999999 14.620017398895257 17.609863145178146 13.863405897243435 2 0 -2
1614 17 8 0.32 20.460518037979362 14.852544249393555 11.76941924186712 1 0 -2
757 3 6 0.102614 22.98767317787148 11.749040113372605 14.791448177112976 2 1 -2
1495 5 2 -0.09836399999999999 18.416102104226805 14.513791812519932 16.11346246379269 2 0 -2
1494 5 2 -0.120364 18.803032694146196 15.67272571231653 16.789688791065824 2 0 -2
1508 5 5 0.137136 18.981443772697773 14.14899541347231 15.273904958846774 2 0 -2
1613 17 7 -1.32 20.414835846696626 14.541281587301855 12.722788930535566 1 0 -2
754 3 6 0.102614 22.556497679632947 13.875537580560383 13.003455657327537 2 1 -2
1073 4 6 0.102614 21.33934054157432 12.46522641346722 13.157184379383402 1 1 -2
815 3 6 0.102614 19.96467704160408 17.1934527077658 13.277549170864672 2 1 -2
1507 5 5 0.160636 19.741994843014027 16.155531230470103 16.532087883605897 2 0 -2
740 3 1 0.090236 23.153102878620558 14.43734843266131 13.640801701042715 2 1 -2
813 3 6 0.102614 21.628502194688476 16.60970026884566 12.859127531038322 2 1 -2
801 3 1 0.090236 20.964881365587352 17.07826971116567 13.592254812627237 2 1 -2
1626 23 8 0.32 21.233822390075055 17.22859486768394 18.023550193396396 2 0 -2
751 3 6 0.102614 21.480482005359203 15.29054966628633 15.826959462681096 2 1 -2
741 3 1 0.090236 23.73922498131073 12.543881057584272 15.112816037247322 2 1 -2
753 3 6 0.102614 21.46241192893476 13.632287994939743 16.5552949695289 2 1 -2
738 3 3 -0.6068 23.15341638301287 13.939525903029717 15.067703243478421 2 1 -2
814 3 6 0.102614 21.054748829102984 16.39183744158181 14.404667179927914 2 1 -2
739 3 1 0.090236 21.635668786014445 14.169137952976364 15.585449935398803 2 1 -2
752 3 6 0.102614 20.91725322124364 13.73656689509527 14.89882047998627 2 1 -2
1625 23 7 -1.32 21.85990193143073 16.6552725156502 17.490578967181847 2 0 -2
749 3 6 0.100836 23.25818325531733 15.577015501045025 16.373555881043494 2 1 -2
1062 4 4 0.046836 22.785314820294015 12.492662293261555 17.951320068687952 1 1 -2
821 3 6 0.102614 23.162518060301863 17.418932660201385 15.48082574931214 2 1 -2
755 3 6 0.102614 22.760279490430474 15.43255213815221 13.57341566636362 2 1 -2
759 3 6 0.102614 24.626571110168893 12.528731626326927 14.482861722541504 2 1 -2
756 3 6 0.102614 24.128858223278343 14.465347506619988 13.202804771332962 2 1 -2
737 3 1 0.188236 23.92876964916626 14.785223549364298 15.985998020104283 2 1 -2
750 3 6 0.100836 24.15465203814452 14.234859928967637 16.847030449157455 2 1 -2
760 3 5 0.137136 25.062468551410316 17.159252279510092 16.89835037637572 2 1 -2
794 3 1 -0.036264 1.4924176617401972 21.541356306297825 12.032063933422585 3 1 -2
795 3 2 -0.011164 0.04608667857177148 21.111182062797095 12.140614035135538 3 1 -2
1314 5 1 0.090236 5.619643996026766 23.882792370908653 12.091686246255772 2 0 -2
1328 5 6 0.102614 5.333753281868304 22.846333796337532 12.340072284882892 2 0 -2
776 3 4 0.046836 4.468905830567695 18.441520859274075 12.747112230646074 3 1 -2
808 3 4 0.069836 1.7874750727382809 21.99282786804164 12.969288894180073 3 1 -2
762 3 1 -0.07226399999999999 3.4431822308557325 18.227121641264272 13.043173260763778 3 1 -2
763 3 1 -0.036264 2.5981910652749702 19.496759029666656 13.207291109896 3 1 -2
777 3 4 0.069836 1.5958036988475843 19.23985963873308 13.42706424267523 3 1 -2
778 3 5 0.160636 5.258406429501385 20.493707236581596 13.583704040923644 3 1 -2
764 3 2 -0.011164 3.2549138585202098 20.430571493263564 14.335575753989488 3 1 -2
765 3 2 -0.120364 4.568173697610287 20.932254549988393 14.276694602117384 3 1 -2
746 3 4 0.069836 3.8580250256035176 18.051786422595985 15.164850093889912 3 1 -2
779 3 5 0.137136 5.942352487520943 22.394302120492274 14.973377493642987 3 1 -2
766 3 2 -0.09836399999999999 4.954935498992435 22.053073570032108 15.083799383305166 3 1 -2
767 3 2 -0.188164 4.052071984138181 22.72702849220543 15.91621596679931 3 1 -2
773 3 2 -0.09836399999999999 2.7645331922786625 22.175374471196395 16.015872020007723 3 1 -2
774 3 2 -0.120364 2.348523033499831 21.01232955330652 15.239246134355577 3 1 -2
791 3 5 0.137136 2.051207056388253 22.726806552676884 16.613080243839583 3 1 -2
761 3 5 0.160636 1.8536803828238007 18.195590271757528 16.00647315851125 3 1 -2
780 3 6 0.100836 4.71777234603398 23.848108112522045 17.546982460701404 3 1 -2
792 3 5 0.160636 1.2890131198747865 20.676844126385316 15.171073699512098 3 1 -2
768 3 1 0.188236 4.276058101521838 24.10743410286453 16.588306338629465 3 1 -2
781 3 6 0.100836 3.191878281878711 24.437190527870094 16.77141868847462 3 1 -2
823 3 5 0.160636 -0.03468349328548031 22.02641926942211 14.077652404363546 3 1 -2
868 3 4 0.046836 0.4370045440833862 23.875941461641386 13.286992324204501 3 1 -2
691 3 6 0.102614 5.1893204527061085 19.50684068841497 17.865074378172757 3 1 -2
1470 5 1 0.090236 10.623210419669345 17.481641725952876 14.215877187188918 2 0 -2
789 3 6 0.102614 6.58172235374463 24.566835762123937 14.632313661824416 3 1 -2
1791 89 10 0.4238 7.64151953442513 19.80223725109536 11.959568239157544 2 0 -2
1641 31 7 -1.32 9.145829702673074 20.182991976412346 12.039619443599223 3 0 -2
1427 5 5 0.137136 11.326603056348677 21.28239863238583 12.520035650464598 2 0 -2
1315 5 1 0.090236 7.963754406520529 23.45873332496934 12.54154486827734 2 0 -2
1642 31 8 0.32 9.714425158553048 20.594392705988188 12.69797806544644 3 0 -2
1332 5 6 0.102614 7.866498299925599 22.458201328894642 13.007837149573607 2 0 -2
1488 5 6 0.102614 9.605486658674097 17.74704210800189 13.839421414141993 2 0 -2
694 3 6 0.102614 7.264987020481583 20.78806591800197 16.94950369961465 3 1 -2
1827 101 10 0.4238 8.824906121787484 20.120963513050988 13.724678356014204 2 0 -2
1657 39 7 -1.32 8.35557030984168 22.847166187632908 15.415202839097132 1 0 -3
680 3 2 -0.09836399999999999 8.245454411048554 18.647819658825345 17.692117907186795 3 1 -2
1487 5 6 0.102614 11.158909245113927 18.21735859334393 14.718489830954788 2 0 -2
698 3 5 0.137136 8.788784969260345 19.547799365600355 17.262493028593518 3 1 -2
1826 101 9 -0.8476 8.981740680989018 20.195561683973658 14.70950073443854 2 0 -2
1428 5 5 0.160636 11.726642013357734 21.787197745153048 14.79221566744255 2 0 -2
1828 101 10 0.4238 8.694546821958799 21.09993659189854 15.025194978236792 2 0 -2
1458 5 5 0.137136 11.019310608724101 18.61530250725627 17.037894687080126 2 0 -2
1440 5 2 -0.09836399999999999 11.877836401517996 19.116054398020477 17.57518382906094 2 0 -2
1397 5 5 0.160636 10.210020358381156 22.92914852370195 17.107086932398865 2 0 -2
1379 5 2 -0.120364 10.462707471027063 23.53162001468876 17.99875329380806 2 0 -2
1658 39 8 0.32 9.187613958618819 23.367699362810395 15.473870584066699 1 0 -3
693 3 6 0.102614 6.349415833224126 22.184899400655375 17.061593859381336 3 1 -2
678 3 1 0.090236 7.006353617245786 21.51331915752662 17.622445351788883 3 1 -2
101 1 1 0.188236 16.64972759900858 20.44437052731647 11.704978771188312 2 0 -2
105 1 1 0.090236 17.328254348999373 22.756403028423378 12.344531872096637 2 0 -2
1409 5 2 -0.09836399999999999 12.162611844346241 21.98509275046063 12.767389095097016 2 0 -2
114 1 6 0.100836 15.626919591481256 20.636756531574427 11.648847292631492 2 0 -2
121 1 6 0.102614 16.292584663245933 23.17728263428575 12.372124447557452 2 0 -2
1410 5 2 -0.120364 12.370511134273267 22.248203180616546 14.07644349858479 2 0 -2
1459 5 5 0.160636 12.626132528552604 19.993267520574534 15.777533686408562 2 0 -2
1441 5 2 -0.120364 12.807755152340114 19.88374529205706 16.81123524412608 2 0 -2
1413 5 4 0.069836 12.893752598341836 22.590364269029244 16.485083232342923 2 0 -2
113 1 6 0.100836 16.86226389209629 20.348601044062697 12.783479246641425 2 0 -2
123 1 6 0.102614 17.564381651985777 22.309200079272784 13.331168691103466 2 0 -2
1401 5 2 -0.120364 14.180240983016347 23.758723544885402 13.543320880919413 2 0 -2
1400 5 2 -0.011164 13.414443257264878 23.108092072892486 14.51476435662069 2 0 -2
1399 5 1 -0.036264 13.618476269920722 23.25274721839367 16.057048962093734 2 0 -2
1431 5 2 -0.011164 14.004854409753797 20.363134194710927 17.358121611055267 2 0 -2
1490 5 5 0.160636 16.41805367000388 18.75088443040857 14.211032388832056 2 0 -2
1472 5 2 -0.120364 15.581459075110045 18.235544310428395 14.652699646314911 2 0 -2
1444 5 4 0.069836 14.763994268853128 20.97022570672913 15.372294964444905 2 0 -2
1430 5 1 -0.036264 15.055573687858647 21.107781613821576 16.41736196218068 2 0 -2
1429 5 1 -0.07226399999999999 14.96057596359015 22.663278560098615 16.55783925848776 2 0 -2
1443 5 4 0.046836 15.132878221712739 22.918845452639573 17.572718282034828 2 0 -2
1473 5 4 0.046836 17.079740473511002 20.967132911341405 15.851651106159675 2 0 -2
1462 5 2 -0.011164 15.570050374447735 18.128795106601125 16.00468169946168 2 0 -2
1442 5 4 0.046836 15.762311786119811 23.196376455269352 16.04745109168481 2 0 -2
1460 5 1 -0.07226399999999999 16.4475659108013 20.562767275577226 16.588069540595047 2 0 -2
1461 5 1 -0.036264 16.631948900767615 18.990474756225428 16.736851755930573 2 0 -2
1474 5 4 0.046836 16.887312277292498 21.049931095284695 17.462405536712897 2 0 -2
1475 5 4 0.069836 17.558846331236605 18.7878179753548 16.143042067065476 2 0 -2
115 1 6 0.102614 19.278906423470218 21.073228806265845 12.166412666138788 2 0 -2
811 3 6 0.100836 20.90189413766925 19.309683892642465 12.164475929249225 2 1 -2
820 3 6 0.102614 23.456375033224944 17.676502124127573 13.778046275654601 2 1 -2
803 3 1 0.090236 23.032697464135765 18.12376080397408 14.63410160169662 2 1 -2
804 3 2 -0.09836399999999999 23.417689478428954 20.980767604185505 13.610729649850041 2 1 -2
798 3 2 -0.188164 22.754544875977125 20.164411144759757 12.715339641180009 2 1 -2
1506 5 4 0.069836 18.943445637502315 18.06061563834981 17.63053204056905 2 0 -2
124 1 5 0.137136 17.994031874354665 18.214888579731983 12.829920772267265 2 0 -2
1606 13 8 0.32 18.353515209039873 20.16320191375378 15.038962845442061 3 0 -1
822 3 5 0.137136 22.916949644879708 21.158821376398258 14.582238914109176 2 1 -2
1605 13 7 -1.32 18.664659580090817 20.1394889918377 14.111727350667701 3 0 -1
799 3 1 0.188236 21.401050206348383 19.519255562049487 13.102206489314577 2 1 -2
812 3 6 0.100836 20.83169088714046 20.344207378096822 13.585105419659552 2 1 -2
818 3 6 0.102614 19.81351741575206 18.44790852477763 15.295182184623993 2 1 -2
1548 5 6 0.102614 19.548559954117483 22.80654142847813 13.91164478111385 2 0 -2
1549 5 6 0.102614 18.995105416507187 22.635049223515527 15.569274798991337 2 0 -2
816 3 6 0.102614 20.910751920152222 19.89608563984772 15.440180985028688 2 1 -2
802 3 1 0.090236 20.85754602971987 18.817983573698537 15.447921646486568 2 1 -2
800 3 3 -0.6068 21.599707477093304 18.37671444137836 14.104523066405878 2 1 -2
817 3 6 0.102614 21.15012928284508 18.334678766251237 16.370415706934185 2 1 -2
1532 5 1 0.090236 19.926921251463558 22.582257710880707 14.883186148481172 2 0 -2
1550 5 6 0.102614 20.308166248278923 21.63151003850634 15.088764720917395 2 0 -2
819 3 6 0.102614 23.464730009384542 19.129978365871537 14.824134485615147 2 1 -2
1551 5 5 0.137136 22.645586543680977 20.46160045002892 17.24962471474709 2 0 -2
1540 5 6 0.100836 22.438786506990326 22.455982216743855 16.07876662862468 2 0 -2
1528 5 1 0.188236 21.627097672272438 23.059841977311745 16.535804642942004 2 0 -2
1529 5 3 -0.6068 20.881798577693953 23.65734458041486 15.3397223575041 2 0 -2
1545 5 6 0.102614 22.302460572994132 23.040495911219992 13.899028876924028 2 0 -2
805 3 2 -0.120364 24.71639425909157 21.463563261274345 13.312639568243863 2 1 -2
1603 12 7 -1.32 24.541535951979373 21.953998081199565 16.41380472229638 3 0 -3
1604 12 8 0.32 24.48129566914397 22.40738563190145 17.29271053967429 3 0 -3
1267 4 4 0.045503 23.9402343269789 18.9215656012385 18.518652772765325 1 1 -2
786 3 6 0.102614 3.078944262466611 1.0002049677189482 15.18551090935807 3 2 -2
884 3 5 0.137136 25.011544111916862 25.207791808173333 17.661480313032975 2 1 -2
855 3 1 -0.07226399999999999 1.1322492752877789 24.581660597440706 12.767535873902142 3 1 -2
769 3 3 -0.6068 4.945716180245141 0.05567786825091689 16.01610005696028 3 2 -2
1330 5 6 0.102614 5.626679809303827 24.49096359565646 12.99622964436406 2 0 -2
869 3 4 0.046836 2.1186664695040966 24.47171031972164 13.285926849412602 3 1 -2
785 3 6 0.102614 3.9922807815572305 25.118352412533135 14.017774567255982 3 1 -2
1331 5 6 0.102614 7.949579380901028 24.192294711147127 13.340699959339945 2 0 -2
790 3 6 0.102614 6.888644099865622 24.39186453504577 16.31149391992444 3 1 -2
772 3 1 0.090236 6.438073208716592 25.05605514470558 15.610789135026865 3 1 -2
1382 5 4 0.069836 11.320048613927778 24.724143562361206 15.800765216264246 2 0 -2
1369 5 2 -0.011164 11.312112256488158 24.682475214845688 17.894791645152708 2 0 -2
1411 5 4 0.046836 13.812171213730041 25.013462831091505 17.469924037527903 2 0 -2
1662 41 8 0.32 16.5550083271349 24.34155160353102 16.59746711379834 1 -2 -3
1414 5 5 0.160636 15.009971260797549 24.39178086854528 13.878890339250933 2 0 -2
1398 5 1 -0.07226399999999999 13.393864208834444 24.72089351798856 16.47821376217813 2 0 -2
1542 5 6 0.102614 19.550272716116037 24.61713188025512 16.777230407623946 2 0 -2
1546 5 6 0.102614 21.48869451627738 24.526909097397308 13.485024919053824 2 0 -2
1543 5 6 0.102614 19.549209251882832 -0.05422971010106801 15.156315397265868 2 1 -2
1530 5 1 0.090236 20.167785164494223 24.864110090805987 15.895236557268204 2 0 -2
1531 5 1 0.090236 21.886581417521537 23.938935088955265 14.275778847541266 2 0 -2
885 3 5 0.160636 24.939560364984583 24.40326726505341 15.456063867209812 2 1 -2
883 3 6 0.102614 3.1376919146068674 3.082864096354558 19.450670267748404 3 2 -2
1300 5 6 0.102614 2.061898033200484 5.890284729539945 18.709549174308663 2 1 -2
1293 5 6 0.100836 3.9548072465327175 4.338689350025872 18.8018778576542 2 1 -2
865 3 1 0.090236 2.874130950063232 2.034586875394424 19.69271322631147 3 2 -2
881 3 6 0.102614 3.566785340517052 1.7000537394733126 20.529723841834574 3 2 -2
1355 5 6 0.100836 6.173353514036332 1.442778844223854 20.142234833513594 2 1 -2
1674 47 8 0.32 3.9147622752956717 3.168034617724028 21.584290656776655 2 3 -3
1673 47 7 -1.32 4.725889653417874 3.6105492350211437 22.007502307394912 2 3 -3
1356 5 6 0.102614 5.631407822544048 1.3814197901819063 22.52409719113001 2 1 -2
590 2 6 0.102614 4.18183739165863 0.4528941624501417 23.124968621694954 3 1 -2
473 2 5 0.137136 3.0282561002220763 2.970443928491728 23.857796273593046 3 1 -2
1298 5 6 0.102614 2.737148415475547 5.207330710881295 20.91341667915479 2 1 -2
875 3 6 0.102614 1.8389549412512018 2.466096467878803 22.109754973935164 3 2 -2
863 3 1 0.090236 1.0211853383965646 2.5865444265705824 21.34757027152052 3 2 -2
876 3 6 0.102614 0.9660723151830284 3.6005887244226336 21.064345523069854 3 2 -2
862 3 3 -0.6068 1.4075189398507346 1.8733056817689575 19.992393576947524 3 2 -2
882 3 6 0.102614 3.0718210940769803 1.4619955894987258 18.72052856513721 3 2 -2
861 3 1 0.188236 0.4510031273807036 2.300116380492365 18.80809507589083 3 2 -2
877 3 6 0.102614 0.0771599210492753 2.245677495001964 21.770293700371745 3 2 -2
1663 42 7 -1.32 0.32405121629695677 5.743203031019409 20.107796822231307 3 2 -3
864 3 1 0.090236 1.228622094495302 0.36583342596272644 20.23659522119648 3 2 -2
874 3 6 0.100836 0.36180498667384686 3.4233721676587434 18.810385621599806 3 2 -2
1279 5 1 0.188236 4.806805964973315 5.001894318946219 19.00868124261008 2 1 -2
878 3 6 0.102614 1.3941163608040446 25.065486493757042 19.290209328577443 3 1 -2
466 2 6 0.102614 4.823949496048623 5.340221388081695 24.41373716373507 3 1 -2
1292 5 6 0.100836 5.50644072179197 4.625974558477986 19.664922090577214 2 1 -2
1299 5 6 0.102614 4.147325600828431 6.049514203416521 21.711883183021353 2 1 -2
783 3 6 0.102614 5.157474027852092 0.8520738717153364 18.03687497665382 3 2 -2
591 2 6 0.102614 1.7200476132521336 0.8708978033104151 23.595862093535487 3 1 -2
462 2 6 0.100836 5.260464780986981 2.9858425415645162 24.414644601107472 3 1 -2
1908 128 10 0.4238 6.08933144743446 4.477844975006409 21.794720937717127 3 0 -2
1340 5 2 -0.09836399999999999 7.958841053108106 0.7975611967007877 18.437361553531485 2 1 -2
1358 5 6 0.102614 6.736253339969587 0.705415729633076 23.73959465575854 2 1 -2
1344 5 1 0.090236 6.60111848161511 1.4167480648837223 22.91517746715677 2 1 -2
1357 5 6 0.102614 6.957969685195417 2.504114166873696 23.146130968763288 2 1 -2
1907 128 9 -0.8476 6.905819436124061 5.052897798557435 21.742768338046385 3 0 -2
1370 5 2 -0.120364 11.549094877202862 0.07453782506802867 19.111365250169747 2 1 -2
1354 5 6 0.100836 6.9317454819537625 2.9012880238037493 20.813587616944517 2 1 -2
1347 5 2 -0.09836399999999999 8.912307659250535 2.8708170586109825 19.181355770701522 2 1 -2
1342 5 1 0.188236 7.053635720745014 1.8475288948516286 20.552947622753823 2 1 -2
1341 5 2 -0.188164 8.017408179507221 1.8163843146019625 19.397517392450133 2 1 -2
1343 5 3 -0.6068 7.449404289997742 1.0298913281252986 21.820162269124527 2 1 -2
1365 5 5 0.137136 8.893741129579306 3.7563350133251254 19.80725173905429 2 1 -2
1219 4 4 0.069836 10.521296274037802 5.5893225528326544 19.860583090161473 1 1 -2
1346 5 1 0.090236 8.973985466828298 1.2061272399131293 22.085351868454726 2 1 -2
1362 5 6 0.102614 9.122183837581062 2.298409764498464 22.34261449763718 2 1 -2
1364 5 6 0.102614 9.407437724693839 0.5646423602575057 22.944585815157946 2 1 -2
1363 5 6 0.102614 9.483614545143014 1.100036205311909 21.102993015199818 2 1 -2
1384 5 5 0.137136 11.541280513944066 0.02768585373252007 21.212123177409133 2 1 -2
1727 68 9 -0.8476 11.538704835941521 1.4386550437098846 23.655183600195276 2 1 -3
468 2 6 0.102614 6.702834683167231 4.600256974004839 23.893784433461008 3 1 -2
1251 4 4 0.069836 11.9407214056348 3.8664630593368643 21.46540306048304 1 1 -2
1728 68 10 0.4238 12.47892530698548 1.1515834641019527 23.471845813166915 2 1 -3
1383 5 5 0.160636 12.064503171483588 1.0528991773494434 19.12085205331714 2 1 -2
1574 5 6 0.102614 16.31804487146568 0.8412819760922376 18.368040331892335 2 1 -2
1577 5 6 0.102614 16.662548823500952 2.830915385027043 18.947634805385913 2 1 -2
1248 4 4 0.046836 12.098779083146347 4.286205119852549 18.95413332706842 1 1 -2
1266 4 5 0.160636 12.642328256883266 4.369609925840658 23.78278788866597 1 1 -2
1235 4 1 -0.07226399999999999 12.53933421167045 5.017193177642669 19.687991783516576 1 1 -2
1272 4 4 0.045503 14.563288715017782 2.871675549704431 21.077763317992808 1 1 -2
1561 5 1 0.090236 16.635529912899766 0.3254158935851925 19.252292815429733 2 1 -2
1236 4 1 -0.036264 12.867691411400196 4.204122987841776 21.055369638412365 1 1 -2
1270 4 4 0.045503 12.990035064720331 1.9963671069399505 20.987802825459692 1 1 -2
1237 4 2 -0.011164 13.822119473398587 4.920024740371346 22.061669587092357 1 1 -2
1247 4 2 -0.120364 13.52562612674652 4.982215873279134 23.406764386605754 1 1 -2
1250 4 1 -0.088964 13.56825780882311 2.8938963830392197 20.662909548030846 1 1 -2
1562 5 1 0.090236 17.355423528636685 2.6732975665728453 19.74844414213402 2 1 -2
1575 5 6 0.102614 15.833195306467417 0.3664436922986351 19.952728617985933 2 1 -2
1578 5 6 0.102614 16.927697157398686 3.0371497153780256 20.730110941180662 2 1 -2
1271 4 4 0.045503 13.689796669431047 2.7012933396301144 19.582688899883603 1 1 -2
503 2 6 0.102614 15.628461378678448 3.948933032964888 23.65999588367548 2 1 -2
502 2 6 0.102614 16.88941716031746 3.4228115024753993 22.542482364181325 2 1 -2
485 2 1 0.090236 16.50554448032417 3.288786763851794 23.55897889115714 2 1 -2
501 2 6 0.102614 16.15275563891823 2.3525596772881365 23.51626555999739 2 1 -2
1635 28 7 -1.32 13.898002341999954 0.654246788382275 23.13437321427513 2 0 -5
1636 28 8 0.32 13.920074247352945 0.36104584922185373 22.16503194323035 2 0 -5
1573 5 6 0.100836 17.552636972887342 1.1671967478671692 21.902045770813118 2 1 -2
1776 84 10 0.4238 15.203432993032441 -0.058872025874463246 23.636582911701055 2 1 -3
494 2 6 0.100836 18.30962114434327 1.6595252283248088 23.887942668609654 2 1 -2
1249 4 4 0.046836 13.517205442327072 5.276963460555318 19.184585012255198 1 1 -2
1252 4 5 0.160636 15.294247278121649 5.392776576768576 20.53962104197713 1 1 -2
1238 4 2 -0.120364 15.029548578176868 5.516414456207206 21.54758972796699 1 1 -2
927 3 1 0.090236 23.662132917551595 4.9203962672643655 17.650062325203734 2 2 -2
1560 5 3 -0.6068 17.77970939601364 1.1928740484075966 19.717811394049836 2 1 -2
497 2 6 0.102614 18.148806946518246 5.423224231288883 24.4054786089793 2 1 -2
946 3 6 0.102614 23.4015024343903 4.333827097060505 18.549383097118262 2 2 -2
1582 5 6 0.102614 18.719905451773403 0.49845014198826476 17.8313196612976 2 1 -2
483 2 1 0.090236 18.54336779686733 4.418363080210912 24.39822412864596 2 1 -2
1611 16 7 -1.32 18.391980244008703 5.126587078258682 21.170665683641676 2 2 -2
1559 5 1 0.188236 18.25407301534879 0.8224882881308755 21.120092781073076 2 1 -2
496 2 6 0.102614 18.88939723675068 4.384780079915575 23.366025871059527 2 1 -2
1563 5 1 0.090236 18.99384339967574 1.1510552232890319 18.688996028616785 2 1 -2
1580 5 6 0.102614 19.817886055183315 0.7694157759273086 19.233058943210338 2 1 -2
1579 5 6 0.102614 18.198205264099702 3.316723427407792 19.726768741156892 2 1 -2
1572 5 6 0.100836 19.160515045338723 1.3978142316137763 21.345097751478267 2 1 -2
439 2 6 0.102614 20.154610069701853 4.712142048418211 19.942125596775007 2 1 -2
440 2 6 0.102614 20.7370589139572 3.1055040537072163 19.48452827453032 2 1 -2
441 2 6 0.102614 21.670266815220945 4.409408446510653 19.028000546611775 2 1 -2
423 2 1 0.090236 21.03638041093598 4.057544239260081 19.777177744106346 2 1 -2
504 2 5 0.137136 20.41112230744529 0.6884025858272086 23.6439531972039 2 1 -2
437 2 6 0.102614 19.85030018714527 3.6449958481291134 21.999754930271006 2 1 -2
435 2 6 0.102614 22.573012599053886 1.9914134047415768 20.27622138940363 2 1 -2
432 2 6 0.100836 21.578638410271072 5.8776112638436615 21.58847240712761 2 1 -2
421 2 1 0.090236 23.009901651233264 2.885583262605891 20.746567208338178 2 1 -2
434 2 6 0.102614 23.586356721300156 2.5354266430479147 21.62460327785281 2 1 -2
419 2 1 0.188236 22.376583598404267 5.13008868689984 21.69430430579661 2 1 -2
420 2 3 -0.6068 21.810704340270707 3.8629806675127423 21.085409504125675 2 1 -2
438 2 6 0.102614 20.73298630381995 2.1248135383701716 21.51661340134172 2 1 -2
422 2 1 0.090236 20.84761934518865 3.1599915927983426 21.95482838745926 2 1 -2
436 2 6 0.102614 21.192453933865306 3.080545297082532 22.953159996531628 2 1 -2
418 2 2 -0.188164 22.90415811239139 5.146652543831826 23.03887836768674 2 1 -2
431 2 6 0.100836 23.122610280419526 5.398513864552385 20.979251874418665 2 1 -2
430 2 5 0.137136 21.056727323540677 5.6622022592948875 24.077992952762976 2 1 -2
1612 16 8 0.32 18.30571285581329 6.116004907349609 21.116775585935475 2 2 -2
433 2 6 0.102614 23.761199979568328 3.3316047279765915 20.058499079346937 2 1 -2
944 3 6 0.102614 24.687238347563447 5.266543595049535 17.861794006260133 2 2 -2
424 2 2 -0.09836399999999999 24.277425090100227 4.909623816279173 23.285905596989533 2 1 -2
442 2 5 0.137136 24.817379586052464 4.715720663023583 22.368774568702474 2 1 -2
1627 24 7 -1.32 24.42332146964481 0.41109758878646363 22.643044494778323 1 1 -3
873 3 6 0.100836 24.759671944894755 1.8797848540024116 18.998702911368284 2 2 -2
1295 5 6 0.102614 5.516188431782231 7.540055133903468 18.642831808581548 2 1 -2
1664 42 8 0.32 0.480693538631512 6.640450493056609 19.704850993985556 3 2 -3
1283 5 1 0.090236 2.894492520255829 6.568600496630201 18.503355856558453 2 1 -2
1302 5 6 0.102614 2.6068111948076367 7.592698983314689 18.754443197432412 2 1 -2
1282 5 1 0.090236 3.403411410606786 6.063515982551216 20.880974357759126 2 1 -2
1598 9 8 0.32 1.8729216948643572 10.562347356747654 18.481546206625183 4 2 -3
724 3 6 0.102614 2.685195888574361 11.340496521924333 19.890731148835908 3 1 -2
1281 5 1 0.090236 4.952965009179806 7.430541120853261 19.56979084738743 2 1 -2
1280 5 3 -0.6068 4.023011753259504 6.261226761326741 19.4626995185232 2 1 -2
1294 5 6 0.102614 4.414173500706931 8.2982833958149 19.887204503791185 2 1 -2
723 3 6 0.102614 4.2571271358218725 10.972817089148831 20.628927981818308 3 1 -2
1296 5 6 0.102614 5.7347433565899255 7.1495131119081154 20.307527437727018 2 1 -2
1804 93 10 0.4238 5.147935998195799 8.566115806659619 22.340996148070527 2 0 -3
1656 38 8 0.32 5.4922987097957545 6.692347071930044 22.595189732304927 2 1 -2
1655 38 7 -1.32 6.104228572232533 7.332289083403411 23.064496843431126 2 1 -2
1803 93 10 0.4238 4.110553723600589 9.697014741823889 22.899235454410302 2 0 -3
1802 93 9 -0.8476 4.4359245434811765 9.219271272598435 22.08318868370308 2 0 -3
1046 4 6 0.102614 2.968758696034733 8.34480590838541 24.036581295476072 2 1 -2
666 3 6 0.102614 5.939558987001571 10.598945660303189 22.86041581805372 3 1 -2
1297 5 6 0.102614 2.7927132647212582 6.991328864896795 21.010479590182644 2 1 -2
1036 4 6 0.100836 2.034070572297606 9.932400734162934 22.830390818972738 2 1 -2
1042 4 6 0.102614 1.8372592190804486 7.892764343577632 21.981344945168043 2 1 -2
1047 4 5 0.137136 1.0188853098238722 10.063588916509618 20.4924073347376 2 1 -2
1025 4 3 -0.6068 0.912238156630507 8.502939720436379 23.76304323249872 2 1 -2
1024 4 1 0.188236 1.0345025605945517 9.871827164978273 23.20189077483947 2 1 -2
1027 4 1 0.090236 0.9939461753810341 7.6114682925232655 22.565859566550174 2 1 -2
1043 4 6 0.102614 1.131221224584382 6.603496726353115 22.888206047526104 2 1 -2
1029 4 2 -0.09836399999999999 0.16821144571330585 10.509337841237569 20.896096236625063 2 1 -2
1048 4 5 0.160636 24.755001635321953 11.504609113159507 19.094045273011204 1 1 -2
709 3 1 0.090236 3.7141397056875722 11.723058799257215 20.044383707119085 3 1 -2
721 3 6 0.102614 1.9955152935829608 12.475765889374133 21.976204260976942 3 1 -2
665 3 6 0.102614 6.527477855140415 12.077859541799208 23.57749166206055 3 1 -2
1291 5 5 0.137136 7.331502999547528 5.6655714600197715 18.848204328173672 2 1 -2
1216 4 2 -0.120364 10.313632539354662 7.9764053010458085 18.449614250261487 1 1 -2
1206 4 2 -0.011164 11.29014809688441 6.935442176816678 18.44476053838461 1 1 -2
649 3 2 -0.120364 7.359054602389425 11.665899043768091 18.152572157088244 3 1 -2
1909 128 10 0.4238 6.769936457901483 5.875376451976835 22.295128487613876 3 0 -2
647 3 1 0.090236 6.676598625373906 11.402570937264183 22.815724314685124 3 1 -2
1872 116 10 0.4238 7.7158826984691595 7.278914111743237 23.371830847114886 3 0 -2
667 3 5 0.137136 6.382252408465306 10.520986348094755 19.72844658064967 3 1 -2
648 3 2 -0.09836399999999999 7.30949654491707 10.969409063409756 19.36007045291006 3 1 -2
1234 4 5 0.160636 9.65861906107573 8.05729197540991 19.31955965760654 1 1 -2
1205 4 1 -0.036264 11.493882869014715 6.148147056453574 19.780764267880002 1 1 -2
644 3 3 -0.6068 8.043414206299824 10.870720288169002 22.8792304421781 3 1 -2
657 3 6 0.100836 7.722232166205571 9.276687486579924 21.546893338432927 3 1 -2
1873 116 10 0.4238 8.835439537142811 6.208651103359724 22.854283900566987 3 0 -2
1871 116 9 -0.8476 8.664473629695522 6.977932251680089 23.469925172883134 3 0 -2
642 3 2 -0.188164 8.43347217195103 10.95439415974194 20.227343584968853 3 1 -2
643 3 1 0.188236 8.425351094204663 10.115139364765156 21.57018930193412 3 1 -2
1188 4 4 0.069836 11.52694905345161 9.066164867198232 20.48099291272788 1 1 -2
1204 4 1 -0.07226399999999999 11.512341757693427 7.0363319463657295 21.04358896045869 1 1 -2
1217 4 4 0.046836 10.471395528601558 7.17609712316373 21.26366640181274 1 1 -2
656 3 6 0.100836 9.378109945489141 9.615671685431819 21.732982173586592 3 1 -2
1185 4 2 -0.120364 11.660601523858082 8.405638208773702 23.554731776627506 1 1 -2
1203 4 5 0.160636 11.263469350292917 7.342921701953239 23.54062566804581 1 1 -2
1174 4 1 -0.036264 12.137999131828133 8.512491164024457 21.008775691843685 1 1 -2
1218 4 4 0.046836 11.908263722174993 6.397331652669311 21.856165668485268 1 1 -2
1175 4 2 -0.011164 12.042372261706705 9.133317265198274 22.41102636437164 1 1 -2
1176 4 2 -0.120364 12.198411303598073 10.50737616628685 22.47393299110436 1 1 -2
1177 4 2 -0.09836399999999999 12.05725030399869 11.192678453514697 23.70944685014274 1 1 -2
1189 4 5 0.160636 12.432810723521776 10.95115763320837 21.522679731042235 1 1 -2
1123 4 2 -0.120364 17.41488246542007 6.579292302134117 18.342631339108504 1 1 -2
1142 4 1 -0.07226399999999999 15.008888028847581 9.362970885208787 18.300284191034645 1 1 -2
1111 4 1 -0.07226399999999999 17.353054260438565 10.250862938857114 18.70653206753295 1 1 -2
1157 4 4 0.069836 13.159709847850731 10.07998447494864 18.962681583184995 1 1 -2
1112 4 1 -0.036264 16.43403448520171 8.9530274224717 18.72305124689391 1 1 -2
1173 4 1 -0.07226399999999999 13.588454549065672 8.572818207106113 20.36978494551682 1 1 -2
1124 4 4 0.046836 16.752544104840243 11.076429057455542 19.100297470905836 1 1 -2
1143 4 1 -0.036264 14.01295086059537 9.741778472871484 19.509838132532817 1 1 -2
1141 4 5 0.160636 17.186636971665724 6.522325158523957 19.3860681852753 1 1 -2
1186 4 4 0.046836 13.586561124273626 7.761269007132671 19.705551267810396 1 1 -2
1144 4 2 -0.011164 14.54450919587776 11.041769692236262 20.273508615315667 1 1 -2
1187 4 4 0.046836 14.289455222922014 8.281664563025634 21.167169883806103 1 1 -2
1126 4 4 0.069836 16.318007690746107 8.697095932531175 19.78769501346784 1 1 -2
1262 4 6 0.102614 14.62895245180332 8.957277970311521 24.200261675126256 1 1 -2
1172 4 5 0.160636 15.580141857637965 10.031127388751706 21.833134803855355 1 1 -2
1154 4 2 -0.120364 15.344998257279448 10.969164890397666 21.460368141778766 1 1 -2
1240 4 2 -0.188164 15.527533000391605 6.370536005448265 23.79650772046976 1 1 -2
1239 4 2 -0.09836399999999999 15.801767230708844 6.280064474181269 22.414177345979695 1 1 -2
1253 4 5 0.137136 16.69999826515706 6.751714336643502 21.990469148882518 1 1 -2
936 3 6 0.100836 20.88135099054382 5.873626158773613 18.151717424240665 2 2 -2
1096 4 5 0.160636 18.243076594052436 11.399712121281535 21.654402729623957 1 1 -2
1083 4 2 -0.120364 18.51237144197262 10.400043593724098 21.788877398377323 1 1 -2
1097 4 5 0.137136 18.410223230070333 10.703195242008025 23.88041641385825 1 1 -2
1084 4 2 -0.09836399999999999 18.6758536829296 10.010523476820067 23.10543662211052 1 1 -2
1050 4 1 -0.036264 21.1345438765985 11.371427928333226 18.59776104039468 1 1 -2
941 3 6 0.102614 22.877999660968918 8.135389315660325 18.786769504353334 2 2 -2
1081 4 1 -0.036264 18.839507925533773 10.199667464765557 19.309913179998425 1 1 -2
1082 4 2 -0.011164 18.88406997015583 9.564550459708611 20.761359158394047 1 1 -2
1095 4 4 0.069836 19.36074388921929 9.4964369975119 18.6714459618779 1 1 -2
1085 4 2 -0.188164 19.186501899495244 8.762374958050154 23.359736156431588 1 1 -2
1064 4 4 0.069836 21.64913418516911 10.709084770564552 19.38264191131019 1 1 -2
1092 4 2 -0.120364 19.332603553156538 8.252679702659103 21.025187759058817 1 1 -2
926 3 1 0.090236 23.28150348322916 7.1296181272690164 18.89203000814962 2 2 -2
1080 4 1 -0.07226399999999999 19.69453476643993 11.553472197021282 19.213273340859015 1 1 -2
1091 4 2 -0.09836399999999999 19.39841768377913 7.818249804925158 22.371335704145544 1 1 -2
942 3 6 0.102614 23.038483775749455 6.579351880111532 19.795491550024956 2 2 -2
1109 4 5 0.137136 19.839272050794108 6.8767515499202005 22.682575264728705 1 1 -2
1110 4 5 0.160636 19.562323517443257 7.5469657603902345 20.302439870335522 1 1 -2
1101 4 6 0.102614 21.77340206991549 8.814111464122716 23.713928157943638 1 1 -2
1021 4 2 -0.120364 23.42456918029965 11.93193394112032 22.11690129942873 1 1 -2
1035 4 5 0.137136 24.156011937498445 11.262516472885949 23.94851806512051 1 1 -2
1020 4 2 -0.011164 23.530364161528166 11.994949880338112 20.737752240610835 1 1 -2
1022 4 2 -0.09836399999999999 24.196317771858226 11.167770188315298 22.890770361255754 1 1 -2
943 3 6 0.102614 24.347392496478204 7.222614171091704 19.02111698432523 2 2 -2
1030 4 2 -0.120364 24.565671520957068 11.256702032919598 20.117119522698992 1 1 -2
1041 4 6 0.102614 0.07776503051028885 7.790493648096485 21.94701435897338 2 1 -2
1023 4 2 -0.188164 -0.026201662014627355 10.4563686431558 22.310186005798123 2 1 -2
725 3 6 0.102614 4.129459992234526 11.753758536900415 19.06282731248663 3 1 -2
704 3 2 -0.09836399999999999 3.5549304436832365 15.907897101950423 18.61196332295293 3 1 -2
705 3 2 -0.188164 3.171476001364532 14.545484963227112 18.581868465646878 3 1 -2
719 3 6 0.100836 1.623872226784259 13.442007197876839 19.88174070593265 3 1 -2
717 3 5 0.137136 3.317395350635861 16.575085976331412 19.436961525498294 3 1 -2
706 3 1 0.188236 2.5406836031818325 14.000958812388827 19.885251838645196 3 1 -2
728 3 6 0.102614 5.438887260950157 13.764004538143297 21.717145774192907 3 1 -2
707 3 3 -0.6068 3.5326744839116135 13.161917000256516 20.71100306826699 3 1 -2
710 3 1 0.090236 4.904976766288169 13.907210922811513 20.772615533046352 3 1 -2
727 3 6 0.102614 5.555155077358627 13.448042074955865 20.025863556509627 3 1 -2
726 3 6 0.102614 4.6977617977592505 14.9341135282525 20.425546292499945 3 1 -2
720 3 6 0.102614 3.472658108844127 12.340559983832707 22.727516595924705 3 1 -2
975 4 6 0.100836 6.1185646597705645 16.97986255100835 23.288334708754597 2 1 -2
973 4 5 0.137136 3.737475743372917 15.84814393130434 23.44305777149035 2 1 -2
959 4 2 -0.09836399999999999 3.406649979556007 16.716079620181002 22.83950156353921 2 1 -2
708 3 1 0.090236 2.900280848604495 12.994820819724158 22.067975779773384 3 1 -2
958 4 2 -0.120364 2.093760282950201 16.636666982430107 22.337330274457045 2 1 -2
718 3 6 0.100836 2.3980622490250187 14.837386307512269 20.47602209135011 3 1 -2
722 3 6 0.102614 2.686943647467325 13.895834557363596 22.57454676992907 3 1 -2
957 4 2 -0.011164 1.5425477095230224 17.659527820843937 21.490805011978363 2 1 -2
972 4 5 0.160636 1.510046684334918 15.805613822941195 22.74192057274954 2 1 -2
1001 4 4 0.046836 0.37118169628435266 16.205591220155103 19.52987486366162 2 1 -2
960 4 2 -0.188164 4.247210186649623 17.807303845850658 22.60576147181847 2 1 -2
961 4 1 0.188236 5.642235894831162 17.975361896025326 23.188981244547104 2 1 -2
1002 4 4 0.069836 25.205906742195246 14.743555926188275 21.07818618385645 1 1 -2
639 3 2 -0.011164 8.68172934290536 12.178051997693855 17.686821432758467 3 1 -2
641 3 2 -0.09836399999999999 9.674909554001665 11.488394049579037 19.801172550803784 3 1 -2
655 3 5 0.137136 10.554215811859056 11.480167026941666 20.441450211983277 3 1 -2
664 3 6 0.102614 6.538880956695774 11.906681957711983 21.81682122514277 3 1 -2
654 3 5 0.160636 10.706419558585027 12.658149706184961 18.268107938963315 3 1 -2
672 3 2 -0.120364 7.200454313117144 16.327429646589728 18.700907706664804 3 1 -2
640 3 2 -0.120364 9.772321475568823 12.165278051056555 18.5868043400628 3 1 -2
1830 102 10 0.4238 6.881217417881268 14.839687974564171 23.537221801606968 2 0 -3
685 3 5 0.160636 6.871705828349734 15.391698563744216 19.128191712554266 3 1 -2
1450 5 6 0.102614 9.547959564462507 15.760063338845807 20.3512039093477 2 0 -2
1618 19 8 0.32 7.9688011520254065 15.179065036126952 21.857502461442227 3 3 -2
1617 19 7 -1.32 8.070769146956287 15.564192329185556 22.72666563626024 3 3 -2
1436 5 3 -0.6068 11.514628269263657 16.67126826424085 20.04696080914423 2 0 -2
659 3 6 0.102614 9.206192881915504 12.654419106011563 22.236172537591322 3 1 -2
1437 5 1 0.090236 10.475868010713674 15.935034776268271 20.892943351192336 2 0 -2
1451 5 6 0.102614 10.864323096035966 14.9360924275377 21.251459104788925 2 0 -2
645 3 1 0.090236 8.88947194929551 12.043891550945922 23.137915016421697 3 1 -2
660 3 6 0.102614 9.743260056798944 11.80080569356248 23.649060142362778 3 1 -2
1768 81 10 0.4238 8.634703963024192 17.151398611373825 22.491957398609923 2 0 -3
1449 5 6 0.102614 10.281257448480982 16.61599968032119 21.815810603749032 2 0 -2
1717 64 10 0.4238 9.39165465791644 14.834041067619243 23.124311138124558 2 0 -3
1715 64 9 -0.8476 10.26819098089447 14.462674801637702 23.430592884517804 2 0 -3
1716 64 10 0.4238 10.821076730864371 15.196177199963984 23.825977132631387 2 0 -3
673 3 2 -0.09836399999999999 7.101930114621367 17.483682248068433 19.46276849347587 3 1 -2
686 3 5 0.137136 6.7082764687370595 17.514757917752412 20.49116283640432 3 1 -2
1453 5 6 0.102614 12.52970926845898 17.01063066858235 21.901725850003448 2 0 -2
1452 5 6 0.102614 13.23709234422667 15.696247832049048 20.838942423500164 2 0 -2
974 4 6 0.100836 6.24442450274177 18.54093929788405 22.445834951423944 2 1 -2
1447 5 6 0.100836 10.084660757585693 17.990719014038607 19.311723555250236 2 0 -2
1190 4 5 0.137136 12.203298385556133 12.273635959625517 23.63554093920693 1 1 -2
1503 5 2 -0.120364 16.840921151575426 15.5212388187651 18.182005207386396 2 0 -2
1153 4 2 -0.09836399999999999 15.85205266065607 12.119715610225512 22.090313141493997 1 1 -2
1171 4 5 0.137136 16.662288751427667 12.00418964128469 22.86637535378964 1 1 -2
1438 5 1 0.090236 12.830509252432947 16.728012352238903 20.83298292120551 2 0 -2
1457 5 6 0.102614 12.606566638869893 16.43892154304735 18.370984015591382 2 0 -2
1439 5 1 0.090236 11.86155675068345 15.88351233206615 18.848379250958033 2 0 -2
1456 5 6 0.102614 12.225404824043105 14.86230784171012 19.065597788199003 2 0 -2
1158 4 5 0.160636 13.707330310040707 12.534717396640282 18.894732988144106 1 1 -2
1521 5 5 0.160636 16.20533955119614 15.952581123148274 18.93041770692823 2 0 -2
1454 5 6 0.102614 13.546500383840327 17.4039054807378 20.435557983062605 2 0 -2
1167 4 6 0.102614 13.68503819111049 14.62074426217271 23.412249174677175 1 1 -2
1159 4 5 0.137136 14.65676166667451 14.40767975677784 19.907536973745017 1 1 -2
1145 4 2 -0.120364 14.166575184556901 12.338978510870731 19.80813158422101 1 1 -2
1166 4 6 0.102614 14.331343220031432 16.130008004689632 22.630773027790173 1 1 -2
1151 4 1 0.090236 14.387379330277545 15.389024471093832 23.417993656964263 1 1 -2
1146 4 2 -0.09836399999999999 14.768673046270397 13.50632228774232 20.42562422274725 1 1 -2
1149 4 3 -0.6068 15.89407168462278 14.952783961308464 23.49394561837171 1 1 -2
1147 4 2 -0.188164 15.642166013649074 13.359938921163021 21.500925306802262 1 1 -2
1164 4 6 0.102614 16.25797611518861 17.104196403109917 23.19149251445231 1 1 -2
1161 4 6 0.100836 16.361088870818605 15.33013232170175 21.332066221105443 1 1 -2
1148 4 1 0.188236 16.38180130327029 14.523780940774895 22.104204324299808 1 1 -2
1160 4 6 0.100836 17.39783283422908 14.247137384831053 22.21779830012728 1 1 -2
1536 5 4 0.046836 18.085424302571777 17.072651759478806 20.426241113962178 2 0 -2
1094 4 4 0.046836 19.866316719988518 11.872056549542888 20.198391342565856 1 1 -2
1063 4 4 0.046836 21.393400448001653 13.548333199012141 18.337525984018637 1 1 -2
1049 4 1 -0.07226399999999999 22.008691167316545 12.651587701990747 18.67338303778421 1 1 -2
1093 4 4 0.046836 19.125739715987574 12.42831833893347 18.759122511906902 1 1 -2
1031 4 4 0.046836 23.10807122362334 14.882234185755104 18.83105587174602 1 1 -2
1535 5 4 0.046836 19.544718346290338 16.687394029872785 19.715243040066678 2 0 -2
1018 4 1 -0.07226399999999999 23.684733656108683 14.278623431661469 19.596832879174578 1 1 -2
1000 4 4 0.046836 24.15545585420821 16.891981082795454 19.39613189561918 1 1 -2
1016 4 5 0.137136 20.073771497940378 16.757573188625674 22.72284996321538 1 1 -2
1019 4 1 -0.036264 22.70803752503087 13.067534285457352 19.994809971606415 1 1 -2
998 4 2 -0.09836399999999999 21.02961254017035 16.208829507670696 22.731225475975457 1 1 -2
1017 4 5 0.160636 21.766898403182758 16.77724310417291 20.79489124322982 1 1 -2
992 4 2 -0.188164 21.357687880814456 15.601109670112686 23.93407778222647 1 1 -2
1033 4 4 0.069836 21.961383022773955 13.508417926230676 20.622669528934043 1 1 -2
999 4 2 -0.120364 21.95431054535786 16.12568150830424 21.681974295665984 1 1 -2
989 4 2 -0.011164 23.16559845023025 15.43212548018874 21.83747166127933 1 1 -2
1034 4 5 0.160636 22.667477144588883 12.43919815270594 22.619389417764683 1 1 -2
990 4 2 -0.120364 23.480714898548413 14.878154434850337 23.029057119720456 1 1 -2
1492 5 1 -0.036264 18.276440651785517 17.567169980196827 18.365100411390813 2 0 -2
1522 5 1 -0.07226399999999999 18.875400074671248 17.53772056165614 19.757560791026215 2 0 -2
1007 4 6 0.102614 19.262093537939467 13.23271714380768 24.25636422206463 1 1 -2
991 4 2 -0.09836399999999999 22.507596868289767 14.896964118973253 24.037420389069823 1 1 -2
988 4 1 -0.036264 24.228675029338973 15.272599047812735 20.75687516944543 1 1 -2
1003 4 5 0.160636 24.379736518608397 14.255956695606255 23.135791032620048 1 1 -2
1032 4 4 0.046836 24.532087935731504 13.855722456897965 18.996827489110007 1 1 -2
987 4 1 -0.07226399999999999 24.807854469143287 16.512197052526002 20.140691427171564 1 1 -2
636 2 4 0.045503 -0.062478135845932994 17.086187725336764 23.995022342041768 3 0 -2
956 4 1 -0.036264 -0.024762748787310725 17.6789404621901 21.07338933199578 2 1 -2
689 3 6 0.102614 4.314727065887572 21.129099594358618 17.873317405727313 3 1 -2
677 3 1 0.090236 4.962468290704736 20.383194421562365 18.409314703746865 3 1 -2
1596 8 8 0.32 3.6426232614211473 23.876117301643877 19.515664455727382 5 0 -3
690 3 6 0.102614 4.541691240829536 20.07454009756051 19.369896664384715 3 1 -2
696 3 6 0.102614 5.5523024804838945 21.864672371345012 20.826823986164854 3 1 -2
985 4 5 0.137136 4.37247229744963 19.697237673245 21.627371515602462 2 1 -2
966 4 2 -0.09836399999999999 3.7332051986322607 18.809039284621143 21.76771429983232 2 1 -2
574 2 1 0.188236 2.739171856140774 22.76638384384585 23.977829680519434 3 0 -2
967 4 2 -0.120364 2.4571360116538794 18.729532888913027 21.243675283793106 2 1 -2
586 2 6 0.100836 2.5431031879555133 22.428378016179867 22.891659164306837 3 0 -2
986 4 5 0.160636 2.085283377060798 19.610403695101652 20.727366372340082 2 1 -2
983 4 6 0.102614 5.077828823565395 20.51709058519595 24.08773271346309 2 1 -2
695 3 6 0.102614 5.14232935210846 22.796913925247164 19.407038510908105 3 1 -2
1268 4 4 0.045503 24.439667704001884 20.529055609084693 19.02582542533792 1 1 -2
955 4 1 -0.07226399999999999 24.66413534779982 19.086712127006958 20.561862661843936 1 1 -2
970 4 4 0.046836 25.07859152428602 19.870733956516116 21.197951622596317 1 1 -2
1269 4 4 0.045503 0.45437663224120484 19.354562557410034 18.61106968801581 2 1 -2
968 4 1 -0.09496400000000001 24.74843111448877 19.466106726478017 19.0637608555341 1 1 -2
589 2 6 0.102614 4.869664860005873 24.17199218723175 23.331510489471153 3 0 -2
575 2 3 -0.6068 2.876138148041898 24.26459259028963 24.039186544951782 3 0 -2
679 3 1 0.090236 5.885059532020058 22.210455588819 19.8418558539841 3 1 -2
692 3 6 0.102614 7.796286123815417 22.20568332201309 17.86864000825317 3 1 -2
1683 52 7 -1.32 11.145754762207032 18.79887828868832 23.355386530366847 4 2 -3
1767 81 10 0.4238 9.709710126267472 18.377884386683522 22.57453800681099 2 0 -3
676 3 3 -0.6068 6.276027040897088 20.9733376346672 18.963750027005617 3 1 -2
674 3 2 -0.188164 7.550863296112481 18.670629251487064 18.865118834880185 3 1 -2
1434 5 2 -0.188164 11.986698541858692 18.90370364141664 18.965560478184567 2 0 -2
697 3 6 0.102614 6.780164273360201 22.784409309711993 19.81939725941738 3 1 -2
976 4 6 0.102614 7.303961489310182 19.99925976259621 23.959621162602083 2 1 -2
1378 5 2 -0.09836399999999999 10.122438879807147 23.044225651896262 19.30204736052603 2 0 -2
1396 5 5 0.137136 9.400786653381262 22.224349382768562 19.375993827970397 2 0 -2
675 3 1 0.188236 7.17337874132657 19.942419668986762 19.64400331081471 3 1 -2
688 3 6 0.100836 6.692406012663496 19.635293540535717 20.588921147690517 3 1 -2
1623 22 7 -1.32 6.5670401237943254 22.05974840193464 23.22163790627226 2 3 -1
1435 5 1 0.188236 11.044619229962999 18.08134983118312 19.787580262062733 2 0 -2
1624 22 8 0.32 6.2683644847378215 21.268180368973542 22.67738535825008 2 3 -1
687 3 6 0.100836 8.09664651726472 20.584202331330104 19.80629652511573 3 1 -2
1714 63 10 0.4238 7.5168299303128965 23.41645879431626 24.01259185895085 2 0 -3
1448 5 6 0.100836 10.75060709481941 18.593294703377925 20.70115355419768 2 0 -2
1766 81 9 -0.8476 8.804988903689093 18.105800034688233 22.246686217196302 2 0 -3
1391 5 6 0.102614 11.281331286127344 20.9481304042214 21.447545086067734 2 0 -2
1374 5 3 -0.6068 10.789823854014852 22.518959466857666 22.78644177838902 2 0 -2
1375 5 1 0.090236 9.923764163063085 21.624686952328044 23.671176303455294 2 0 -2
1385 5 6 0.100836 9.088946662893541 22.45024044010858 21.45884278601888 2 0 -2
1373 5 1 0.188236 9.792772639186998 23.18533209461156 21.811672063168547 2 0 -2
1372 5 2 -0.188164 10.403588357476167 23.699228738669333 20.496692643587252 2 0 -2
1386 5 6 0.100836 9.297497216746562 23.90521831338679 22.42502644767931 2 0 -2
1684 52 8 0.32 11.07384252677737 19.69999583564484 23.005680411747356 4 2 -3
1388 5 6 0.102614 9.50444916263614 20.812705220541776 23.129706937920144 2 0 -2
1392 5 6 0.102614 12.476565884852715 22.328454800667977 21.327547039116297 2 0 -2
1376 5 1 0.090236 11.773076728228045 21.725701531214703 21.97824071726189 2 0 -2
1390 5 6 0.102614 12.43262540001069 21.21390980004673 22.688966903439223 2 0 -2
1491 5 1 -0.07226399999999999 17.017100303507007 18.50365592603248 18.244509025646128 2 0 -2
1602 11 8 0.32 16.076921617900418 18.15060477327223 21.048963983910333 3 0 -3
1601 11 7 -1.32 15.286900381408337 17.897831801000603 21.56831638254049 3 0 -3
1505 5 4 0.046836 16.166201448744633 18.06496195698746 18.752667342999246 2 0 -2
1377 5 1 0.090236 11.396605055567825 23.506166380052107 23.633105023926976 2 0 -2
1773 83 10 0.4238 12.757087998756353 18.675161969098443 23.271620858515945 2 0 -3
1432 5 2 -0.120364 14.147033192732614 20.12116876092202 18.730321028968163 2 0 -2
1504 5 4 0.046836 17.149937064572686 19.387199640667717 18.83872071528434 2 0 -2
1433 5 2 -0.09836399999999999 13.176169576721637 19.44784885236958 19.506328308964097 2 0 -2
1446 5 5 0.137136 13.36477651466452 19.23599687719288 20.565708336574048 2 0 -2
1772 83 9 -0.8476 13.734440521506553 18.866625704534712 23.361957954013985 2 0 -3
1393 5 6 0.102614 11.83311045331168 22.90799683779269 24.35787728866264 2 0 -2
1445 5 5 0.160636 15.030627057702992 20.53075072809508 19.223821103268463 2 0 -2
1774 83 10 0.4238 14.214964991939537 18.53836909435722 22.54870458381729 2 0 -3
558 2 6 0.102614 15.459093795622563 22.132121137274982 22.878302316499564 2 0 -2
1566 5 4 0.046836 17.860379787698868 19.997131837605693 21.15319850966637 2 0 -2
1556 5 2 -0.120364 17.870590333296818 22.30520522975282 21.798794693107805 2 0 -2
1570 5 5 0.160636 17.04410371097262 21.68057843770618 22.114467383152636 2 0 -2
562 2 6 0.102614 16.73901690631007 19.96341005830829 23.14961322395969 2 0 -2
1557 5 2 -0.09836399999999999 17.592116318351753 23.635299385601943 21.56082879234805 2 0 -2
545 2 1 0.090236 14.848039340078124 21.81051332511369 23.71948926800693 2 0 -2
559 2 6 0.102614 14.182405595485271 20.980853907931557 23.400288974322276 2 0 -2
1538 5 5 0.160636 18.24669053144649 21.410971581379123 19.515345522312575 2 0 -2
1527 5 2 -0.188164 21.036587827075362 21.950735404325005 17.463089977831654 2 0 -2
1533 5 2 -0.09836399999999999 21.726942484707603 20.756680966903904 17.815668689718436 2 0 -2
1567 5 4 0.046836 18.376619104647148 18.573569783758614 22.14575225388622 2 0 -2
1539 5 5 0.137136 19.07906466306692 23.022673817933757 18.065682256924237 2 0 -2
1526 5 2 -0.09836399999999999 19.74769635323594 22.13522802355958 18.155051369138587 2 0 -2
1525 5 2 -0.120364 19.239820763452464 21.166514001658083 19.070751339061832 2 0 -2
1553 5 1 -0.07226399999999999 18.642199131992687 19.4044273540587 21.561035322873515 2 0 -2
1555 5 2 -0.011164 19.20635504421767 21.852792452493976 21.91808917649796 2 0 -2
1569 5 4 0.069836 18.890957710879 20.401455031278843 23.399617297803562 2 0 -2
1534 5 2 -0.120364 21.11773722575356 19.776461021824577 18.563692729930054 2 0 -2
1554 5 1 -0.036264 19.388384931280946 20.422376627155355 22.46856235469802 2 0 -2
1552 5 5 0.160636 21.667429869579458 18.958018503711504 18.67377149982982 2 0 -2
1524 5 2 -0.011164 19.90830372839652 19.965757407517522 19.301807049647227 2 0 -2
1523 5 1 -0.036264 19.530651489304432 18.828551840979813 20.360730515497508 2 0 -2
1565 5 2 -0.120364 20.256981216248647 22.761169384430453 21.643246078099455 2 0 -2
1537 5 4 0.069836 20.459004590134832 18.445981372806305 20.81365551445998 2 0 -2
1568 5 1 -0.088964 20.876944442877043 20.09675928140113 22.785489803648154 2 0 -2
1588 5 4 0.045503 20.95743026209752 19.18480609619666 23.407238302481165 2 0 -2
1590 5 4 0.045503 21.26427228542988 20.80943042661555 23.572498185510362 2 0 -2
1589 5 4 0.045503 21.5600105326567 20.099210271911996 21.933025482088535 2 0 -2
1584 5 5 0.160636 21.224598784134315 22.306650993584945 21.597743763305644 2 0 -2
1564 5 2 -0.09836399999999999 19.935017590483103 24.180960636383777 21.410380549784037 2 0 -2
971 4 4 0.069836 24.782488670979692 17.5293335492673 22.01354172078939 1 1 -2
969 4 4 0.046836 23.618130259221218 19.078634446221418 20.86226297654009 1 1 -2
597 2 5 0.137136 0.27784392265981445 22.460067779065525 23.150300985057978 3 0 -2
879 3 6 0.102614 2.007363061944474 -0.030920738786433623 20.891036136723173 3 2 -2
1595 8 7 -1.32 4.2447198831963435 24.67149540136898 19.590246080259313 5 0 -3
576 2 1 0.090236 3.9869197892086614 24.66313570696323 23.0492986934121 3 0 -2
588 2 6 0.102614 3.7359220367145767 24.39829722843677 22.033364205250958 3 0 -2
577 2 1 0.090236 1.6104307484757467 25.06542299823861 23.690161172779796 3 0 -2
880 3 6 0.102614 0.22529609091386094 0.10842108657835065 20.707179908640473 3 2 -2
592 2 6 0.102614 1.1271368117737532 24.787940060217906 22.74837137632325 3 0 -2
1353 5 5 0.137136 7.293237577813232 -0.059521373882287065 18.661999792095145 2 1 -2
1394 5 6 0.102614 10.730983401236312 24.20512849778714 24.097082335958657 2 0 -2
1359 5 6 0.102614 6.0224961676358815 24.99187251819382 21.094386159118255 2 0 -2
1361 5 6 0.102614 6.949896337433191 24.15229584678458 22.329633242880437 2 0 -2
1345 5 1 0.090236 6.991270731788349 24.872853965348572 21.52222880518813 2 0 -2
1360 5 6 0.102614 7.507783844010969 24.3977554055903 20.69856640209089 2 0 -2
1371 5 2 -0.09836399999999999 11.200541658641114 24.855101302658145 20.370822456729677 2 0 -2
1775 84 9 -0.8476 16.143598120189488 25.029099198877038 23.91416472133342 2 0 -3
1395 5 6 0.102614 12.224397222446957 23.994640037299472 23.127891155525873 2 0 -2
1576 5 6 0.102614 16.852990541890662 24.54654196874446 18.930270098858653 2 0 -2
1571 5 5 0.137136 16.550308105053592 24.00075483169445 21.599212967834077 2 0 -2
1541 5 6 0.100836 22.217313731461207 23.853729506578684 16.98934185961513 2 0 -2
1558 5 2 -0.188164 18.580910569440135 24.56958620303615 21.362211382619883 2 0 -2
1583 5 5 0.137136 20.768961487892817 24.90787768000823 21.284962813529447 2 0 -2
1628 24 8 0.32 23.89410309725581 -0.0426973842821528 21.98261874288508 1 1 -3
450 2 1 0.188236 5.2294582741647515 2.991055040793895 0.17428003073530302 3 1 -1
474 2 5 0.160636 0.5705282975560181 2.5127887537666207 24.459006658408303 3 1 -2
455 2 2 -0.09836399999999999 2.768599065345005 2.7504207663387272 24.910673695593974 3 1 -2
456 2 2 -0.120364 1.4107857334504585 2.5422799582963966 -0.0392926952391737 3 1 -1
452 2 1 0.090236 5.001254780848107 5.491346529827907 0.1704097857158267 3 1 -1
443 2 5 0.160636 0.6333371414929118 4.8150930836941 24.785102013658534 3 1 -2
1884 120 10 0.4238 9.180083491304352 0.6124600576689921 25.120237642210547 2 0 -2
1729 68 10 0.4238 11.460215578999565 1.7347492005515712 24.607131441251752 2 1 -3
469 2 6 0.102614 7.693746179445952 5.3807978443095275 25.17169617426521 3 1 -2
453 2 1 0.090236 7.09241419789752 4.475225337323256 24.927027966643912 3 1 -2
467 2 6 0.102614 7.721117886551308 3.620024394267361 24.915281666422686 3 1 -2
1246 4 2 -0.09836399999999999 14.372380672014973 5.6522903211380795 24.28479051984565 1 1 -2
1696 57 10 0.4238 13.727173487961863 25.076879689960403 24.446086125653956 2 0 -3
482 2 3 -0.6068 17.50241143047997 3.374858182352639 24.726366093790897 2 1 -2
1765 80 10 0.4238 13.895422773769003 1.8744853866794033 24.322110091650433 2 1 -3
1265 4 5 0.137136 14.264212470317744 5.379958725443542 0.012521636126417393 1 1 -1
481 2 1 0.188236 18.26185087230639 2.0437037703923173 24.87372681120673 2 1 -2
417 2 2 -0.09836399999999999 22.05435295244733 5.413773641343952 24.135458725447812 2 1 -2
495 2 6 0.102614 19.379667445133453 4.308322410638368 25.11787073265193 2 1 -2
486 2 2 -0.09836399999999999 20.650494482824733 1.0933595484966174 24.60671342732506 2 1 -2
505 2 5 0.160636 22.598910801342168 0.21591563336899205 24.529869931994845 2 1 -2
480 2 2 -0.188164 19.721471501600742 1.8582629879045933 0.12710843520907475 2 1 -1
487 2 2 -0.120364 21.849134062016443 0.7232265024697463 25.177469956880017 2 1 -2
425 2 2 -0.120364 24.84117686191746 4.993381697398011 24.58417973383616 2 1 -2
1651 36 7 -1.32 3.6891549255335443 10.698098262571426 24.031010197307737 3 0 -3
1037 4 6 0.100836 1.1359011452995664 10.542629265056096 24.072847340383973 2 1 -2
1028 4 1 0.090236 2.088129561825198 8.347901051611634 24.67405239896006 2 1 -2
465 2 6 0.102614 5.470307821099938 6.4575181783031175 0.5146425783983606 3 1 -1
1815 97 10 0.4238 5.503417417751485 8.18880738073108 24.154483002926874 2 0 -3
1044 4 6 0.102614 2.0881008600145474 7.383041966636581 25.2060268205947 2 1 -2
1816 97 10 0.4238 4.726396587052308 9.544660340683194 24.62843130732634 2 0 -3
1652 36 8 0.32 3.3041091558059654 10.84306927579648 24.91903165133854 3 0 -3
1814 97 9 -0.8476 5.299346227774452 8.783415153627782 24.932193748042835 2 0 -3
1045 4 6 0.102614 2.0683591894679947 9.109036836654541 0.15537355211442525 2 1 -1
663 3 6 0.102614 7.347005674573632 9.137814905079466 23.831683256813506 3 1 -2
646 3 1 0.090236 8.105621290272945 9.911640322964997 24.067487656634516 3 1 -2
661 3 6 0.102614 9.092875522860382 9.501230519831088 24.272240719530373 3 1 -2
1184 4 2 -0.09836399999999999 11.297600137508404 9.163235243550973 24.69325600775287 1 1 -2
1178 4 2 -0.188164 11.565234873945942 10.50919042038561 24.819106161995407 1 1 -2
1264 4 6 0.102614 14.96697009406771 10.048223781828257 0.2905319191007459 1 1 -1
1254 4 6 0.100836 17.244188687549897 7.7215304557382884 24.31887876782906 1 1 -2
1245 4 1 0.090236 15.327044995233727 9.31845317947357 24.880561938054075 1 1 -2
1241 4 1 0.188236 16.42153893850221 7.092646457844868 24.77122263512908 1 1 -2
1263 4 6 0.102614 16.24602605053288 9.675092613841178 24.390047222682593 1 1 -2
1102 4 6 0.102614 21.28305696580794 10.581141411215599 24.11988360020469 1 1 -2
1088 4 1 0.090236 21.677095114154675 9.60576969981253 24.511476680070427 1 1 -2
1086 4 1 0.188236 19.50611366052235 8.359379686910335 24.80052039838088 1 1 -2
1098 4 6 0.100836 19.63904675475818 7.295284332572979 24.849179344187007 1 1 -2
1038 4 6 0.102614 24.0055836620353 8.670954925808097 24.031067952130552 1 1 -2
1026 4 1 0.090236 24.91610760274962 8.324113519848746 24.527461810888465 1 1 -2
1040 4 6 0.102614 24.72282944344672 7.2715343161818415 24.657951955334 1 1 -2
1829 102 9 -0.8476 6.18823902630466 14.434651450565095 24.13368098722421 2 0 -3
977 4 6 0.102614 7.994650672751257 18.263232517553067 24.307815033420134 2 1 -2
658 3 6 0.102614 8.354857441793191 12.674806023521818 23.837718216884145 3 1 -2
1704 60 10 0.4238 8.242823781130678 15.991886678512572 24.383742519978078 2 0 -3
1878 118 10 0.4238 11.419005709154067 17.48987126830964 24.160205593745275 3 0 -2
1877 118 9 -0.8476 11.565553470912986 16.650226306061924 24.683232923852866 3 0 -2
1831 102 10 0.4238 6.63576801013549 13.886039095146106 24.839924104966194 2 0 -3
1162 4 6 0.102614 17.790628455046132 16.135486024135393 23.582594706970404 1 1 -2
1150 4 1 0.090236 16.658485994721094 16.230676989838134 23.78082857170403 1 1 -2
1165 4 6 0.102614 14.147071104279297 15.892324198305218 24.35537916861477 1 1 -2
1169 4 6 0.102614 15.59850231002677 12.956896454274311 24.34804730325045 1 1 -2
1163 4 6 0.102614 16.62219277131183 16.436436667672805 24.84560108029159 1 1 -2
1170 4 6 0.102614 17.125456516408693 13.71115291085274 24.753282629327064 1 1 -2
1152 4 1 0.090236 16.062059121759056 13.902896024676236 24.616931370271836 1 1 -2
995 4 1 0.090236 19.847697204840216 13.163938984307471 25.14515265017211 1 1 -2
1009 4 6 0.102614 20.813408277755176 12.89919344193739 24.863027588806233 1 1 -2
1005 4 6 0.100836 19.393395802743097 16.143257116056652 24.730425598495994 1 1 -2
993 4 1 0.188236 20.329245073227955 15.712997690141044 25.049989268137242 1 1 -2
1004 4 5 0.137136 22.701064824887784 14.27048113023315 24.876776078145898 1 1 -2
614 2 1 -0.088964 24.809735780788582 17.84793185533382 24.614468928434512 2 0 -2
587 2 6 0.100836 3.640760014924482 22.330469301481116 24.473624301738848 3 0 -2
579 2 2 -0.09836399999999999 0.411019414556126 21.968693706668187 24.120740780869543 3 0 -2
962 4 3 -0.6068 5.825400907220506 18.57386310642106 24.54527355032228 2 1 -2
965 4 1 0.090236 4.899598307156126 19.715717466411935 24.82622187255113 2 1 -2
982 4 6 0.102614 3.8614710469108773 19.469732539128987 24.684556145560038 2 1 -2
573 2 2 -0.188164 1.6158248032110327 22.131000767990294 24.79778687995792 3 0 -2
1848 108 10 0.4238 10.53479530450037 19.065807254925218 24.747018527614188 2 0 -2
1735 70 10 0.4238 5.969462609274259 22.49686356023088 24.59898928035374 2 0 -3
963 4 1 0.090236 7.222705764903515 19.087226714912553 24.622491267297036 2 1 -2
1389 5 6 0.102614 10.498715844603739 21.213913293912203 24.487440959884875 2 0 -2
1387 5 6 0.102614 9.098001263319505 22.201290262866014 24.118541713243655 2 0 -2
1712 63 9 -0.8476 8.020072705517974 24.14646652937053 24.475055409197534 2 0 -3
557 2 6 0.102614 14.290374581125818 22.68411035962617 24.069201270962846 2 0 -2
555 2 6 0.100836 17.106521564701904 22.730052019284525 23.953651944996793 2 0 -2
546 2 1 0.090236 16.539299510378697 19.91968650649706 24.198734257537563 2 0 -2
561 2 6 0.102614 15.827735623928675 19.115062063708322 24.33165341327338 2 0 -2
544 2 3 -0.6068 15.901066769597836 21.18619638796882 24.749352962412342 2 0 -2
543 2 1 0.188236 16.958086405282746 22.26714124055075 24.952562588980456 2 0 -2
598 2 5 0.160636 23.69159486639472 21.23391101712325 24.159709607602984 2 0 -2
634 2 4 0.045503 23.93646256989446 18.267145906979202 24.19986554451593 2 0 -2
541 2 2 -0.09836399999999999 19.47078252342867 22.84537415465232 24.941519962784685 2 0 -2
554 2 5 0.137136 19.27998983129697 23.588192826048303 24.20470945228932 2 0 -2
635 2 4 0.045503 0.2873446111544602 18.6122011664373 24.750020144888286 3 0 -2
580 2 2 -0.120364 24.612477511400524 21.232556810060355 24.705389957433102 2 0 -2
593 2 6 0.102614 0.8203159613779121 24.9211092464144 24.41300907456178 3 0 -2
1713 63 10 0.4238 7.391040132807807 24.67633223080955 25.043912041015247 2 0 -3
1777 84 10 0.4238 16.21023931797518 25.060277819118028 24.911473140995824 2 0 -3

Velocities

399 0.006130370884609911 0.011177072384100416 0.0007098285636189315
844 -0.007867266896207823 0.007429800122541199 -0.01004788020949671
461 -0.008452535257468525 -0.017791907069828767 0.029966201927320912
472 0.006541376909299761 0.01948893331321474 0.008945853236186269
385 -0.0019207727751802727 0.010058540591241717 -0.006869768712624263
398 0.01652674257121938 0.022971271020039125 -0.02280776156541321
447 0.001953986930426125 0.0019747846202298166 -0.004573868287940317
460 0.0020477488483883195 -0.014557130293415032 -0.004838367184515571
448 -0.002811946243566675 -0.0007552712644257502 -0.003356009772098979
446 -0.001243244667954327 0.0010365391582016431 -0.0018595221077830854
464 0.020204117497709125 -0.003084022027002794 -0.019455864136371445
1912 -0.0002381838002836548 -0.0031198743261068203 -0.005296425680443249
1681 0.005747900525169163 0.0025859500532852803 0.0013597078642522856
451 -0.0020324488553808383 0.001649650859696238 0.0015661137238881123
463 -0.0038449320127559223 0.008763892600462656 -0.008860694481076079
449 -0.0054223378621460734 0.008546877612927373 -0.0025712701870797675
428 0.017056578815706505 0.009887908727549672 0.02094598260723912
594 0.008981704790795726 0.0006450574742839035 -0.008484285470933512
1682 -0.007024189532960105 0.014385666876014159 0.008606566122767983
386 0.001054927729335379 0.0014537626072002757 0.0029772196810555775
1799 -0.001490530423528034 -0.0005583368457128658 -0.0011988828724338741
1911 -0.005650088255642436 -0.018185685859581545 0.012973943259905283
1910 0.0030650423378834374 -0.004217073738058118 0.001723961342409454
1680 -0.02690710752682976 -0.012180060046798205 2.3440927885652386e-05
1874 0.0028426803213940297 0.005601687349849179 -0.004789468011040856
1875 0.0007316304482143794 0.006928671030649858 -0.006657987618641861
454 -0.0025930675841531743 0.005201281798583391 0.005544402370738945
1876 -0.00680967649498959 -0.0069380523433226465 0.02216777718170278
471 -0.009039663323910806 -0.030484360282907127 0.0013038355048327927
470 -0.025830049017704047 0.011810350078692076 -0.020459104483341393
1867 0.004962923682155868 -0.004451208277489517 -0.015354418869886817
1659 0.0013636524151763776 -0.006690768077803819 0.004152236789844892
1660 0.01897948723080003 0.0011376899491501594 -0.010572210838573046
1924 0.004290248801461684 -0.010959347000007466 0.027450016646294647
1922 -0.0008870256049188014 -0.007026899126280891 0.0068955701129992985
1845 -0.019288265201577347 0.012268193451298436 -0.002397284901780489
1923 0.00237024842924287 -0.011064601937328082 0.02130687081036832
1885 -0.00012593009511077674 -0.008740819333222233 0.0043729198085347915
1883 -0.005045196622699118 -0.0037988426344618526 -0.0023507731934157656
1798 -0.0021492970027244865 -0.005893555095668578 -0.004078524986219723
405 0.009374404011883017 0.009026706708806348 -0.02433266515420196
407 0.011371512370715259 0.02915725128158994 0.0315853102293295
1800 -0.006511510274963993 -0.017820185346698166 0.003672827989112025
1801 -0.0028016160677909233 0.009202343108613282 0.0025408664346488552
1865 0.004600557436456684 -0.0029705134852559658 0.0023291059506015573
1844 -0.0008378858873051631 0.0056806237882836876 -0.0018441262895781871
1846 -0.004348311060583642 -0.015994226354376764 -0.012285426773900236
1761 -0.017283947824901964 -0.0033509381668344997 -0.0010975730631394938
1760 -0.00286499050433008 -0.005814063686032325 -0.0009572201329296767
1698 -0.006400133021079857 -0.00789819993832586 0.0026509895397313216
1762 -0.006434029003301481 -0.008049123709900335 0.0006465611920906995
1689 -0.0021814048632942395 -0.0014174207253485956 -0.003944290884948873
1690 -0.0008420699137216786 0.012173410519873962 0.012304245765939846
376 0.002270476725499306 -0.015396533059091297 -0.00965178286153429
375 -0.0017706649356427717 -0.0049859444635889285 -0.004583578308372002
1810 0.004515329564323416 0.020220296989127775 -0.0037199730371530707
360 -0.00038563501961329623 0.0009267763824623547 0.001193460363139887
374 0.0008472452414479298 -0.0026467658808784107 0.020702933162430985
358 0.003828982922230868 0.00692329620419037 -0.008218470097156141
1808 0.004466787231246145 -0.0004346585611424912 0.0033776276879066247
1809 -0.0007285235062323812 -0.009686089197719632 0.013398804170406632
500 -0.0011994753182529118 -0.013499326299517046 -0.01525047181554511
498 0.004698044357333218 0.014064785852753907 -0.01712736948950464
1699 0.008760459829469967 -0.00811565612497468 0.006744229233951984
1764 0.01818927019580331 -0.002515341897501199 -0.0007796995071772142
484 -0.001911746380910527 0.011513808323022628 -0.0015751109470019751
1685 -0.003258963493442258 -0.0011560982214831271 -0.000523732276913406
1697 0.0017802372641982475 -0.0007130274432173843 -0.005452790254467456
1763 -0.0018253270985920302 -0.0006163669574952978 0.005788679074951617
493 -0.005706753698741492 -0.028808930770424734 -0.0264242928836895
499 -0.0452386298468594 0.0014819633893574063 0.024424393139168468
370 0.010940433282977764 0.005227329951106122 0.011858694042988997
357 0.009003679533391396 0.003907304591242975 -0.0004221674216827693
369 0.009760800121182857 -0.0006005895133636255 -0.011664146955433488
523 -0.007047920656424903 0.005492940769523346 -0.00725453319802685
492 -0.0023978730541285367 -0.021596209975005724 -0.028079026673536938
510 -0.0014997563394759912 -0.008256176151799464 0.004442152649722885
509 0.011478507140249738 -0.00038309488675263785 0.001776770425269882
522 0.021613255605828042 -0.015825236399994613 -0.0064945583591959465
356 -0.0008863662331492098 0.002733630549334346 0.0036923459947295818
368 0.0019488638049353977 -0.011672131611172823 -0.015809308448370318
355 0.0041807978332803605 0.004555246263545933 -0.0008947487022190994
354 0.005542461737775692 -0.003922084528540711 0.002286884567765784
520 0.010985638521568235 0.018695118458605713 0.03239247151879026
457 0.013711547041810535 -0.007997184009978066 0.02720879939876271
491 0.008922943457417442 -0.022403057888034022 -0.000481535571213013
476 0.0008416165310711266 0.00044876705995569984 0.005664612003498771
478 0.0023240238292909464 0.0021029464143986036 -0.012042805988783442
479 0.0026161610808828457 -0.010387637777918216 0.001041651677705279
477 0.0032501346032815783 -1.9518615920258008e-05 0.00032257444525705736
429 0.018711485889770087 -0.004298645358989985 -0.020453025459927984
506 -0.0008579182227434781 0.007326688714904891 -0.003317555172546485
415 -0.0013823134080114456 -0.0019410069188909522 -0.005875493509695363
1688 0.041601933300223694 -0.01264319956091957 0.01633255998824684
427 -0.015840251284131673 -0.024006632268112504 -0.008897254923242262
1687 0.0028130790038019605 0.00011048304679749381 0.003584082876487965
246 -0.02059878710424462 -0.006177789088681415 -0.018810838908596753
416 -0.002028514787161184 0.007257146326430508 0.006189914496979718
444 -0.0011330331315676572 -0.00011916363118750693 0.0010537954422504025
459 -0.0006440083897188186 0.010151653263710269 -0.020226699660649126
414 -0.00256260182227472 -0.00027640717133550676 0.0007042699964608546
475 0.008183853988088978 0.0004798152877419737 0.003552422175290893
489 -0.01476982876701302 0.01687578643413681 -0.005468181980423912
397 0.023787349330617543 0.017881534875240235 0.03381729487980155
458 -0.01054554218444827 0.018894151349305607 -0.0049880476742688905
445 0.0023207280638368267 -0.005439609206946923 0.0014935726711498953
488 -0.019203160977278026 0.004471802752235865 -0.015671654875211324
413 -0.0027841176794321533 0.00027338850914989017 0.007325582024764873
404 0.0008780090197833861 -0.009376922777883922 0.042549937028823016
390 -0.0048411405622076145 0.009111352358076037 -0.0077614477529349465
403 0.009250956088509775 -0.014988071395438693 0.016037312615620306
387 -0.0042738574053764 0.005881866228455975 -0.0033779496192129907
388 0.0033600770030885532 0.0005912203914994025 0.004181709365047135
393 -0.0025256668519416333 0.0014883479338734312 0.0002267073980245833
411 -0.021175434909183978 0.0029765711271228542 0.006919760926479572
620 -0.009305693792923517 0.00176803597450061 -0.014086060429195019
400 0.0027590840240764207 -0.04251158742161889 0.009997497281440905
401 -0.01875097005069515 0.021616705390651154 -0.014258641106275722
1843 -0.0009489616656499141 -0.008132370699421685 0.00015866697708184852
394 0.005203384544211512 0.003709533453087229 0.005158552847307232
622 0.0186743848334413 0.015338813109371265 -0.02068906835233271
1868 -0.0010699929937076824 0.0021189944673452757 -0.0027748319188738487
1869 0.027091081654728937 0.01005021183373775 -0.01072984233232114
384 -0.0006575239215114083 -0.005268747279278045 0.009604303518804536
1649 0.0036238453691454604 0.0009793413251243345 0.005423878004202422
1650 0.010757486829588074 -0.0006517967751099548 0.0009494364722605862
412 0.0037986820073962696 0.0035646070984172258 -0.029178311079048138
607 0.0010014556173665913 0.00029135362429060993 -0.002284912401049642
1870 0.012697939722183152 0.0016388119413682431 -0.01815755102338986
396 -0.021585516938426627 0.01713497429631447 -0.00013633269325889806
627 0.01984178994385824 0.0016325083724577935 0.01084701130164457
626 -0.008664591208902034 0.0165596512977654 -0.01749539075545878
402 -0.0026173794570286853 0.001282055852573925 0.021533827011799605
389 -0.0020382740744285467 0.0037875688842563273 0.004140796271689122
391 -0.005713354750265189 0.010430442276973447 0.001220216565058285
406 -0.011137058065976268 -0.02625687532569654 -0.024448961738975903
392 0.005248227506284241 -0.0002392202665298085 0.007597507539285711
408 -0.030385042570795284 -0.02503922038185829 0.019853531222039332
410 0.0074355925788279304 0.0025333053020373812 0.01061688881693974
409 -0.003978203583063154 -0.016006327367947173 0.01393021781814869
314 -0.007972375593177568 -0.020809541350788115 -0.02367115243790802
1 0.0027178373505145612 -0.01106095230613294 0.003001793414957773
16 0.007890546169243581 0.0002822604443228982 0.014752691320706461
1797 -0.0020277601677038985 -0.0035708501180031485 0.0016946617511725056
1796 -0.0018281783674456635 -0.00356781435582805 0.002641858256185158
1199 -0.013299363834224464 -0.016774002341167802 0.020631577097691364
1180 -0.00956480808633188 -0.00610039998341307 0.005779932363099527
1197 0.0030412824300442374 -0.0030659990847528725 0.001850818669699907
1191 0.00905374350315481 -0.007947401238904911 -0.03197518204860671
1179 -0.006779689632645697 -0.00146863690465876 -0.0031143370072248583
1202 -0.011245820583031549 0.009267218960854312 -0.01482121447220199
1183 -0.005765351811968088 -0.004327128390300872 0.0028567990377226
15 -0.022483614777474684 0.010433069423279857 -0.016042699023473186
1201 0.008372069161391616 0.005776870349636527 -0.005942294941915683
1200 0.01249935757000878 0.007185089050320032 -0.0016128810449832452
1898 -0.001867403804753503 0.003632435307757305 5.014182917395237e-05
662 -0.013306568818607112 -0.02112664496104186 -0.0005879547201880422
1255 0.002232344359166962 -0.002941160574171737 0.0019179518864593248
1850 -0.004878057417423885 -4.09449820192462e-05 -0.003651487940566103
1852 -0.006062866476666435 0.0033445463379259076 -0.014827528468805666
1851 0.0033992256223393785 -0.0046537263727123145 0.02948471030971796
1257 0.005232242308390111 -0.0313814273303269 -0.0077510557940999696
1594 -0.010985587257283597 0.0016424368407625504 0.029093087669176503
1593 -0.003166172687316899 -0.00366961992191084 0.0033205536299012964
345 -0.008431015285309615 0.012268998534957526 0.005217653771756676
377 0.003193369083480464 0.012639946497740487 0.013215074770132038
339 0.025685172998076943 0.0019868522330490704 0.016582262709376225
325 0.0008768667127539079 0.002543894964060005 -0.006799367688541966
361 0.010457183229174362 -3.149846567825061e-05 0.007821124169778456
378 -0.016660532493052417 -0.02148473986118513 0.0013717911753819555
379 -0.0071755891459254015 -0.001086485308934599 -0.018478243970316898
1261 -0.0020516058719463786 0.014496889103711648 -0.00199303876538149
1259 -0.015103815910532174 -0.015848264310992042 0.0010263897889280767
1258 0.001082796439823697 -0.009777652856295352 -0.00744236232058877
1244 0.002401332827037667 -0.00021240544315723745 -0.005403250444706071
1243 0.005538151427767112 -0.005155637757698052 -0.0016216390591129442
1260 -0.006652043729039062 0.004919851083631927 -0.007813935350785586
326 0.004076500447698353 0.0031579320773841933 0.0015563295689753093
328 -0.0017654681765567662 0.012657970825644637 0.003336271139117478
1242 0.0018617678577304317 0.003498564905493139 -0.0013217569968734188
1181 0.0049870354048958745 0.004973682021050429 0.011501614252359137
1256 -0.009456102811851289 0.010547528350476102 0.0342505413501143
347 0.011476061146692258 0.012265805277744183 0.005285685867435714
1609 0.005466444222502559 -0.0009815804693518247 -0.001692730651840929
1195 -0.010799867032367077 0.005442990714270322 -0.011108646684746851
1193 0.00013251252947441944 -0.005563196059441028 -0.016290799854947056
329 0.007613399575042476 0.006231765794183522 0.003435528001457604
380 0.0022754435482604143 0.008993658616933985 0.014941518988876561
1108 0.012166247515684238 -0.0037571138774543365 0.004726329253785962
362 0.00045807655231269934 -0.009703419704649356 0.010063761579736602
363 -0.0028399318705466694 0.006787116021108513 -0.005564574769604984
381 -0.006383373664861551 -0.02878474770608892 -0.0052777284101255635
353 -0.0013406148283438917 0.008211964446519799 -0.006897610433294154
352 0.0035473551418951236 -0.00025062076866204933 0.0028721136652776337
273 0.03400202547335463 0.00406559567156269 -0.0017149687621032415
426 0.005863986301055643 -0.006872790678950664 0.009999661471579626
1105 0.03361335562559423 0.03080541496511764 -0.01045316245210717
1838 -0.0054134384950649496 -0.006461339969898573 0.0006646040609791299
1107 0.012549101195932331 -0.01016136954280358 0.009544072578173973
1839 -0.008086950278212676 -0.006021505923979711 0.00433812649308966
1090 -0.0018496878326503424 -0.001097305298091444 0.0007540232035713486
1089 0.010189895783307595 0.004872899780079207 0.005177408536126674
1104 0.0017612864774700485 -0.018075736480984782 0.010168278980885194
1103 0.012716759378885155 -0.009606333349890151 0.009546574304329042
364 -0.027746233815693012 0.010243294190885701 0.00625047854412567
1106 -0.015041913051481427 -0.02148579746384802 0.035168408129786076
1087 0.0043643870625892645 0.002036501008483199 0.001005954186545354
348 0.012652076402818008 0.013381905638119914 -0.006259158461426928
259 0.0028422504443230134 -0.0005321173268641372 0.0013153124950972671
1099 0.0015528895209850437 0.011892047672427557 0.015661515054145793
1100 0.008557152632256239 0.004797445479957493 0.015077140662087535
1634 0.015390863151505303 0.006438870885123617 0.0027377255883716234
395 0.01946252877799449 0.00014674410397739332 -0.0011656606186919946
382 0.002919761433973664 0.008072880612620459 -0.0032048721834794865
1840 -0.006062863139974167 -0.0021145592840383855 0.0013529853449660836
383 -9.037939890477808e-05 -0.003332220538894618 0.004074152224413139
270 0.011491832340270482 -0.007993345552429 -0.025852117876102487
277 -0.011996590830938066 -0.0011335895615424917 -0.01612054786072186
1039 0.013810935877767466 0.00755914706184229 0.005203251743695598
621 -0.0011380907107183006 0.021508835460557763 0.00184034428959294
624 0.03320680213406249 0.007328515276751306 -0.031105926833230095
623 -0.004067329578220622 -0.006420373919738436 -0.01270413792047974
609 0.0053995897587125795 -0.002186336374716206 0.0033154949385826474
625 -0.0009040533851871178 -0.0019906351910512674 -0.0022600569536687675
608 -0.006115864237164407 -0.0034004131307202087 -0.004174176251110522
606 -0.001205294228295118 -0.0011771557493649744 0.003222078174870608
628 -0.0007288189179356933 -0.00504644716552836 0.010966490408373717
1787 -0.0036279393306343304 7.33814787884982e-05 0.002412941994348479
629 -0.0010326366412191335 -0.012364676233367173 -0.020960326720105248
611 0.002980307157105763 -0.006692973061934504 -0.006703466857220416
610 -0.0058821836527760745 -0.001582504372849703 0.002185468399451239
605 -0.00010350583133746521 0.0013168639472335205 -0.0012330290726169219
604 0.001324937999306022 0.00019498602094367257 0.008882754307219387
603 0.0034010788965284948 0.007286800561636422 0.004290068838789239
1789 -2.633285989178238e-05 -0.007430797085724466 -0.01263249534730114
1788 -0.006740462898625746 0.00930579647741789 0.020491900488313553
630 -0.021597249603351507 -0.0016812597156155385 0.010082201975638208
619 0.0001634859808254946 -0.0006556160153458844 -0.025088491396307568
617 0.012136510384681115 0.0008576096766880121 -0.0022421196794076385
981 -0.010053146388082797 -0.005916529664438504 0.019250934031312214
964 -0.005815801420710948 -0.009521001995566812 -0.0017100906713954766
253 0.005912949736308436 -0.006483011232567454 -0.0010285943969132818
278 -0.005969496449645111 -0.01651336754278209 0.016556227704810782
266 0.016583118675129613 0.001753659810808165 0.009902206399431384
1888 -0.00844312230435157 -0.0033154843792195265 -0.008284145824518661
618 0.0004866094876937488 0.0319196618015312 0.01713532472430382
979 0.0029620824990498435 -0.0195650475537151 -0.007617597631148822
1900 0.010733568728867058 0.03034703972316635 0.0010201899231143856
1892 0.001734761749641836 -0.0010181625023445136 0.0008214241561438904
1192 0.01913741482014236 -0.00523636249972956 0.001511544408521143
1632 -0.026490327306248507 0.003398423635770013 -0.00956944972232294
1903 0.002521785389771703 -0.010678584086662354 0.006346997640531137
1753 0.005837084546146831 -0.003950872364460542 -0.0015994407952687186
1751 0.005197754037597392 -0.00693481825113745 -0.00019859264579382546
90 -0.0032366126467993405 -0.017367515151726836 0.012760075190953766
1805 -0.008017427766786567 -0.0029844605750157915 -0.007730985248730937
1806 -0.009801424049761573 -0.012394877212330443 -0.007572379503744064
1198 0.020689518033746017 -0.0013556492019519474 -0.0050470924219302785
1752 0.009379312573108778 -0.030276166069163453 0.010895438460180252
1182 -0.007296669060756919 -0.0025646863356945586 -0.0056063295167997585
1860 -0.003402204318026314 -0.009266632610114919 -0.004977174353177717
1196 0.014546836118244984 -0.007844173493208834 0.004560962403580979
1899 0.009885892876571958 -0.0006210046860071996 -0.007649397205999153
1631 0.0011275154946790453 0.0003032910143932071 0.006692202661685566
1864 0.015100166432363863 -0.006861711973340077 0.013324936550356686
87 0.006898763167409087 0.009492225952528414 -0.017106026772674712
1855 0.00572333725989919 0.0023840040315862253 0.02212394388601263
1854 -0.019087881467727448 -0.0011019651809938483 -0.005488250859780966
1853 0.000614932545236218 0.0034348481886749826 -0.0034854797673684276
1879 -0.010669120313423302 -0.011891347445780508 -0.0018114925120612554
1705 -0.018426307724336802 0.005311796295982548 -0.006210801343667935
88 -0.011245383954397137 0.025570996244115962 0.014307302647809392
1901 -0.0010968524707768484 -0.0006140644635156474 -0.0061887354825684105
1703 -0.006454573975812919 0.0017184731595560824 -0.0023107443897303127
1610 0.004131657475043997 0.004471974066708252 -0.011000503327440368
343 0.005296959652024129 -0.012143415024666917 0.009278834786724127
1194 0.022812791659112958 0.00549732786241816 -0.0004587434820554537
344 -0.004832237335042955 -0.017367500241028785 -0.018117622387307634
1861 0.0010934809874772915 -0.009148898448142172 -0.008263050236593477
1859 -0.0005423754669029417 0.005967113679194222 -0.003570553741931744
1807 -0.0015681741815999593 0.007606552053674578 -0.005623966951458458
179 -0.01737540502274586 -0.013090642516442392 -0.018884275082299094
1671 -0.001950014943832328 0.0016925292030742186 0.0037534451347853667
1672 -0.0014754255494941468 -0.0029194854697114324 0.01904816915352155
165 0.004182099986138507 0.006932852188607471 -0.0015013109522456836
180 -0.022934822450760294 -0.008774271545359508 0.003902268985081065
342 -0.006165188698133029 -0.00475415543615464 0.017880309157625392
327 -6.598285820180954e-05 -4.699808508256596e-05 -0.005279043757039952
340 -0.011170225495093195 -0.0014560445265349423 -0.003338603769644923
181 0.004163184439480111 -0.009366104137411442 -0.010007972189644906
164 -0.0044612145160422756 0.002019824205069062 -0.002580824775688646
166 0.004224505772388931 0.007259188234522841 -0.0015543225706757965
182 -0.0037841110587418275 0.01890165439992929 -0.011174909447137067
1010 0.0009655924764855232 0.011647224363543809 0.012615463411926904
185 -0.01569277971986098 -0.002122825119350128 -0.003969876259290832
178 0.023296128527866743 0.010342112664341582 -0.001416810605172739
1168 -0.010186684966761074 0.01910522058103099 0.006899615643579484
177 0.013491638735670297 -0.019487813520375777 0.0052470951518178745
167 -0.006326240237378584 0.0021784647650339487 0.0019244220331237766
162 0.0002649184400259109 -0.004269228477325049 0.003675196119085126
346 -0.014667283513682492 0.004353713534432263 -0.024141397457575257
341 -0.006296829575261792 -0.011806821531207252 -0.03928812999423869
1012 0.012316815097023532 0.008338699440156675 -0.004786884935534717
161 0.004395073664422765 -0.007031359224852274 -0.006427503877112291
174 0.005358392759421014 -0.00017984819324358777 0.01489436816017658
996 0.00414201644704468 0.0058043952570968884 0.00172134624879381
1011 0.006889393803170939 0.01714592905060475 -0.028218607310529647
160 -0.0011631232001158421 0.002918050680543665 0.005759916050806077
1592 0.01454661275444512 0.0025202093962437186 -0.0034941344396180883
173 -0.0035781629424668556 -0.00810998144700969 0.010374420080597802
1013 -0.023141802336575534 -0.00015422893636151726 -0.0030066458751831777
1591 0.005783636023179843 0.0028115715844750817 0.0004750481328833274
274 0.018254796878587012 0.01655970097548696 0.00449013774228328
275 0.006316657793428845 -0.013502162066169948 0.013780342920922404
269 -0.021546616427172968 -0.007714039037499527 -0.00013851742553417458
256 -0.00017192173321798444 -0.003943121074015225 -0.0058005790821854
255 0.0018494424097986477 -0.009458472244050218 -0.00020200095634387885
257 0.005417215749271675 -0.0022687958607524464 0.0056096637339205155
268 -0.003048746301175042 -0.009441950797074763 0.018209608792475403
276 -0.00364316500496894 -0.0003681371098373757 0.008164539318739244
1015 -0.0008423852559404677 -0.0021551555193988856 0.00699997417916697
997 0.0035319225013717612 0.0029498022903611237 0.0070636542602073235
1014 0.013431073416931704 -0.02398231589418251 -0.01201319162985895
1006 9.4999571461106e-05 0.010924642304022179 -0.016682411846436963
615 -0.00928952831805054 0.0039454956421845835 0.005428105752964303
1633 0.000773869590351243 3.336555303551806e-05 0.005128788511861544
994 -0.006405425816244264 0.006447229458353765 -0.002132712469158355
616 -0.011740720175599129 0.02653934386131614 0.01048313335014045
1008 -0.016701332304734282 -0.003037461500914158 -0.0035850155216494007
613 0.00975133314967491 0.006487535523734415 0.0014792878106139572
601 0.0016061866586931893 -0.0005013093027946612 0.0019220821153724326
602 0.0012314949417646264 0.0031970111721236713 -0.00559402460044209
258 0.005123902069876501 -0.0005285340690601588 0.000253110759640285
254 -0.00578142021395362 -0.0003757198280229759 -0.003039718399944444
267 0.0005018369313979253 0.017450393090020295 -0.009507094465618468
260 0.004504341228143342 0.0031752174232086393 0.000741165203584793
600 -0.00344791200378049 -0.002916733116986528 -0.005669733461729537
980 -0.011867521522699247 -0.0164963793851729 0.02833989880955602
1887 -0.01231025314667239 -0.008302508605051112 0.024727076038016917
1886 0.006896011334428088 0.003979015443441776 -0.0025616806445968665
292 -0.004240072576158371 0.006344900950311703 -0.006965430983605565
284 0.0029421430271103373 -0.0014415752616633657 -0.0010406413273568206
298 0.0039163276367179915 -0.0062827177851687765 0.002974185935049743
293 0.0031560614697816536 0.001150365288415809 -0.0016596497899296733
286 -0.0009177474372535681 -0.006100400581315012 0.00242084364558013
295 0.005322173177104614 -0.01629517723685858 -0.002557407772834821
584 0.017966236860943608 0.01973932346829961 -0.002344358277146176
571 0.0031744719723526215 0.002136121502834961 -0.003207575066693376
311 -0.022269094743492788 -0.001575159826113845 0.02752411195572388
572 0.00399364285353115 0.0020034633458176567 -0.0011181099087346476
585 -0.0028163296143215487 -0.006081407064332066 -0.004422668442944151
264 -0.025721887269347186 -0.02763933082006796 -0.01793921956825459
595 -0.003222477215730951 0.0075956928564679645 -0.014065450304491295
1734 -0.00037560882505777426 -0.0015429622856245183 -0.0011935864699519204
1733 0.0006193494703598955 -0.0026478578593790714 6.58831473550032e-05
984 -0.0008569790695057313 0.03778955806042704 0.004698721352874534
285 -0.0016495652204788444 0.00040494016010786643 -0.003640484762484068
299 -0.0023243443714685533 0.01756733333082685 -0.005368121822667413
89 -0.005722111761587582 -0.0027330377766619876 -0.021602315676954437
300 0.00067855947735191 0.0011718639464094666 -0.008682236599819775
1862 -0.006439173650343832 0.0038216871604651766 0.0013624973248997521
287 -0.0014933584976534902 -0.006646565954209606 -0.0032728002069235137
301 0.0026122241667354603 0.004069605813849214 -0.005710000684654026
288 0.0007988510622840186 0.0013815629954826514 0.0065526700113716085
303 -0.013274511493225989 0.012730633733003342 0.0066500698277721345
307 -0.004425679573706995 -0.029197673410597896 0.010118390370425012
73 0.004511672333423886 0.0008735702562579784 0.006710221238019316
1754 -0.000588681456647426 0.004045664629636155 0.003287526902655695
1756 0.02308869679542503 -0.0018105547843140523 0.012661371463771418
290 0.006030850774446781 0.0023090270880410544 0.0014219677102119774
306 0.0027169945098117045 0.020756189000208022 0.007865577798214137
289 -0.003169041948440308 0.0022373276318406517 -0.0037684065013463197
305 0.027718377124310398 -0.006819092384032897 0.04550074566110325
304 -0.016503116808576444 0.006721014883348538 0.004884275125689002
85 -0.008321946805787567 0.016033671698593762 -0.01522874305060017
1863 -0.021152008085222256 0.014981703931885406 -0.006620709343505341
291 -0.0010910823032187192 -0.003996788929453875 0.00898933583615569
309 0.0209948289778326 0.01938416342444015 0.001073301658846113
1847 0.00403374514240602 -0.0008964987918577586 -0.0021868042800327883
1849 -0.015688318825896115 0.01142640466946283 0.02425329731369047
308 0.033915357544387695 0.007544544098219873 0.006868198784472138
302 0.005161070250103995 -0.007644284388169836 -0.015070271981732426
1707 -0.0014780048754256803 -0.013153322231313103 0.00877993096472716
978 0.000832218977719036 0.0066485614028772705 0.004214194617012952
1708 -0.006128825496183941 0.011101638818840862 0.007374422180504807
183 -0.018892251078862336 0.009009755939774274 0.006877941087451174
1834 0.006956449341645416 -0.001687904220283705 -0.01208765514869651
1706 0.002125428604538748 -0.002029015160511783 0.003969835756860186
1832 0.0007450973857848332 -0.0018797126172017818 -0.0005354131633888063
1755 -0.011562003646362442 -0.01204747709846531 0.008088396504392673
1833 -0.008819838613452527 0.00461057955401443 0.005008114109119733
184 -0.0032352270661569265 0.0025561014524300278 0.018369796838479887
1621 0.0008159374099537764 0.0006849365209334574 -0.010151533637905044
1622 0.014865829385664128 0.021462670042956954 -0.02187290108270149
198 -0.0017661952534692546 -0.001136690261455375 -0.0028797746552269663
176 0.012965062692586345 0.011554437133096809 -0.01730154608749847
186 -0.0010361467994630326 -0.00612605083705097 -0.013471315649680548
195 0.005213964399364307 0.002734252427248583 0.003742469765921812
206 0.013791734793110862 0.017939965909793028 0.011188667272793716
168 -0.005117603481187031 -0.005893388748321357 -0.004716485940083054
194 0.00848471865367639 -0.0023034221804549833 -0.003198842356473212
163 0.004071338074513953 -0.0019905357800109745 0.002085291337508147
197 0.0021085892989698932 -0.004752797321943609 -0.0005700062227755373
212 0.019826458701117967 0.020119141328596164 0.016088979454899885
565 0.015105926938511505 0.011077507503931345 -0.025582340317577355
175 -0.01239733002366 0.005714936865394364 -0.0030711789383743833
563 -0.0021923367220458953 0.0019815144375910036 0.003951277425788177
547 -0.0008828233349434411 0.008166556891318994 -0.0036033071873251797
215 -0.0010238668036546257 0.014754946435858807 0.019525692655311917
216 0.00425642887082486 -0.0008351692456506081 -0.009493545852483817
564 -0.01673781697895169 -0.010457270473497449 -0.01850758441720891
556 -0.01630044949772831 0.019148744951421645 0.010929231132506337
193 -0.01199747844066651 -0.0019279293571673102 -0.0006800742176850468
93 0.002495399434950147 -0.025129498916961694 0.025233624180573594
207 0.03662911938774721 0.002860023670835276 0.029501767290988138
209 -0.01513313671055908 0.00536237644453243 -0.0025547629812550784
560 0.029298514212031404 0.0026936267025424307 -0.03473218388923388
566 0.006637650347203081 -0.02530020934839536 -6.373737147772426e-05
1647 0.008204337294367023 0.005454147959716377 -0.001128670122364739
217 0.037761011236553184 -0.013318281774152434 -0.015931480135985478
211 -0.001413903516801965 -0.02515776957250379 -0.0012092480553432912
542 -7.459645069337355e-05 0.0009372840276034197 -0.0057044269788208085
199 0.004866922076104365 0.0024928786018781073 0.002186320271802614
548 -0.005178869303501163 -0.002286745822592455 -0.006781903526307768
200 0.0035462764526338203 0.0007626777957879338 -0.0040277879596996155
567 0.009828854889047615 -0.014782482945049616 -0.0069816874930652695
218 -0.011042960520713366 -0.007883149847248909 0.014260340194562945
551 -0.010345164870171246 0.017759495077200295 -0.0020969295005769757
233 -0.005376177308262785 -0.009438193606910788 -0.013754981674252924
232 0.007121879785732219 0.0388307953276608 -0.007499883870879598
550 -0.002805182400504268 0.013142215917324175 -0.0003359393516981203
537 0.004417053876292348 0.004774605884875368 0.007520905256094522
582 0.010993324878921637 0.005258587072433692 0.0068989681842302015
581 -0.003891215149305392 -0.001467195894995105 0.0030197978095327723
538 0.007916304302465467 -0.0004795500973713893 0.003388387820985822
568 0.0024131974436342107 -0.0011255654940339835 -0.001894181387148183
549 -0.008557636959392247 0.0017770522107792897 0.0007837348480928573
552 -0.009785691853151 -0.010476469696030841 0.011289239866495743
539 -7.046446967259793e-05 0.006670173626658941 0.003254155522775856
569 -0.005300188529496331 0.00868251323821023 -0.004734209661113024
583 0.018137730181206433 0.012696692615427236 0.013598286968962781
540 -0.001442610390989402 -0.0040535386878902055 -0.007707969151992248
553 0.009849605806331945 -0.002527187816601186 0.026620508912408105
1648 -0.014639101369945028 0.017766439050788466 -0.01991895171520853
599 0.004812655204933748 0.0013401046016773808 0.007404393530263267
612 -0.0038405471054268206 -0.01597073257927665 0.017629645790003878
570 0.006105019002512168 0.0069088705689839824 0.002511113346768064
596 0.012364586678987962 7.6199875494557e-05 -0.026213875699738078
578 0.0027956245216386425 0.0025156804839186492 -0.011957074402361805
310 -0.0054092759709356035 -0.0012934674140469482 0.014101930159867437
1738 0.008236362002141968 0.0005697046331690554 0.010756349410506225
1736 -0.0016892220278650432 -0.003562205442069036 0.00409546012940081
1679 0.004589124037884823 0.0012304839977779144 0.000762286065237498
208 0.03212417661040108 -0.007170473663695093 0.010136888406105413
1737 -0.006363313067216675 -0.007427562180713166 -0.012000469732324862
1686 0.004203204213078655 -0.03182432776116913 -0.007743174810642788
214 -0.01600263170097866 0.01600266683844783 0.016165606365294117
196 -0.004557291907838877 -0.0039006048427915737 -0.006194758515895463
213 0.01283281227794415 0.0057135203655835284 0.015993590088822555
1694 0.001584904746560802 -0.009843337201200562 -0.000673769700276297
1695 0.01506782962274458 -0.028403011329620913 -0.011847495231076597
519 0.008913269351476346 0.05386331718554837 -0.011439051295594955
508 0.002033355118461208 -0.003246228251346071 0.004302787199545642
507 0.0074151991165275705 -0.008235650110076867 -0.006728269540284063
521 -0.011119428674425358 -0.012639523701337084 -0.006812308515906333
490 -0.02204551660642517 0.020248067853942595 -0.009359971734140327
848 0.012607823986374382 -0.016025831763880637 -0.027239209095761323
845 0.01864744183027849 0.004640467025361282 -0.018229931963226923
832 -0.0022487352195661283 0.001111731503003982 -0.0028595486880501277
843 0.02294644701569525 0.026961454378026002 -0.01818118937471991
841 0.013238420215870964 -0.002614118637066777 -0.027181918993915873
847 0.004325823891521608 0.003192062282541094 0.006215898200886164
849 -0.035940878555021524 0.026637953209141474 0.01007079151864727
833 -0.0003459039821470997 -0.0002420354290274348 -5.467673809229219e-05
830 0.00019053210976376138 0.004835034304192891 0.0010932858267089774
831 -0.0033889583182307075 -0.0013496906102913684 0.0046200986931706775
842 0.026492796182512993 -0.01358494787403872 0.005093876076415712
828 0.006546579381649021 -0.0044262372113238226 0.002787710682911312
829 -0.002542417386822205 -0.00017324427910502837 0.0022082473319364744
850 -0.029833696934390037 0.002431180909972745 0.0182869782411818
853 0.005195528380610481 -0.008074605244272604 0.0118569884278771
1904 -0.005232246366788344 0.005221824227818971 -0.0027512414514193066
835 -0.008844356298925177 0.0049175560639739225 0.00579402696283346
834 0.005617556587892526 0.0067203613510513835 0.0023061314637036574
852 -0.008056381534140313 -0.007393565948555495 -0.018272696048622576
854 -0.01958589886402862 0.013974417565438938 -0.00397577727843375
836 -0.0035247233466224053 0.005206353404222278 -1.1245589300021067e-05
826 -0.002538330616229781 -0.001936153350720952 -0.003989051573807776
827 -0.006442373507798746 0.0053635795106455105 0.00039839966947007407
851 -0.005576024648716355 0.012399084464130105 -0.008907534433723151
903 -0.0014380523758417614 -0.010777053255480208 -0.0016978425601095683
902 -0.009762582847191361 0.014818254417151679 -0.04085863965416248
890 0.0014726740229530956 -0.0008900342475058674 0.004557680686008746
846 0.005568091385963315 -0.008321660417514783 -0.014507143942388504
1759 0.005026173468338288 0.002386660711229996 -0.006291648958449276
1757 -0.0010050613788464143 -4.40486969746113e-05 0.002562681475607303
1837 -0.0057515666967414185 0.011627553679276868 -0.017338406990723428
1836 0.025674854040194612 -0.017038068346685267 -0.010260196624041599
1835 1.2958328263243706e-05 -0.0010361036304796776 -0.0034738767652945208
1882 -0.021004733472096235 0.0006512915652679419 -0.008500340874384874
1310 0.005618167887466223 -0.004267950900202408 -0.004129771948719039
1880 0.004142436385131182 0.0008599589629869973 -0.013210513028575847
1881 -0.027495181937739883 0.0006919632689238529 -0.007216618964375067
26 -0.01265759855793379 -0.00343814909200752 -0.017604738544326898
27 -0.013152134144356368 0.017826477644376663 0.012146708032283796
1316 0.003563403081746373 0.0027245110334839506 0.0016978212165268442
1334 0.002604902554142223 -0.01698231184748035 0.018348473981338525
10 -0.0038054009888723967 -0.0010408761396624912 -0.0020644159590767746
25 0.019174822635617383 -0.005761238707827142 -0.00810961292636397
29 0.0074563958487506 0.009641621186687068 0.021165554996445332
28 4.3295065539838975e-05 0.010783200141616328 -0.017608047296607497
11 0.0015040533939838173 0.00813866963235022 -0.008535691561062219
1933 0.010807092222136851 -0.0011896638777247623 -0.009929524724381876
1335 -0.0155200897704744 0.008409714429749289 0.021307325265647513
359 0.004028588166425042 0.0010160321337865528 -0.006635483239108823
371 0.02662228118115236 0.007945677100256414 0.021746795385728424
20 -0.006114984505680004 0.005201553343093467 0.019395879363293577
372 -0.023836268841847252 -0.0029481649909907505 0.019588361566340192
1779 0.009663916917727226 0.0005379189284162761 -0.0067640857015220275
8 -0.002001788237762552 -0.004041025839170333 0.003575909892821857
23 0.0013549540277195042 -0.029012547698675326 0.021919100029870953
534 0.005751520901440925 -0.007267860687073346 0.0013863281025009745
24 -0.01604872672028756 0.012895260044650582 -0.012187620792612876
373 -0.0018493983844313975 -0.023621604841668798 0.012256148634126609
7 0.0031225209402897577 0.0010589926340403007 0.002167396430826482
9 -0.003563331960321802 0.000819330701878276 0.006186576633956747
30 0.0019170508547052879 0.03320234592681079 -0.001918721603237744
22 0.008408347966327685 -0.0016677662736698366 0.009336844497341509
533 -0.004412873324679503 -0.020032073792604552 0.010414869189435136
516 -0.0012041001753868596 0.0006069363355482651 -0.0006272522538039581
21 -0.03205263641080735 0.011676866027891086 0.0070750826560838555
532 -0.0045540648564962125 -0.007389404411212947 0.021586188718235613
513 -0.002694709407567061 -0.004789752870263556 0.004886268824866157
1645 0.0013136767065663833 0.0036388726138536776 -0.006983052812885606
1646 -0.03864989257105239 -1.6725524220972915e-05 -0.0004816234684673809
1724 0.0047123896699054965 -0.0007457660316414354 5.546836839812068e-06
1725 0.00590717680549404 -0.03529956276758927 0.00818945989840917
1726 -0.013884378534853565 -0.006076378620625914 -0.006917115652551094
530 0.015997700448150014 0.020245174860558622 -0.00374252878488842
515 -0.0025029636008385156 -0.006198023092351117 0.0027059651709978034
529 -0.004764477017086407 -0.013429305967759228 0.01762932165770627
531 -0.015391933771183043 0.019065240467273457 -0.0013406550339124018
57 0.022925879030353574 -0.03811527935941455 -0.012239713633078311
1778 -0.006886850491343518 0.0017650230375887697 5.3724098335236346e-05
43 -0.0027920711434483454 0.0020229383671426624 0.0025574436540096437
59 -0.010382113221039711 -0.01174287090625271 -0.005444438843104395
31 0.011052594591543192 0.03041232667962728 -0.019022934386698227
247 0.002302345811428668 0.00946356645374193 0.00898713382130091
367 0.022162017081111356 0.0014165307091354347 -0.0163057869946964
245 0.025738958833212623 -0.002698519550809185 -0.017051430727435073
229 0.003891739956511423 0.0079135579522277 0.005312532197341266
512 0.011152575104024877 -0.002123828951287525 0.004316891604651915
1677 0.003964323274991075 0.0029911816673186455 -0.003314459688030892
952 0.003493494186557567 -0.0005360689144165289 -0.011560243421459298
1678 0.012711335516995317 0.011918624597105475 -0.0026816063459210093
511 -0.006537613459179376 -2.8920758934273093e-05 -0.002418091575648412
525 0.00267302782943968 0.012414294099823071 -0.002118623033615102
524 -0.027967860012272052 0.0012246009969888484 -0.01598974350868274
932 0.002560090648078164 0.0011691866236389562 -0.0004779062747067905
953 -0.014600008889402997 -0.0012494123139582133 -0.03421472909829719
241 0.0013802986082676921 -0.0054753125150920874 0.010530103528993084
226 -0.0013651722232351574 0.003946016121885638 -0.004368536838697698
239 0.009058099322181429 0.004503809143344074 0.00017726385966685787
227 0.000761583384962842 -0.0011885527834908456 -0.003948029589571705
238 -0.004361252331092313 0.03159895171474977 -0.0042207731232749
225 -0.003968618234551495 -0.008005208772870349 0.004406438273973306
933 0.01791624966410367 -0.008118041048207039 0.012826030725928028
930 -0.009304124329959236 0.002890047168132153 0.00602453101489347
240 -0.02328226542900127 -0.01954833416182586 0.018958530821712057
237 0.02282027462887028 0.016750558495262458 0.014940025985631612
60 0.022181523419320576 -0.01528011681916623 0.005829178109795931
889 0.0033291461293351024 0.0017713381629111719 -0.0013556135234675242
900 0.0021754101323417712 0.005986777305511937 -0.015490231811317432
228 0.003865742649001048 0.004132252328453331 -0.005672686318278004
242 0.008319216966064899 0.04357164609678015 -0.0009949596277811182
243 0.017245197032954476 0.008192776087285174 -0.00440515352986186
244 -0.017910707073447118 0.022127290743063854 0.014102594478878416
1841 0.0019177968918266737 -0.0018475388745521019 -0.0035292391398272123
1670 0.0211861480208063 -0.025505218129239803 -0.0014533877577713155
1842 0.02405469281123261 0.01446489265412817 -0.011333740959301905
1896 -0.00022240593925139274 0.004273767767562536 0.018217473745346012
1669 0.007712905107999662 -0.002010085587605105 -0.005676951343784654
1819 -0.0020492225831086103 -0.0015531310217891713 -0.0035965932121662415
1817 3.0964537437281504e-05 0.0028028931801512887 0.0007578797414618276
1925 0.0017897422459233528 -0.0006100761063112622 0.003771880676970888
1927 0.0029601007108500475 0.004119047505684219 0.0019407820020742466
1732 -0.007115612743831495 -0.0006596120238102176 7.853739226377494e-05
912 0.009673896050367456 0.019134211511056442 -0.01641702647199908
906 0.028272038039511123 0.0038286649108732 0.0062008313917301106
1730 -0.005270458292874854 0.0028194904010547545 -0.0011505518739522004
1731 1.6628078432761307e-05 -0.007506599892625135 0.0071396363149765375
1785 0.01116495404451046 -0.0013664971183187519 0.02748283659207994
1784 -0.00037768520428415817 -0.005934583385614446 -0.00019217559761903818
905 0.017448859156137773 0.0037692599296880788 -0.024117143402052264
1786 -0.004863122616452597 -0.016224661080610173 0.012444496248828147
1719 -0.013274431832304253 -0.016992989886453074 -0.0025337144902048397
1693 0.000917893191091534 0.002212093166275037 -0.003295464278549539
892 -0.0024648930203077395 -0.0060956542262690025 -0.0019778543946481417
1692 0.00688285940550284 0.008148304622868073 0.0004400729537782776
1653 0.0025521123079844444 -0.002982930698413345 0.00390774340391772
1818 0.007916172886039765 0.002381199286345209 -0.018414865655142665
1654 0.01562958147013851 0.003591080997694517 -0.010434570367117656
894 0.0002767561270472363 -0.00014475646341053405 -0.0028844046640735393
907 0.020866958172887227 -0.003901379198215245 -0.003442072286763898
14 -0.010101922252685603 0.006014899133086512 -0.0015536097212018429
313 -0.00332347244276695 0.01528299236288112 0.010347912251600646
1897 -0.004292711251505238 0.00461018618947364 0.011902939172314695
1895 0.0009108407521004995 0.00038464539764626653 -0.0016786301054242205
1926 0.0045502369640081225 0.012706474779843515 0.002005275028667882
1932 0.0074994538640213585 0.008248841169831487 0.013864950309610019
1931 0.005162059211472897 0.001424486561739775 0.002095765748190612
1858 -0.009563937472029325 -0.005023426531878489 0.005179582174471779
315 -0.020038460350982 0.014065468161975351 0.005736935908617114
1856 0.003757918535548285 0.0021174072063790063 -0.00021725801070548672
1857 1.306758238140725e-05 0.006674095537877923 -0.007739567329898519
1585 0.002878676788111289 0.003644629959072402 0.001041598946405134
1286 -0.008644359737144709 -0.004087871815075308 0.0006923568716023485
1586 0.02578196802450649 -0.03147817723101458 0.004373913998443862
47 -0.00014028224118139005 -0.010198714162949362 0.019851197016043123
4 -0.0012002170734776803 0.003947700441200843 0.007373780292609333
18 0.008248642680555503 -0.000822502435801353 0.015505415418650316
5 -0.003307033290753305 -0.0033618068580420555 0.0068719413802700476
19 0.006561560549314446 -0.03135901824782829 0.008885852754456093
1917 0.004314172252017579 0.004221319144346648 0.005751279564707497
338 -0.007371309997369936 0.013049871053594179 0.017716681896707286
349 0.02227287321445702 -0.004252603697696523 0.010757228399985316
33 -0.001378529386714768 -0.000977761656932921 0.0037428303780714777
32 -0.05151647358500961 -0.007780773779106901 0.01939333615809312
3 0.005203328474832597 0.0021980125219200125 -0.0023542644880025546
6 0.0050031201869649026 0.008151988228885113 0.008249786859463381
49 0.0038070024388284856 -0.0030649042239169204 -0.017668725082688654
2 0.005430679927338355 0.005681749518846224 0.0029593726908688986
17 0.009805021935023427 -0.025388465873808764 0.000551930905234953
13 0.005252222623614846 -0.0003213846681629507 -0.0019428238018830062
12 0.001886820866792903 -0.010104958905893722 0.0034904741010324454
36 0.016369467673446745 0.0007953692721860098 0.0024026689129878634
50 0.002172576363381998 -0.019674611894030882 0.0010461884736918145
35 -0.0017378659190994098 0.0060945041603799694 0.00011844725348928757
58 -0.008134460190172915 -0.010418294093200713 0.013465116119434425
37 0.004102190474556837 0.0030610925637314323 0.006882347741849562
56 -0.019220962796214085 -0.0005349589906478812 -0.00010509519444708534
42 0.0012512785331967422 0.010876580432545573 0.0005484613795066551
45 0.0024536689015933356 0.0003927848524494911 0.006800658546152576
54 0.005046945247696025 -0.0070399742506831245 0.008098129331973535
41 0.008410227275860764 0.004954468721322079 0.003013667844017782
62 0.01814316722043717 0.0356137469642109 -4.319130077044072e-05
53 -0.01912207029979359 -0.012574898362664698 -0.007955611821757943
38 0.00025643501434442464 0.002461454888996222 0.008552880858451274
44 -0.00607504489831648 0.0038853992969647526 -0.005905558221363832
40 -0.00390795900995276 -0.0011486439731107573 -0.004476418554717892
39 -0.0009199989088713485 -0.002348170053309495 0.0002467443248976439
52 0.005239669210655111 0.022022882740723646 -0.010724867492571113
324 0.001850644242207527 -0.0007515830778111712 -0.002150212200653114
633 0.006025890909790845 0.026763800555867856 0.01812135325792304
334 0.004741088329116338 -0.012036717563354343 -0.02375563872038082
330 0.0027864622825117757 -0.0012962603950168923 -0.000516012761819365
55 0.0018607966955550327 -0.016786061774881924 0.026131363284511183
323 -0.0005724763573378255 -0.0033169384916667093 0.001695915167959975
366 -0.02030236030332508 0.0006351332517801653 0.020419755408065662
351 0.005639606444829113 0.0037648329777024 -0.004654666155449815
322 0.002677287544834359 -0.007097771688657533 0.002935381656914069
336 -0.02046376077896934 0.03876803197619511 0.01685540917770183
331 -0.000896120493430092 -0.001970214900106025 0.002077946688511592
321 0.0015772243640863922 -0.0021288430880156343 -0.0009262438211481638
350 0.0078294116925272 -0.007486355489340109 -0.00982797620808503
1666 -0.002862186675787651 -0.019336672161680307 -0.022530633983071525
1069 0.004490550753834196 0.011117803677003678 -0.01036690851357536
320 0.0017016534090779434 0.0003080215147206739 -0.001643057669351446
1665 0.002494176332489821 -0.0020245535893831847 0.0030268081180451164
333 0.013104528161258656 0.010415303749723541 0.0087334473909194
319 0.004571116743864669 -0.0019588063028243463 -0.004306151457581042
335 -0.0036916973047925834 -0.017087352152539075 0.01653791246063779
1070 -0.01137359263246863 0.012550488090026823 0.01778559114565285
1071 0.013763830911502106 -0.00030088666590225477 0.02287223397301086
1057 -0.006662748811165901 -0.00022339682021931765 0.007171679458313869
1056 -0.0025586543680463673 -0.0038961807303914504 0.0022427816922875655
332 -0.0009468046573635271 -0.002055303424393061 0.0009340358129862638
632 0.03377333588801844 -0.0028988760429899817 -0.011704509509577247
1076 -0.010411723562245564 0.010423339677961782 -0.043691890458173975
1059 0.00554335333565397 -0.003826132099912681 -0.0007780046022640057
1077 -0.00248695230861859 0.00891497232343255 -0.013423102369110462
1691 0.0027050169574084487 0.0002206990156234658 -0.0012535681999585736
631 0.007407538913485765 -0.022844903884636576 0.010658561630203227
365 -0.03798374445888868 -0.010061022533373376 -0.001898875495113743
1746 0.008446769485009024 0.01115605620752732 0.013484321551806632
1745 0.001572474271738832 -0.003921967460462148 0.005486472778440751
1747 0.015371253968671788 -0.006467876321898626 0.005445054354712384
154 0.008828030939395536 0.0008942240118901142 -0.007777938715445566
1920 -0.02230112045440352 -0.0040520068153441086 -0.003451060626450295
1822 -0.0030873379542532067 -0.016301822922921323 -0.014613526690312047
1821 -0.012600984565750088 0.00634433868130587 -0.011296683626712403
1820 -0.0033797670052392436 -0.00022355045277366295 -0.005892200520040536
152 -0.0014218665450949372 -0.011891094800617294 0.016034642294774148
1608 0.008998103544944359 -0.009701207906869092 0.005947542517941251
151 0.024789388879581476 0.020234200430712248 0.022793339949663604
153 -0.009982060213619677 0.007253709689132567 0.002731675752445098
1741 0.029082729820148985 0.0067384974828452755 0.014607915885874106
1919 -0.004111239989222939 0.0024862620711703165 -0.003143856059767635
136 0.00227367096633743 -0.0027802063722615488 -0.005854721488797661
147 0.03135951578026751 0.0040643394926828625 -0.02688402719174562
146 -0.006320397528792929 -0.0003283498239052809 -0.027352468348143023
134 0.002459384411919479 -0.005600028909078225 0.004499698902642633
133 0.0015153257471677553 0.002256915178857014 0.00215566404851484
135 0.000713926869117889 -0.0021720702766136373 -0.009168531099023401
148 -0.01527591764813303 -0.020430660092951622 -0.01601127279472259
149 -0.016576101734794527 0.002780832115500709 -0.01009243522212096
1740 -0.011917697374476977 -0.009030722626992888 -0.0001701413321294123
1739 0.0047524003207043974 -0.0008649028835606252 0.0016609240292236288
252 0.0037081770252581654 0.0009416336311869554 0.00540682323980966
145 0.0039031909456973377 -0.021137666836839607 0.009192628233694537
132 -0.0018709969776809334 -0.003528130294573681 -0.0031408112142545987
775 0.005790538590534098 -0.021580431451403002 -0.001383209637726783
1894 -0.02572027122686701 0.013949541625080131 -0.003635690280935513
1893 0.010919810694389355 -0.01765166300880281 0.012124339716738344
1607 -0.008872832280961748 -0.0012724539425698653 0.002578391521097981
1902 0.004271776918384591 0.011307922680574928 0.012122415646851618
74 -0.002524959961643234 0.003074171709929696 0.008618032436205986
92 0.006503356596990849 -0.0025312270538747988 -0.01394662017054533
91 -0.01675928087097234 0.004014627341476398 0.025129123797727925
1918 0.014561741652436294 0.005363533714428429 -0.006442840143276247
1916 0.011561774116292535 0.003370808647765384 -0.0033511410230804054
1722 0.0031014108677845714 -0.01601390352928359 0.01776908572951332
46 -0.0009326955258843738 0.006693609809746916 0.0063440998625549855
1723 0.0011956717261580722 0.007491185427743616 -0.027836094624045456
1721 0.00016630473355504026 -0.006631773715912196 0.0060572517791175895
1890 -0.008248506647254693 -0.004700550247231165 -0.0019563557152604072
1891 -0.01376782409593797 0.017989692167388625 0.012391782623246472
1889 0.00624409234151757 -0.005499966887630754 0.002112424825972424
1485 -0.008923130320090266 0.0073471742508299616 -0.006132443885927917
81 0.0078053327959462975 -0.0002101985002549681 -0.02425905532960818
1483 0.009725702004216501 -0.023133104106284635 0.018617025760457363
1711 -0.0006398012690417163 0.011834547483829783 0.005480691273887686
1709 -0.0019125443515790482 0.00021089430108730335 -0.0035348542190290514
1710 -0.0031879055048146154 -0.00488689330086067 0.0025006061507906025
68 0.0006808469854311931 -0.0008714087346377732 -0.006606376064155864
69 -0.0032075935020359284 0.008210443921677451 -0.0038938145039762147
63 0.01462014015589878 -0.014372378742260251 0.021255733933169804
94 0.019665460649531768 0.005081645416013179 -0.007081482934778567
80 -0.010688006215039193 -0.013367052887203329 0.011048620639693568
67 0.006612910693525687 0.003091838062157661 -0.001676536513197643
1619 0.0002541528236106031 0.003845314765855127 0.002539928633202603
75 -0.0031357914364113283 0.0038581976404079453 0.010585630518070826
78 -0.007491316332471026 -0.008088909429046642 0.023807807766472528
48 -0.008486170371979573 -0.009141577125425487 0.003935840246625214
76 -0.0041015694709318875 0.004160453096961974 -0.0016781381729121425
1620 -0.009754151433498504 -0.01999193040655355 0.019628705251197916
77 0.011669035851020873 0.003253094996770988 -0.01602841794060295
34 0.0033401196618786408 -0.001795660301952901 7.904861892207882e-05
64 0.002328971585415419 0.007918885548280467 0.007856605670145475
108 0.0007929111113763108 0.020469566314216262 0.03587596381109547
109 -0.026522427293092433 0.015126734889658626 0.02555151990858575
66 -0.003833263127782036 0.006665554253647351 0.00412397923170404
95 0.0036967329939607435 -0.006360928263084925 -0.005746621892856676
65 0.005386699086430007 0.01083512354176707 0.0008575833991190435
111 -0.033036179760673405 -0.016997255412138083 -0.009929239867597462
79 -0.006524939692628632 -0.011371071519865085 -0.010463430351414086
96 0.0006814162100994296 -0.007599723370800953 0.0036947019355189513
110 0.017667370850823066 0.012215255161446573 0.008554662090401304
97 0.00010919145487688652 0.0033235598981155583 0.007642628263108593
107 -0.00024671576816161765 0.0030061356476840913 -0.007155573730532659
98 -0.006011233922304872 -0.0025243028573897976 -0.0032656321374753576
1481 0.002795558157285548 0.01597006902956325 0.02533379099179806
169 -0.008372921778018183 0.00010082810818157401 -0.0031223685396566166
1468 0.00027916902854164074 0.0007689117657801469 2.610668893138761e-05
202 0.0019478675247486081 0.0009684426937070896 -0.00944902025796353
337 -0.00024081062308895572 -0.013813509168533062 -0.0013272148078985941
143 0.004967391937410193 0.003749787864610254 0.00037940324645042615
271 0.015453598525218585 0.02647817890973663 0.005577638032526178
159 -0.002289449160636367 9.409741505606857e-05 0.0001196173329117575
125 -0.009123906515486528 -0.017351959801322793 0.014899869906325988
139 0.005759479086446628 0.013603614556845896 -0.013364448173011592
170 0.0076962759144686265 -0.007321745490690932 0.0071804555035430186
261 0.002824580425889785 0.004217533055112545 0.0030966745077923405
171 -0.025478437224590283 -0.0028602191418829826 -0.004965047554208501
126 -0.002186405754032803 -0.002971191550067427 0.0050796949214805725
140 -0.027997371782273104 -0.025954130915382186 0.005874927004665267
158 -0.002948129005764437 0.004574249382310496 0.00257220105259562
279 -0.013813806813594832 0.0016736583819623233 -0.010314341674361995
157 -0.004199150569383268 -0.001953560317020311 0.001404801994444746
201 0.0156290033661238 -0.03274863978053393 -0.011668613299244535
142 0.00031442697334864466 -0.0034741605012836617 0.005964368061296758
127 0.005447682190913702 -0.00277754286598585 -0.0050857735445148395
141 0.009372304740014608 0.02573701085036544 -0.004749859513419789
129 0.004034530295042766 -0.005449172843715834 0.0010629811483227423
128 -0.00045547974194303507 0.00010906955618687322 -0.002826885698993006
130 0.0027706515287906574 -0.002192337812271542 -0.0022402643950480815
1074 -0.025776270278019014 -0.026531770088009176 0.0017536024473649812
156 0.0029110620560120373 0.018273663397626937 -0.00951999770532497
138 -0.0062018941602814326 0.0007633790945476886 0.006408501948970521
131 -0.0031944148672438427 -0.002484525878578278 0.0038316186433830384
137 -0.0030540368321762506 0.0020213155574537985 0.0021735670188232103
172 0.01786885336564045 0.031149469477394873 0.027481712385602302
155 0.026986514298051226 -0.0027755612750923983 -0.0060447103599146415
188 -0.003185395369869749 -0.010272398612885248 -0.0007462685238804567
272 0.002218184102335548 -0.019156793551486126 -8.95582595672853e-05
144 -0.00889068630597681 0.02788226531955518 -0.004435113776914557
150 0.038218498717471516 0.03116324764364394 -0.01785183820828893
262 0.010676497595759815 0.008330385917319867 -0.003108292790384227
280 -0.004992110676598178 -0.01443920405683294 -0.0007150404846315753
283 -0.005280190653768893 0.0012360002898024424 -0.00039026757884428454
312 -0.019292428772106816 0.011980922416105502 0.005209750460016391
294 -0.010804452036122484 -0.006935186258036923 0.0031847381696677012
316 -0.004280502362769903 0.00875660942088337 -0.00941609568077738
281 0.008460534034360388 0.004368135337073892 0.0024411775916089013
263 0.004643857018938291 -0.016204077386505117 -0.0020285611465537066
251 0.0009527239704636975 0.0031462870925587144 -0.0022153152058034626
282 0.003498574118252818 0.00034694566640212465 -0.003539935024314499
297 -0.01304551890710155 0.018443730778255337 0.005520016115263621
296 -0.0028539351115711297 0.0022303256447311977 0.0025609330303814196
317 0.0060493895165575585 -0.01554035882617721 0.01927143027867448
318 0.0034818720510639747 0.0029299266444380344 0.04276740292312732
806 -0.002509688346469938 -0.0030267729083682995 0.008159052724855792
1327 -0.016178118407691008 -0.016701264107268937 -0.00866600621222114
837 0.0007295355000392562 0.014499191889306474 -0.005397808875551386
793 0.00566855780699768 0.0006065203876732417 0.005008220204827313
807 0.0029082300196650516 -0.004121372639116222 0.02112488127804917
824 -0.004530866898828507 0.003293679539484812 -0.00045587523937658616
265 0.005352002203079514 0.007362067745815077 -0.002051995679744071
838 0.013075861310868547 0.0019496092467537428 -0.0031489961950366824
250 0.0029590547619612714 0.00046996950416085227 -0.007911071831550058
1329 0.021676648209142776 0.01219893756857769 0.011601009476401374
1702 0.01589581135074637 -0.015746189124541385 -0.010049895349551873
86 0.005436468873109724 -0.013439932466038449 -0.03557888630970841
1325 0.017741875716259733 -0.006026267165385793 -0.013829291272987028
1313 0.004848668445497947 -0.0017077109820461602 0.002737793259080397
1312 -0.010590900960862794 0.0038083841257926985 0.0007184363390796606
72 -0.002630504688186291 -0.002342374851668952 0.003205308593124203
71 0.0032176650686294543 -0.004752451680914358 0.008094084936424783
1790 -0.0008329963105562874 6.135851882893797e-05 0.00465237798616525
1794 -0.007196838637522287 0.006711744363078592 0.017066097167741025
1792 -0.0034316392809373287 -0.0015981659036295847 0.0065529484867202035
83 -0.031020983882007285 0.015368164402564683 0.0028783933190762896
1326 -0.01604506591099665 0.00742040778656834 -0.016229825246172707
1793 -0.0009163823601879287 -0.002985701932446786 -0.005324669719307294
84 0.0020071073390349778 -0.009013334241732592 -0.0061734486567469405
1795 0.009520742296095246 -0.007056276240603913 -0.0010007889297058358
70 -0.0021665197637903803 -0.0005475345783986428 -0.0010228572105704283
1420 0.016689986579140018 -0.0036917236055124987 0.0052602237000925955
1406 0.001481729413703142 -0.0013519455470325146 0.003976282180908671
1700 0.0010200556265829673 -0.0048386598549831844 0.004397104862376171
1701 -0.025509147710679757 -0.009684340262363788 -0.0007978437759911725
82 0.02704977869166935 -0.003626679886464846 0.03916089610186159
1425 0.013425826487128194 0.009837461027884107 -0.0016287674148093942
1424 -0.017447276990942912 0.0035446503274667173 -0.026220640388275537
1408 -0.0035127109481978168 0.0038151895466308284 0.008233409649257227
1405 0.00023499576776981688 -0.001618212777598314 -0.004266107109865103
1426 -0.006296663470825928 0.0019302720757078734 0.013921387291162834
1480 -0.0020606705042693634 -0.019496171663263968 0.0064803416926268575
1783 0.004927563256105184 -0.0020636197458882787 0.002981864836523118
1407 0.000287479906617064 -0.0008004287828822931 0.0046353326336485996
1638 -0.02740736030136357 -0.004390773701297942 0.012279121619050381
1333 3.7594366504692744e-05 -0.027151475968324856 -0.026417003188280545
210 -0.007076307572178324 0.016698528815596785 -0.008351680839658763
1419 -0.007823565973267506 -0.008714143225436788 0.019690399796448852
1416 -0.03327179652967708 0.005428587712369753 -0.001907639646129052
1418 0.007445346040711273 0.0008480135712421451 0.005698348822979863
1404 0.0018564253789101028 0.0003119003290315533 0.0005985953974843221
1813 0.01845655036905578 -0.0008175755261565935 0.0017982689219994668
1403 -0.005388922591180895 -0.0015632591424212736 -0.002058645896750981
1811 0.00797107210468732 -0.0027962753393082403 0.006768547824288091
1812 0.016666493697054394 -0.005584686368953631 0.0063931636149119325
187 0.01700362714404175 -0.006568103160409137 -0.0017015586641977996
1417 0.006634301211233334 -0.004183025560891388 -0.011777216913141484
1402 0.007200937816904374 0.0038464064907868176 0.006152019574481941
1675 -0.0026113528077398368 -0.003908021341069693 -0.0015058911054018744
119 0.0085536545226275 -0.005243597905875552 -0.013673008738541888
112 0.011506065156544438 0.019225128267353044 0.007939255726768521
120 -0.015750842629400998 0.004692565290216053 0.0013503627198052403
118 0.006457921460460459 0.031154058446069995 -0.013702242771078569
104 0.0029522998776463517 -0.004524577175939945 0.007947755901883308
99 0.007329136578999283 -0.00042533122340563106 0.005293136958171781
100 0.009932569341613849 -0.0014897481116324912 -0.002949468212467264
102 -0.0016671789480904185 -0.004804103394533769 -0.0005239205086562377
106 0.004353880247323058 0.0018812861812641788 -0.004450654981178602
1415 0.012829220965561291 0.004845709182891847 0.007750173406383595
1676 0.0029091550736340586 0.004271276734421421 -0.03073549327598692
205 -0.012200699974119426 0.014322251627700388 -0.00368602458125497
528 0.00038284318088867227 -0.012959836195078761 -0.007964609151131294
1482 0.0023143759625707345 0.008739266279272306 0.009381176672301922
536 -0.01495088809737353 -0.02243981214268749 -0.008118528487039277
518 -0.0037388597732934403 0.0025636191302426787 -0.0040131984022906955
122 0.016719885699122965 0.00560684314028804 0.015113226896189578
219 0.005260679445154338 0.0014014083696898747 0.0008080756027664087
810 -0.005290008840441822 0.01886266140423869 0.006827935118759687
192 -0.007005622393649816 -0.008800995715778267 0.0006741242446397254
190 0.0065242174128327555 -0.0008922009271563139 -0.006263126838292855
189 -0.0005087991484555256 0.0015823829305907332 -8.058897207432062e-05
103 -0.0007139538929589259 0.002792354177418841 -0.008747731701480839
116 0.022919620390257498 0.001590184368190227 0.008917609747516365
191 0.0004585261352485399 0.003837627149303163 0.005807613778272985
221 0.005263485016914014 -0.0032021520335722233 -0.001539548727308144
117 -0.0005845951039971135 0.0023140257936758806 -0.00011275941556072328
204 -0.007738197125003638 -0.006729566701530018 0.01370682039823554
203 0.015191170109352106 0.005763211383943677 -0.0105519553183047
222 0.00030679380145009957 0.006740024920315265 8.119577989204032e-06
223 0.003730628639360456 0.0026632235429262957 -0.008367064422043461
235 -0.004582731507200821 0.014660311699598043 -0.0009378775595782776
797 0.0002942175205177424 -8.422762458383008e-05 0.0033343552997827973
236 0.02436868414568087 -0.016260996690334154 -0.00746422906434937
231 -0.0019698368867426042 0.002628774296165111 -0.00035106872996531693
220 -0.004777265274149794 0.0060945869649254485 0.001913497820321288
234 0.006704775524241513 0.0024766259814750233 0.018756202025573945
535 -0.016800384323798788 0.006529592535477613 -0.03809752475006147
249 0.002428769202101039 -0.010928880202936276 0.01371310589858441
809 0.025362487491157173 0.0010008449473764107 -0.006074616594497433
796 -0.01858274839916538 -0.005081299315249566 0.005030164066982758
1782 0.008447429587171302 -0.0013999594587167338 -0.02334695295672739
1781 0.0016881026664736893 0.0022091132130361373 -0.008623228400037099
825 0.0026890881132931874 -0.008067682600869005 -0.006439491689758584
840 0.005492844102140615 0.010753546998721688 -0.00045031084977890034
839 0.02527504489198203 -0.010729300654306061 -0.0041922917101057606
1758 -0.002566250222236865 0.012682819941858641 0.01214100026091424
1324 0.025243489853021377 -0.016160503345345932 0.04263178307747407
1866 0.009338971992946287 0.008123999717905611 0.006369787687986907
1311 0.0055399556697912624 -0.007099913629593099 0.0027969090088722686
1421 -0.009776025132210682 -0.002086995572159772 -0.01638979332150321
1423 -0.01105959378873006 -0.007265952257160225 0.010322390943832195
1323 0.0019206896750982095 -0.00328840783779708 -0.0335490719910095
1637 -0.0007569792251384831 -0.0014030935913301485 -0.0022122427806040325
1422 -0.015768561216448367 -0.013426418682054075 0.009648680296981424
1780 0.011066344972098066 0.01163973629121755 0.0009618990772406548
514 -0.007954698860338118 0.004163776651752014 -0.000967566642857275
526 0.010212734156054455 0.002219854441674733 0.004113432453294837
527 0.007267161996940197 0.011282461549498619 0.005921282277720008
1668 -0.03131222785032618 -0.007834276298561087 0.008481175049461012
1667 -0.003965540740763726 -0.0013496106192089205 -0.0002985801241626862
517 0.0008166231513717982 0.002968904008508835 -0.005655923584174386
230 -0.0024259842628939804 0.004696674008565571 -0.005964179159148352
224 -0.0006054590320786374 -0.0018382677166406671 0.005055448745190595
248 -0.020415116305137218 0.0024234716752029014 -0.018291506049310485
1906 0.019211019329695867 0.021509606820580764 0.01648793855706153
913 0.02834600788285904 -0.006690272108458713 0.00201777162193494
1905 0.002550474329758894 -0.007817346668637459 -0.0018420545063123914
1322 0.028961191690764033 -0.023488600037573085 0.010848494779125853
870 -0.01042295609752804 -0.0135855140169103 0.009875429040017187
1643 0.0031494208685657558 -0.00029922449143749764 0.0073996745852861695
1644 -0.021243150491435187 -0.0069116959416631995 -0.011819583609034942
1304 0.003873493993704886 0.0038345070705506274 -0.00688672382830779
1285 -0.0012891797366020924 0.00401843748776771 0.00030104221370766073
1284 -0.008674327812917968 -0.003344282984201538 -0.0028483222638640577
1303 0.025821492890155204 -0.011566698757686414 -0.0027752555253527634
770 0.00554281636488021 -0.0009500128009689674 0.0056763109534354265
784 -0.01511381037915599 -0.015067740292613964 0.0018609923869198732
787 0.02856373042451921 -0.03357876738412266 -0.029721166293569294
871 0.00896134412110724 0.01837263057990754 -0.023670220947442942
872 0.0006902124550093803 -0.0042925688833746175 0.0028025262506722465
858 -0.004264705385085817 0.003843553912457469 0.003020350154818157
859 0.0059437008006263245 0.002996530071151095 0.005242984437487172
856 0.0038323535615265173 0.0012362485569117133 -0.00021997625189548693
857 -0.0027830278257059402 -0.005764621355556899 0.004367283064231896
860 0.00019666098457532297 5.265686531986036e-05 0.0010483634253244758
866 -0.0001705416260916141 0.0034697640559986495 0.006166573523736438
867 -0.0022717931307137057 0.0045763155705506545 -0.001782500858646266
1278 0.005238505229403094 0.008174979636677623 -0.005617973233987206
771 -0.005562111971422781 -0.0015096748644333293 0.0010576547640912784
782 0.014994795965089049 -0.016218258178825926 -0.02708801128610639
1317 0.005342198798810851 0.006572079337932658 0.000429622857671208
788 0.012112910339908621 0.01637037957706869 0.002560580543984077
1321 -0.0015587242367893891 0.03947824468073342 0.01896654358390517
1309 -0.005999469948917135 -0.003289827019692537 0.00032861604114915033
1318 0.029821597472526648 -0.0188434929897605 -0.008601884855354186
1289 0.0074404307092839905 0.016574977278001505 0.00503357084144532
1308 -0.0034868609665006807 0.002285417710551219 -0.003343432730494453
1307 -0.0010707076592036309 0.0037315006451278357 -0.006671982480792933
1305 -0.001609400681650671 -0.004905681594734579 0.0007386537297033995
1349 0.0022911708187280974 0.006593679456229247 0.026422101927667037
1320 0.013091906492183267 0.009922875894658584 -0.005625260967611666
1306 -0.001382646263465886 0.003696244940210316 -0.005165720566537987
1352 0.020059915678755147 6.577295498816695e-05 -0.03040003177131176
1339 -0.00279894027630052 0.0031288778947773407 0.001010202494938212
1336 0.006176429764950077 -0.006657421851205718 -0.00040378470025097095
1351 0.0018862149830986415 -0.007883390116794418 0.011026563010480248
1350 0.0196852454605453 0.0002720946685328761 -0.011153896329885114
1338 0.00325715288859514 0.004797986654641186 0.0017650905823308391
1337 0.0020905625955102806 0.0009617851630293324 -0.004471621956087112
1367 -0.002391093036722476 -0.00036330275521903783 0.007412179210821379
1348 0.007675275421924152 -0.0013962083924917137 0.00046265674342599994
1366 -0.03762855122143814 0.0010540583020139205 -0.022200851652238
1368 -0.002921573225465648 -6.985511465385198e-05 0.0004926165072164837
1929 0.0046223956787013205 -3.422018356600255e-05 0.004441052791739507
1381 -0.014737350189996362 -0.004070025463887647 -0.004104852188560479
1380 -0.013496060973100658 0.004618211550241285 0.02024763125358643
1928 0.002068897283310879 -0.002771334147226721 0.003153917015720668
1137 0.017284279274905293 0.027742241661712276 0.011758341886811331
1412 0.014409779674416475 0.010584309337255834 0.0017620907198079483
1138 0.004701617414430311 -0.0006195272892689893 -0.010215169626726238
1121 0.0009977342121410074 -0.006533429857453325 0.0001862066375147663
1139 0.0007845367346428735 -0.0269606046375557 -0.011950378745795623
1131 0.017851387717368578 -0.010991465338221899 0.008044240906896694
1119 0.0033456692477682294 0.0002727516176408912 0.001227936334650803
1118 -0.00044984484356330615 -0.004956459313225501 -0.001713206990928257
1135 -0.004332748564038719 -0.0009671876726919908 -0.0047611299640136825
1120 0.0026733453223933205 -0.004529966336803335 0.0007819120141737442
1136 0.0017269344266118774 0.003384252046376998 -0.01696415997932753
1661 -0.0018446946554988872 0.005531461530045156 0.006179935556554657
1134 -0.0014527330106384132 0.013326976600785405 -0.011579000471839502
1133 -0.0002569392205517446 -0.05386092785796456 -0.005047606180488812
1132 -0.0033948293809357446 -0.004405419477097911 -0.0003833248127807735
1122 0.003945329447895394 -0.0011815114697419906 -0.0034754229222210037
1116 -0.0007555106730395637 -0.003025918474885684 -0.005251147092382605
918 -0.008170845785372164 0.003359642123339844 -0.0009782939930374766
1117 -0.00254446237432397 0.002772227084559601 0.008459189208312418
954 0.013291864478070086 0.010248244269211854 -0.025130347340370517
917 0.007870679873710316 -7.925762776134371e-05 -0.004986736867700826
1140 0.009887151760553192 -0.01693049588319591 -0.003965150947001851
1130 0.001227381091547925 -0.02868702732295613 -0.014882322708546
1129 -0.026330556553244042 -0.0028213923557098386 0.011163742179373833
931 -0.0155440476089517 -0.01649306968121865 -0.021325571860985885
887 0.003844715190060092 -0.010248619887703194 0.0031782531495509886
899 -0.010904438812308742 -0.03494185430212352 0.00142543438010749
1581 0.005506535926277643 0.027306944929451075 -0.0035648448106804205
919 0.004765916360764014 -0.003485921011376948 -0.007392386705128683
901 -0.02720123727917431 0.013758848095250827 0.007507214925370571
1547 0.0029690513924969662 -0.005867481737431878 0.0005259395103824574
934 -0.0003588355681346578 -0.02406753659763183 -0.01352419344506527
920 -0.0020393995212994887 0.001946253043703145 -0.007221257553981739
916 0.0314387414071937 0.0024294402302806567 0.02402751449130163
921 0.0021082540418593445 0.006021069690445117 0.000779367675863903
935 -0.0035456170021561013 0.026818255407230353 0.0013330859425788632
1639 0.0028520445173656228 -0.0015819243161380987 -0.002456102165592696
1640 -0.013935285964744167 -0.028822225300056556 -0.009301292288094155
945 -0.020700276093450286 0.00460452804572595 0.011534350674852971
929 -0.0006534533014023671 -0.01031324291659714 0.005124897432364111
922 -0.0016563343780763024 -0.001232932625890757 0.0019150038766855833
940 0.01353029127691191 0.005306090457959775 -0.010710051055137629
1544 -0.004559968884620787 -0.017432655320691225 0.009927434665167467
886 -0.003586056815581981 0.0012070455699468039 0.0010959514687518886
888 0.00117688376633777 -0.000698869375096235 0.0021983040146735487
898 -0.0044578336661620765 -0.0022601206962639675 0.00047525000297687036
891 0.0038144450809247015 -0.0009342957062798799 0.011544170815292468
896 0.00047243357362236437 0.002464113374255587 0.0033492430809215533
914 -0.005459765784311902 -0.011500467092457046 0.03554984443680738
1718 -0.0011095754180942428 -0.0067103663049675735 -0.007457399051946028
910 -0.0024517366149879923 0.011850260689967826 0.005560756584898562
893 0.004150286291912653 0.001041283073922736 -0.000152167587834015
904 0.015385785259913893 0.02783073598545909 -0.0012095588268046169
1301 -0.00903510224658578 -0.002138815938755819 0.026916792949062626
895 0.0010225139760914753 -0.0032215822994967505 -0.0022613746581645064
908 0.009094284706797524 0.005548392641369046 -0.015522349115913648
911 0.006513700291265984 -0.02152964242465778 -0.009211472150348995
1749 -0.011300555164507892 0.010990566741551777 0.005237901086079835
1748 -0.004263864790572686 -0.0027268875449828096 0.0005383789765099354
1750 -0.006018955945564417 0.037229389520918324 0.02217012674944035
909 -0.018493926878944248 0.0003896744874227002 0.04750282293380833
1744 -0.02594051071832386 -0.01018790242984172 -0.004024910210424095
1597 -0.0003148179732084784 -0.0028094022088742806 -0.005158777691025582
1769 0.004482675664982291 -0.008684303372244066 -0.004394423576300872
1771 -0.02628042473605247 0.002432723903419805 0.0031792854829025856
1742 -0.005804977262606831 -0.0013991599233807658 0.002338938957420965
1770 0.0020686205534496166 -0.010762266491637055 -0.005453863151071328
1743 0.005829462230486415 0.003284156622834636 -0.015759674388522917
1825 -0.00019594749824575948 0.002066839968784699 0.006433295429755571
1720 0.001770622628735737 0.002855114670697971 0.0012405007127837201
1915 -0.022760980878065978 0.020607982874962582 0.01754241323050346
1615 0.0019501651327383576 0.0038037382473954814 0.00155286179861996
1824 -0.008732536325516264 -0.013109331420009264 0.01077581692839269
1823 -0.0035776865536141893 -0.0038936495596697956 0.006723094716012543
1587 0.01460956918449054 -0.012893660987057442 0.021442296126994664
1319 0.014774048984992813 0.001690328224130235 -0.0029307228721861616
1275 -0.0012483035507457887 -0.0004167597450313265 0.0016480504264231807
1274 0.0016848476505431143 0.005936057323225325 0.00195767928736989
1287 -0.0028874071204913416 0.0155291818052831 -0.00046769769949168744
668 -0.02418458162339227 0.023998921355534417 0.0039479326414545626
1231 0.007393344348795257 -0.009002219713033702 0.015414819945822108
1277 -0.00040300505638630937 0.004327450720600623 0.005297806563005995
1273 0.00836715639917389 0.007125195425667621 0.0008049127668749752
1276 -0.006558303220587013 -0.008620156205402206 0.006032202657840131
651 -0.002389472488222517 -0.04024875882034776 0.018733495194279106
1288 -0.00024562539765489357 0.0011131348735017945 -0.006883223701634757
1223 -0.015192043035530364 0.01629595594237188 0.01941407329347965
1290 0.017549712052602917 0.020187415848201634 -0.0035664387084161095
1211 -0.005376845096971215 0.002877568915428745 0.004161896628407378
1210 -0.0013035898837185848 0.002636134079397194 0.0028747369644462565
1233 -0.004366825339319522 0.03648282401167677 0.023902820477942753
1222 0.0028424978863021933 0.0005336399439245061 -0.019019957036267847
1221 0.020613053699746232 -0.011498826638961134 -0.015300268857286442
1215 -0.0014488274392634103 0.007135063505729649 -0.008902384528830694
1209 -0.004925741508404543 -0.00026150718494625554 0.001041255462818516
1208 0.00019750892611970476 0.0006361410498547743 -0.003535991804099039
1207 -0.008554672094553122 -0.0016726251419866944 0.0058574206938808125
1226 -0.003083385565400919 -0.0075629702552235355 0.003652093828831264
1214 -0.008450225710719872 -0.003994643805308713 -0.0010930486874775047
951 -0.004195293900209991 -0.002787939965503176 0.013481527377478016
949 0.01915478646588554 0.008631640616027912 -0.014387837405479826
637 0.003003820331864311 -3.718601694651802e-05 0.0005071638464669298
61 0.02811265382312968 -0.00025213688293940147 -0.02994383354077642
1930 -0.00125420579406261 -0.0026480839209829903 0.005372860172132374
1220 0.010578215463134581 -0.026484246212490715 0.013054047403850357
1212 -0.009571168818460972 -0.011093230340705558 -0.006724108374836031
1225 -0.02530935670475007 -0.015799282982180696 -0.017760018439276524
1228 0.030288363649282196 0.016374700574234898 -0.004181679697255536
51 -0.04771240038054954 -0.015612425400629584 0.01584649560041507
1600 0.00038827804062054744 0.0029618822799820526 0.0186354016447298
1599 0.0016109752213338542 0.000297675929443477 -0.006776018594683144
1213 -0.004643288890207954 0.00046513105723973094 0.007010117326922055
1227 0.004052968668373896 0.003938218758478691 -0.014296154149098779
1229 0.005344901460026425 -0.04189760593580318 -0.04181431479288025
1517 -0.015153596079975523 0.004176883010094363 -0.027904007003479142
1156 0.01759553802493808 0.014172134193488561 -0.02092337407435962
1155 0.005274302256889468 -0.0047882540190500875 -0.019148565950825123
1128 0.016025678182830776 -0.003114173749483468 -0.019689892480732978
1115 0.004221691749678644 0.003040120325669354 0.002107196850627198
1127 0.011700931930577406 -0.032994301697263945 -0.014481438493302908
1114 0.008946094992427822 -0.0007925456392836024 0.0038435672462403545
1113 -0.0033442225263495004 -0.004436494068832703 0.0013258496922820362
1125 -0.02307050256167027 0.006552170239864015 0.001706586353458088
1224 0.008203457530059636 0.001871843819972799 -0.0031282080446017823
1519 0.016770881735169243 -0.005682720468073971 -0.040021826996389405
1072 -0.0025742243132917206 0.02238164519746945 -0.008501439386622357
1058 -0.006206163593630467 -0.001623689543133793 0.004198787604382093
948 0.0018174951354620647 0.006389297966655071 0.015962420734913354
923 0.00044860206989554593 0.005323197723923364 0.005889302433196613
1067 0.006550356814366717 -0.015753438212715253 0.02693250442338872
1068 -0.0018034244031511506 -0.029385660455531454 0.01540469276567003
1055 -0.0002806223480536073 -0.001366957984554271 -0.0006401860521279187
1075 0.0033138073301038507 -0.016967629859606776 0.015689482116831823
1053 -0.00847623209085211 0.0028287229516971765 0.005158845683867417
1052 0.006003784738701427 0.005311331001248544 0.0029414053857949726
1051 0.004023204224985163 0.0022783957728836476 -0.0020373976935536874
1054 0.0026205935955527443 0.0007103935992348705 0.0009245865464048821
928 0.0013954154260564376 0.0029994159072423802 0.008232665838097779
947 -0.010799568260440375 -0.00579453739696528 -0.0020421672077317265
937 -0.013977815095229643 0.001058763215024253 0.03068814863959556
1078 2.0087891453597697e-06 -0.02180613323952524 0.006619374556387443
924 -0.0018411542181680578 0.0027303203137042753 -0.0022859068615264846
1060 0.0004117038427247486 -0.005138246371530399 -0.002344171714984311
1061 -0.012764024104446318 -0.0035697090275819583 -0.006517206216588291
939 0.009739359309981802 -0.013987007669834758 0.0003466280735763341
1079 0.012845060118466516 0.005198716425014512 -0.0014666235703203595
925 -0.004715822213859123 0.0036801360381062556 0.00845288752315224
1066 0.009793434723778452 -0.008422303050268875 -0.006706105202781824
758 -0.004611833384470078 -0.008554324281875268 0.012968096527401928
1065 0.023522029015568505 0.005708495059952734 -0.009272070238908981
897 0.008526267838319538 0.0030714856879252472 0.0006931380824221892
1616 -0.0016747786797072718 -0.015103135889548522 0.0003442955131404683
915 0.0037029492179853295 -0.019626178267217017 -0.0168113068226523
938 0.002900188816707592 -0.011314032246444039 0.002237951581648037
1914 -0.0009078384198594298 -0.00729769691035406 -0.009423154189694721
1913 -0.00389411629437504 -0.0019102781442742324 -0.007496286851574143
1921 0.006457860499534158 0.01589078260552659 0.014341118932613757
745 0.0025986062311014035 -0.01204741432435189 -0.030188123887345472
747 -0.0013372531728898878 -0.03127945527016268 0.025236120435675562
744 -0.013034193149708561 0.022683451889831445 -0.0019549038751283925
731 0.004483617494947018 0.0006885428625541688 -0.004489862403846874
701 0.0057875980284613415 0.002619790638584306 -0.004025155750368843
730 -0.0027106549378173713 -0.03101635378262338 -0.012277996834918347
702 -0.0012292279214428461 0.003407616619112382 0.00019628320617697448
703 -0.0024382257156275585 -0.0016846119609094097 -0.0012358293107537866
712 0.0017899527353793885 -0.003122105519102062 0.0011462149449765911
715 0.017226093370926624 -0.006175627016028248 -0.017034590894993876
711 0.0007439604393691105 -0.0005897113943659964 -0.003736696683947296
729 -0.0036930077399432086 0.02543653451832937 -0.02709413919062035
716 -0.01215304669178308 0.0038199481014664395 -0.0023207402853775427
733 0.0060768120734273024 0.0002762258840067538 -0.005562917233931513
734 -0.00024290470788636918 0.004881176207013483 -0.004688040457275492
743 -0.012127210993657614 0.010834343715212675 0.00495241535755547
732 -0.0027844972786410433 0.005209703084657911 -0.008810420317561466
748 0.000924102093355413 -0.006519491821512001 0.001920223825806926
735 -0.00016038809954482233 0.002105139615997368 -0.002040568314504897
736 0.006481027149702462 0.0013995953291197213 -0.003685123400565467
742 -0.004139711135929214 0.002915445593100139 0.002016148161312291
1469 -0.008403149221899312 0.0016123486254231167 0.0007368194557833095
650 0.0016548635033366325 0.009097998294316153 0.002012341963625468
1230 0.016185217951434527 0.02191030979480404 -0.01189105195466519
714 0.0029673174215507797 -0.004511233021919905 0.019464082187418637
652 0.01209212631631538 0.018708105069733777 -0.006074997245014035
1484 -0.022290197766393696 0.027973197298151172 0.021491088787447106
700 -0.0002740623168169127 0.00028273327812406736 -0.0019436866726085355
1467 -0.004191420109439167 0.0015360718515403063 0.004332210246071829
684 0.012258887366490787 -0.025620587190888562 0.005265996999773542
950 -0.0025431045378258165 -0.0037779824281012346 -0.006521488974668524
713 -0.011161834677567525 -0.024658057052155076 -0.0023113045408360137
670 -0.009522997197783385 0.00016637956455864427 0.0024557543333841533
671 0.0008642044224617199 0.010183501896506849 -0.0027722425272710986
669 -0.00026811594718143645 0.0053336127755799064 -0.006041729498024032
638 0.0010042488345017703 0.004246399510272836 0.002347474064189489
683 -0.018276257751681624 0.0037506133944564513 0.0036826505098044053
682 0.002568747291492358 -0.0028182953886396475 -0.027106484938159287
653 -0.029352321562623632 0.005749103599003087 0.027324546708647472
1455 0.007543013941396492 0.009145421469953837 -0.010984634086991402
681 0.0018034690417375193 -0.0023276076958062076 0.008087538990091134
699 -0.009064271739760994 -0.0033888120216713146 0.008381870416701269
1486 -0.011643767122733203 -0.021294001475554682 0.027143256099235555
1630 0.009219297625866948 -0.009131582829137713 -0.019465852445081356
1479 -0.008394377967684247 -0.03735375246937069 0.006528184942723188
1232 -0.0019771434206098037 0.03300391530567405 -0.0012858219969079326
1478 -0.01420259961119848 -0.030341687321412215 -0.011838734621960013
1518 -0.01958887592878285 0.023200122855606527 -0.020980815627401197
1514 0.011497167943296737 -0.012997243330864756 -0.0015683685822201483
1629 0.005340864296283642 -0.004511008745339949 0.003702240281408136
1516 0.003377263352153743 -0.013385613703147137 0.02862698785217948
1501 0.0032565341117071116 -0.0009539706348441734 0.0018320790079327306
1466 -0.006108368643450727 -0.0005513479347284707 0.0020344983705708076
1477 -0.007824276308954251 -0.0029644064638899726 0.018841775049048097
1509 0.008101804017685187 0.02287559006558459 0.019094686027594295
1500 0.001959362391919904 -0.00033783406364367504 -0.0006908701881537392
1511 0.002602338224866336 -0.005195803363393785 -0.02525110096859495
1464 -0.0039852809018535995 0.0007834485432191329 0.0011796417470173195
1465 -0.0005493628961151728 0.005735763824731522 0.002760182567060761
1515 0.014995752245027751 0.015245424481028206 -0.02343562953600695
1512 -0.014077459703159883 0.004398098265851915 0.026465666740622604
1498 0.0018700486202362164 -0.00396008885261192 -0.004230823724695433
1510 0.020057828919459376 -0.015251649443175716 0.014111825703100942
1476 0.019854621718317696 -0.004846178387427229 0.0074312942945243725
1499 -0.0036872550342207703 0.004005732174929825 -0.005955170370781879
1513 0.018815990184608927 -0.023424701024967295 0.0031195718454684156
1497 -0.005402100197155465 -0.0010984622323097352 0.006161014041727256
1520 -0.005395711767311598 0.006351895202248739 0.015280640034971309
1502 -0.0005160833051274141 -0.0009620785257590175 0.0008964351561063016
1496 0.004669811869259259 0.004514066748765116 -0.0017658533163311177
1493 -0.010025619605516792 0.01517732246282966 -0.007599137828029566
1463 0.00021205983466547607 -0.005346734691469871 0.003947684021086488
1489 0.01196121546149726 0.014669860701866771 0.019406781941568654
1471 -0.0013319143370989345 0.0007141469797978224 0.002186518307265672
1614 0.008961163086844628 -0.006673519306315327 -0.005951086830566818
757 -0.011069019502689976 -0.023922227333936338 0.026784609586653695
1495 -0.003980553898271953 -0.0013304207961785496 -0.0013032401160006158
1494 0.002170092921960069 0.002087712070609117 0.0009685475936908332
1508 0.028343926434301458 -0.0018908817395692985 -0.007865938086497772
1613 -0.002871489048769721 -0.0011903984164616682 -0.006639872414804288
754 -0.0073036804004254115 -0.04591651603814303 -0.0032135753004484233
1073 -0.004448341678749227 0.03011257884315644 -0.002023710304103351
815 0.007064999289814647 -0.02705689325120718 -0.00029311085240169357
1507 0.01434260395497078 0.010373696763455478 -0.013530681556163188
740 0.00510216945123637 0.0007810264177050098 0.003300319103284223
813 0.016854987245014427 -0.01887358180422475 -0.0018914904706522817
801 -0.001640544969373856 -0.00010666292770663791 -0.00016194674264682248
1626 -0.0016558036486673724 0.005051808560080115 -0.005339216337444691
751 -0.014272031840961983 0.00012171016752017115 0.024392048234919913
741 0.0004448286708452022 -0.011557071280436709 -0.00794118791093868
753 0.010324036147341153 0.00859364262033454 -0.009928175013524151
738 0.0008783906826301747 -0.007775774293136538 0.0009249154632796999
814 -0.004307722345645397 0.0021039596359552805 -0.011189649092337883
739 0.000911456924549018 -0.0016302387764029688 -0.002534028971186514
752 0.014529639521608767 0.00489739026561524 -0.008620738877135147
1625 0.0033000609445194514 0.005563956746562743 0.0011447898677763248
749 0.0024725201568616506 -0.011373733551272825 0.01142752773486682
1062 -0.03160201516755003 -0.04096007511251622 0.020010082655766717
821 0.0029885267578080277 -0.007441555528724417 -0.0033222340799848567
755 0.0485161140593959 0.019272787676435147 0.015982437292761095
759 0.005879146821346221 -0.042666887252669795 -0.01346902163871809
756 -0.02780905357740661 0.0003935385351537236 -0.007127496909625329
737 0.001560776541921729 -0.0034928942329919706 -0.0020307065509283795
750 -0.0379077465929511 -0.004561186217610662 -0.004261760912464087
760 -0.0003059620240675911 -0.005952762263019932 0.008694842070756255
794 -0.003432226920424248 0.0008314921884688918 0.008910369631903978
795 0.0011922957631545054 0.007888397945281019 0.005035457152612363
1314 0.004796087868372773 0.0014367773815739374 -0.0003555908377137912
1328 -0.028010920778114273 0.0033863640100552255 0.02106246798040052
776 0.013804404315667318 -0.0019610148552742846 0.013053707020621778
808 -0.005426827681652055 0.0068361410541418225 0.0073906988156100355
762 0.002061814667270409 0.00345308214210037 -0.009624477491491774
763 -0.003283011982399564 0.01039676966538714 -0.0062577941606143115
777 -0.005879392454848562 0.005845141044471992 0.01670834287690944
778 0.005261944476306983 -0.008316332809925888 -0.00022470110515479777
764 0.005798722572672507 0.0011599764625297518 0.004645782673854183
765 0.0011929439373135836 -0.0038080719486705125 -0.0071813830878141955
746 -0.009267917216630455 -0.0023001048007792995 0.024526887127105733
779 -0.030587634087313947 0.0005845045562836293 -0.02210040731973716
766 -0.005422917572939183 -0.007794060088512051 0.0018160643251393619
767 -0.00045938284837808554 0.001329440396710631 0.005503719182726569
773 0.0020520263136810774 0.0009150830310619843 -0.0009579072860571256
774 0.0018167078881642556 -0.0038454908351819713 0.006278036707965652
791 -0.038731661983165876 0.009667135652903976 -0.011744032256971279
761 0.01849228690970815 -0.012237683528919211 -0.009892544847154709
780 -0.0047932321410369206 -0.0019206434815461123 -0.010350378839573687
792 -0.02203585684789043 0.014135463532100153 -0.006701221583439493
768 0.002887797527906666 0.0012693084461788003 -0.003486585892257798
781 -0.001974267283340539 -0.007296822043778466 -0.00040521493111415663
823 -0.03546737791999822 -0.016705589941420823 0.008424286770366475
868 0.0026511151548740263 -0.019941419539384386 0.026626684088273275
691 0.030018681754503045 0.002045316062759101 -0.0033907795974139074
1470 -0.0016006831811209436 -0.003944201582836152 -0.0009446630522453105
789 -0.010924771492269815 0.018987981280777017 -0.01735255665855836
1791 0.0006640215146577162 -0.0003959054179473564 0.001226294627675699
1641 -0.002102548909983519 -0.00016588046105816642 -0.002024853276339176
1427 -0.015363153792945849 0.0006576430046697808 0.010224465102047317
1315 -0.0005332513531013121 -0.0012940729736302954 -0.0009810578034392355
1642 0.01399430913083105 0.005004253791745081 -0.01571242032253564
1332 0.009641134053457873 0.02027619423700003 -0.0035595570557348044
1488 0.019844480400567095 0.00031258300062039746 -0.016595811727661343
694 0.019693864273009686 -0.014009777571784537 0.006382490554904714
1827 0.019333106453948524 -0.0010858857983195955 -0.0007720903152384386
1657 -0.0010844337671139866 0.0012200581213055528 0.0011388894314580658
680 0.0001611710679278227 0.0009330468272213325 0.0012276851283513053
1487 -0.0009734137732667931 0.0026371005579842403 0.009111734747703038
698 0.009055541046759798 0.01594577369432106 -0.006309290425597335
1826 0.0032806892679645983 -0.0019809630328978573 0.0018192859778091105
1428 -0.022927112780293434 -0.008639358765167457 -0.014848044923171088
1828 0.01328601715060522 0.0034954309588599948 -0.004870321317909174
1458 0.030156720868487485 -0.006260365731757199 -0.010525885490787937
1440 0.0005391189537502766 -0.006356928429693768 0.0039439670535816795
1397 -0.008925696707373533 -0.008925324913165403 -0.004657821891251137
1379 -0.0015175920766555783 0.002565270783121849 0.0014262163617133905
1658 0.0030718631392919393 -0.01611555153602809 0.008946805371691574
693 -0.02211816755909996 0.001773041903939083 0.012755996323550588
678 -0.0024383122144776433 -0.0019197522307000548 -0.0011804006684943446
101 0.004041159649928802 0.0017906465009728393 -0.003968207148930976
105 0.005005360180199416 0.00380045150444999 0.004097781799814074
1409 -0.0028797812947680785 -0.0009091790972188899 -0.006198486360845346
114 0.002426336605856395 -0.008722631006853346 0.010255824743725422
121 0.007365273166101642 0.04214878064256474 0.019458497849108473
1410 0.0020449560193025016 0.002622766475704476 -0.007717168197856535
1459 -0.021246980201018333 0.01861375264711694 -0.01395012140466382
1441 0.008594110857447266 -0.003549526854879634 -0.0013157424193034745
1413 0.02328390034616653 -0.0033571999153799055 0.01650428817791528
113 0.015374870909775962 0.0014701963339655807 0.007054120029715677
123 -0.019921468892889472 0.002849740505349184 -0.01566075339573882
1401 0.00370140783445477 -0.003760321179638748 -6.150778405161335e-05
1400 0.002449311938786485 0.005095999194131584 0.0020779658420725213
1399 0.00046603032604700416 0.002510487281632359 0.003800531295869671
1431 0.002675076528586056 0.009654486686618741 0.005182516308830969
1490 -0.01702698869587168 0.026692262865436293 -0.012444704612403277
1472 0.005191628629190971 0.0051353181309714445 -0.0066678445127766675
1444 -0.01509917263533351 0.019103080295816144 -0.021073746606459623
1430 -0.0024056574482390412 0.003504618449025189 0.0027406914246397656
1429 0.006149284707608215 -0.004319619253374037 -0.007200461369922243
1443 -0.0317619178136145 -0.001803816009988521 -0.03887238485612966
1473 0.01572189418618045 0.010383796871380826 -0.00221918496564635
1462 -0.005812803567046817 -0.0007364277567341185 0.005374913287587059
1442 -0.017729785229968605 -0.0052188686768352855 0.009782521520124083
1460 -0.006488133008835429 0.005019769031036869 -0.00035795791705008393
1461 -0.00856406027908721 -0.007125619093204009 -0.0012017960731511518
1474 0.01753255590706871 0.01991793223363774 0.005423341091772072
1475 0.012530892129877883 -0.02805027003977265 0.009135788072981614
115 -0.004867976682606411 0.02218582042796811 0.017168769111113456
811 0.02155624460560303 0.03215930964117135 -0.008032595239828664
820 0.008930937098949526 -0.009966161187185187 -0.01278506924762987
803 0.004593932800384969 0.0052684595146616255 0.002588164971853786
804 -0.0034952815468502576 0.0025377326915816956 0.0015506475872919135
798 0.000951092599845831 -0.003880614309027767 -0.012027467223070498
1506 -0.005605931609292124 0.02522155167960716 0.0034255095152894584
124 0.0066194645906911325 0.021431934712625045 -0.024450979503004924
1606 -0.01073678978360849 -0.0037723361041732423 -0.010887850513337044
822 0.01852176551163743 0.006106259091409973 0.0014251125487566192
1605 -0.00205163437364605 -0.00016013078194989977 -0.0035399909515236535
799 0.0018089711507252482 0.005829301792394396 0.00424267762547765
812 0.010355385668531659 -0.001662205327715149 0.0011471553378130635
818 -0.028650455468813084 0.019074801154967614 0.00454595721451441
1548 0.014085982316986137 0.027511267081325168 0.004301155340787004
1549 0.013835474971043695 0.012368754182156012 0.006810317942066292
816 -0.00646455062699636 0.0035075619237537768 0.02336236415146154
802 -0.007039056932266634 0.002695186065736537 -0.00047775028481225726
800 0.005954429975609001 -0.006447383753986381 0.002699951513391738
817 0.01366853961035239 0.009469120252769593 0.008701017706801489
1532 0.0061434718293232075 0.00548696321885773 0.002795536187672612
1550 0.005736233086187255 -0.01138378014831039 -0.0008043417696183662
819 0.014151720174414777 -0.005598218605844476 -0.0030642566109075945
1551 0.004918850546475063 -0.00454975787532219 -0.0007837508818648121
1540 -0.005530192356179917 -0.006871193119841602 -0.024350444623217914
1528 0.002178295719609679 -0.0049114408041888175 -0.0029426775304717137
1529 -0.0035900843750182173 -0.0022551052782483327 0.0014878736550928348
1545 -0.009918560284753953 -0.0010926500801020232 -0.0010728690863673126
805 -0.009416745178132846 0.006369941495625146 -0.0032244623886596145
1603 -0.000406507022730107 -0.002502152644946491 -0.0013223702007793103
1604 -0.027873058057485016 -0.008111598299759656 0.0063976885258626645
1267 0.026551717744691457 0.015246805942178273 -0.00798503046837592
786 -0.002680099210385866 0.004615884367758318 0.01333076681890563
884 0.008238122672106512 0.010860880802275333 0.018207728706119905
855 -0.0014265077925444537 0.00016227730262477702 0.006281508140317128
769 -0.0015413130807326644 -6.582563729745458e-05 -0.006638646228724767
1330 0.017020022018602955 -0.021366367746879125 -0.026889984856491467
869 -0.03354960331727805 0.00020316937188663082 0.013313277365826465
785 -0.025585103577793675 -0.026030015764663558 0.007140823163236507
1331 0.010769986373182392 0.012172969372944032 -0.015903176478317526
790 -0.010565842769312505 -0.007704154035773446 0.0030443964342869783
772 -0.00029375548513227006 -0.0036324443755070706 -0.007918254479347986
1382 0.033479358906177474 -0.011155462597435118 0.010269067957441834
1369 0.005451274537918043 -0.00448512817498601 0.00010972112769773347
1411 -0.016544124698896177 0.011638824046729885 -0.006106858837374604
1662 -0.017945208523315274 -0.0008407382578318634 0.01565411056675789
1414 -0.011860198931440453 -0.006402467473471212 0.0034615686996987277
1398 0.011903904629427585 5.4909539600494176e-05 -0.0003285555201454501
1542 -0.03392382795752325 -0.016161137811057893 -0.0055482773073874565
1546 -0.021748221470584576 0.010418627981834313 0.01932046505161843
1543 -0.01254261553613149 0.004679078866713203 0.0012673469593551042
1530 -0.005917569227336383 -8.99908406801135e-05 -0.0024142989424909837
1531 -0.0048836106119529155 -0.010076268085924515 -0.002148504147496553
885 -0.011519675706798661 0.01931215580859687 -0.015000240734548018
883 -0.0017267737653234568 -0.03383385738787291 0.011718200974444596
1300 -0.02314745786023925 -0.045235449259045935 0.00147688097404332
1293 -0.02288463136647709 0.01295574614684384 0.029505099848589653
865 -0.004191679471954208 -0.011816915214425709 0.004808758169538021
881 0.01657342868884421 0.008954176331128497 0.024838880700836643
1355 0.007045047311911768 0.0032616267482550674 -0.0015020027352486945
1674 -0.004191305079832631 -0.007702492964354956 0.00874591591839465
1673 -0.005608459995225019 -0.001699654342529144 -0.0011720823975142152
1356 -0.02644345189930852 0.007815639854267413 -0.02309425047244835
590 0.02088205086562876 0.007490491776997066 -0.01638765565146795
473 0.020666226393765565 0.014764757134707 0.026885786153135447
1298 -0.005044025509823325 0.008529488823088495 0.012236169951154988
875 -0.010794666863470408 0.0021696170117770142 0.01967867020416972
863 -0.0021471432879966597 -0.001967042678035755 0.0010788711911410207
876 0.010758899911535147 0.016600849788412846 -0.028156529804954165
862 0.0035835845503632284 -0.0037094252488635553 -0.0007307185802138014
882 -0.025605646292278857 -0.005623277457429764 -0.026789094676187765
861 0.004609956965544927 -2.7874703245283033e-05 -0.0026898648673577444
877 0.013603338679688045 0.016230473051906728 0.0013332825393643812
1663 0.0010213763264271686 -0.0006216940586250126 -0.0025537399495762767
864 0.0010164569082508322 0.0021435125522813007 -0.006302752919207079
874 0.015898419155312475 -0.0026607279498183927 0.013159300952078259
1279 0.004295056550512779 0.0027301172769252213 -0.0047492234907128015
878 -0.023026526882795346 0.005348141579147674 0.013653143406996904
466 -0.0029121859909638915 -0.010067844164123879 -0.015408856925224236
1292 -0.01184654566792173 -0.00517447542481144 -0.002724405746718303
1299 -0.006413998500488985 -0.024158612576206683 -0.03590143366876195
783 -0.0007830531568466793 0.0007943202246490269 -0.0023900308244211247
591 0.03004718268134434 0.009283909528040644 0.012976561144643173
462 0.0058277569259859085 -0.004522051005699047 0.027500554130376696
1908 0.01591413455113193 -0.019661692511167856 -0.0067593381926080165
1340 -0.0018346227306425507 -0.0006684784713152596 0.0011568866385169268
1358 -0.017095528863079277 0.007472166997262515 -0.00624771072323153
1344 -0.006288690779279226 0.0019369059487354906 -0.001708173344934294
1357 0.001270882126975408 -0.024647251143643086 0.002212589497053862
1907 0.0007953858812006057 0.0022614759339181522 -0.0012760393553343948
1370 -0.004728001392942777 0.0010114166538635035 0.00162583227329942
1354 -0.0022039006522856838 0.015997174644205407 -0.019183723357953455
1347 0.0066585992272321474 0.00035185981414093397 -0.001699246470981217
1342 0.0025989498142324806 0.0016740184137479634 0.008725728743551117
1341 -0.0019379013278843092 -0.00020173794993231175 0.008113575744460906
1343 -0.0004447996757191115 -0.0012264962819412656 0.00349134944355239
1365 -0.006296564656339275 0.005942876545508785 0.00584566432746395
1219 0.002110019448140272 -0.004461829460167202 -0.006784989369602442
1346 0.005015331433534199 -0.004747293672130037 -0.00124295444264927
1362 0.012382141178922541 -0.009520458231606771 0.009678808384700819
1364 -0.01615425656897193 -0.0027793111838654728 -0.018714227605172457
1363 -0.0073650975611808354 0.02224796006879722 -0.0018799640389114691
1384 -0.0017213057116262948 -0.0015972534561039518 -0.01646205305452413
1727 0.0004585650461324216 0.002020534002355878 0.0002854395750426855
468 -0.01700511744788755 0.018409198450239157 0.008793267399017906
1251 0.018077623553640728 -0.001787596066545532 0.02952522373662076
1728 0.00376510206002049 0.0012365578948867577 0.018484483599443425
1383 0.006657782298539912 0.01587080469936713 0.0050337384966239905
1574 0.0025809360337149772 0.018485812022703822 0.005529078561293017
1577 -0.00639731535703416 -0.007293784278711179 0.02153914492636482
1248 -0.01937777473436213 0.0021783045560490413 -0.03239315234575767
1266 0.00498197767137273 0.0006068264738916011 0.0038890636360948885
1235 -6.46560104257997e-05 -0.00829998174969889 0.0016254700952320895
1272 -0.006295889252813078 0.010920926860092115 0.020208848087021326
1561 0.0007700685775531881 -0.002965648113933982 0.005734839436931489
1236 0.0016117293677570031 -0.009841335852573374 0.0030513366674180613
1270 -0.010431727592450516 8.895044711501192e-05 0.0026361154995864526
1237 -0.005893579159627792 0.00015803289548895364 0.0030265973248302814
1247 0.0005555310932735097 -0.004040890600992371 -0.00010162020243763819
1250 -0.006241251321656537 0.0013913876892731262 0.0031440923704775157
1562 -0.0027026340842596437 -0.004736826267408821 -0.000568591194516235
1575 -0.010122703602590386 -0.014820020299544243 -0.022591381201977526
1578 0.01668757293489675 -0.0015990897968782155 0.0009110154346859357
1271 0.0021571654224922534 -0.030732298831487113 0.018038067337070585
503 0.009510857670615994 0.014085765563152405 -0.0018408710911025973
502 0.024053527627815992 -0.008317636685857612 -0.0002314587007529567
485 0.011945891146855193 -0.004941371058007869 0.004127950259058697
501 -0.006696384427914806 0.003665733074581626 0.011748290650193954
1635 0.005955904186497016 -0.0002862178666152163 0.0015834202856255884
1636 -0.0074816704522860464 -0.011082337755118757 0.013127699279268556
1573 0.003134357453452995 0.03622704739914541 -0.006840079951283526
1776 -0.01714859822849094 -0.03338607867098025 0.012201009538704833
494 -0.00504371183888217 0.014876644890652584 -0.008715339162951174
1249 -0.054190912420011284 0.03139644206804608 0.0018581571808335903
1252 6.789939875111033e-05 0.020463763024366446 0.0028608968214402473
1238 0.0038982865630079002 -0.005772871295317333 -0.0054928823232143495
927 0.00020512451147149325 0.004310410387478557 0.000438037181360451
1560 0.0015152726889878705 -0.005487639733480774 0.002876954633620103
497 -0.006200487445194031 0.021978333607392646 -0.011181243927047595
946 0.0008251780708866058 0.0011507434549576964 -0.002207494228760016
1582 -0.0029817432678087103 -0.002063084946670578 -0.007879434478891393
483 -0.004489790240908186 0.005361317443633467 0.005746036938662884
1611 0.003766567842072245 0.0037707244171299127 -0.0048387085939630954
1559 -0.0032971830078609354 -0.005684507505573929 0.0020223510245197447
496 -0.013045052840395904 0.010602303441702448 0.011487287361170027
1563 -0.003076843299411419 -0.0015369970082947358 -0.007027181742917486
1580 -0.0012893933777645345 -0.018320272635997687 0.003338374417357921
1579 -0.011111967849453317 -0.010370876529264944 0.002852475585103823
1572 0.01321640627710013 -0.0070951838572445485 0.019785658918802046
439 0.00061510175394479 -0.004249942472817463 0.008206285542102417
440 -0.0063090984856059 0.019645143656852403 0.009931825259181825
441 0.0037529503112595686 -0.010213892105549096 -0.03490394815842272
423 0.006234005253462154 0.000586403318295305 -0.001949465242409827
504 0.025914887012819476 0.006827801942971637 -0.01062635673801011
437 0.018601400101319242 -0.010737876533594622 -0.00818271627021768
435 0.0067015056996581465 0.010853526856053883 -0.0022420090813826165
432 0.014002572713724895 0.00963940626494777 -0.010578956622530902
421 2.316592300005485e-05 0.007452317158274792 0.0026413749051628116
434 -0.014761210383450508 -0.03150976939743975 -0.0017393007421300033
419 -0.004812440653072726 0.005478063707821486 0.007262476717998342
420 0.0033418157781942215 0.0006068583447332094 -0.0017488659753862365
438 0.019268427484255973 -0.014091617435934393 -0.009937582122548774
422 -0.005346878664680065 0.004116847654121322 0.004255073885045789
436 -0.006026280790128736 -0.010620559861477164 0.0065414294570542795
418 -0.002813934000994933 -0.009979977024959735 -0.004469775036626547
431 -0.023735698759048914 0.013238537176577282 -0.04621606513326501
430 0.0005601276632957634 0.017286301730665803 -0.0003147804166118362
1612 0.005679807733160399 -0.00741274628593815 0.021267209830214046
433 0.019512788699818994 0.001634510251055587 0.00021861934942437526
944 0.013652196629059784 0.008799187419013548 -0.0303687110764179
424 0.0038410958947179357 -0.0036661180822532393 -0.00406678196588575
442 -0.007767154581522537 0.003657715555904314 0.005661199654933227
1627 -0.006792209009211471 -0.0038505605596784267 0.003387995624854345
873 -0.004271106389913416 -0.01699309779624964 -0.0044314025580281975
1295 -0.019952280636232517 -0.018049892369408092 0.005733136272242188
1664 -0.004028137766425313 -0.002138135009558238 -0.003018906098564859
1283 -0.006128153255851865 -0.004736920421259076 0.0025356625062702533
1302 -0.010330917956959377 0.013623250172521048 -0.03075994153584061
1282 0.004437113584121783 -0.004155321772135779 0.0005524157931055027
1598 0.03307027876948339 -0.0006220720266602257 0.019096376241788244
724 -0.012788368199816753 0.0036479129853585522 0.009972677950434987
1281 0.0029107322042438476 -0.005751524443747222 -0.0007898681375251179
1280 -0.007073826729302915 -0.004923530451047735 -0.00280280425003581
1294 -0.005143064979043254 -0.016768460205217443 -0.02249017582612952
723 0.00038102933704937047 0.0015408351328524126 -0.006220649785355816
1296 0.013761747025790506 0.007493633037243297 0.001314536218203579
1804 -0.017344252729095407 -0.006900268087049007 0.00957593418286482
1656 0.01769222831772098 0.004033762743254861 0.010201037107267814
1655 -0.0031380226306265704 0.003971983116286301 -0.006237966040737089
1803 -0.02057345168964376 -0.003227943864297339 -0.004034411577975252
1802 -0.0017098308444842142 0.005620510088924364 -0.0016980541224842285
1046 -0.016909524218901344 0.014567561178699368 -0.003383697700921243
666 -0.00021062869539468468 0.000556847518058614 -0.0023818382052467825
1297 -0.0024070289154959654 0.028674786011399597 -0.04275192574999056
1036 -0.002560708953124336 0.010812050612390893 0.005686263223998483
1042 -0.002167605000270824 -0.014138720743456033 -0.012492828669258342
1047 0.01447479665457824 0.00022804876595622516 -0.02715391234550902
1025 -0.001849199718599718 0.004948947328924615 -0.0009050806146792538
1024 0.004379015135278744 0.0013866738679185202 -0.003294137624975103
1027 -0.003376744017201408 -0.0006208828666395672 0.0020725803768169328
1043 -0.01076969093277606 -0.015574114470555829 -0.01932513317691962
1029 -0.0054087865372712245 -0.001680414411218737 0.003537577509460837
1048 -0.00994411675883127 -0.007155056451043946 -0.007072814795764424
709 0.004010143673376339 -0.002383383945980778 0.0025508919135384155
721 -0.010930712407991372 -0.009855620312186321 -0.003687483428099162
665 0.025116139673042437 -0.00692365519196191 0.0054217906801704895
1291 -0.0007563050246097021 -0.029490916557837952 -0.014218695048447333
1216 1.99400426817383e-05 0.003037767664438466 0.003500174919137991
1206 0.0019418753515080874 0.0018566873332706332 0.003766464544989303
649 -0.006134218513760121 -0.005377123239149302 -0.004744449133784963
1909 -0.0245051027790921 -0.002047366565714437 -0.0011324368003132975
647 -0.0032053299646130316 -0.0052678529645045396 -0.0030768368306919357
1872 -0.0008635894861223348 -0.021383000612928738 0.006147877451796522
667 -0.034177980758810476 -0.021747433999858838 -0.01578629160765754
648 0.004664288521181172 -0.010230221472557048 -0.005263634046182957
1234 -0.016630966654406283 -0.017058058510312477 0.0061013348143099545
1205 -0.0011913685583122798 0.003198377057418977 0.008057419485854915
644 0.0012099007394328432 0.013178009360882379 0.008593711464393234
657 -0.0053894271966515965 -0.02376141205903177 0.006145982547521755
1873 0.015467170343590032 -0.012016572746236933 0.02220968781876714
1871 0.006696769167436714 0.0015133368603430452 0.0028083088920994592
642 -0.004905271824832944 -0.0010176939811740086 -0.005254701054364597
643 -0.0008519983142093736 0.003799589005538796 -0.005827429068583895
1188 -0.0036109404667911335 0.032283267080826065 -0.014616514867059326
1204 0.0015884157049414584 -0.003882496850985527 0.00654372565672705
1217 0.025118473958951976 -0.016933457719917912 -0.003806129399996356
656 -0.01204910863255153 -0.008610979008621103 0.003691455027510666
1185 -0.004358014799250142 -0.0009195788948383009 0.005985600836913274
1203 0.030285808512976853 0.005071748387643817 0.005202674142421087
1174 0.0018239780764661036 0.005670033669941285 0.0015524808260441812
1218 -0.03350159862377306 0.000377448493637619 0.038435889863850506
1175 -0.0018095709805294633 -0.01082845043902269 0.0021926873649200265
1176 0.004510029768801022 -6.028342143375212e-05 0.003895164783521734
1177 0.0018805727357462815 -0.004246705163804007 0.004467147716355788
1189 0.0020198594835632235 -0.009310993130696365 -0.01193850293250204
1123 -0.000560997779002073 -0.0021963480935020692 0.0007412214775266004
1142 0.002235294765755611 -0.0007584649651449654 -0.002781490801002164
1111 0.00729712353261245 -0.005571446968392349 0.0002559646447537883
1157 0.0006850033238353255 -0.015502630154875333 -0.019035370369606217
1112 -0.0006763283521905855 0.0006830923680448939 0.0024976758201186496
1173 0.002524845011017815 -0.006658207506203958 -0.00016596970755450036
1124 -0.021245531012606848 -0.026605293792430464 -0.004613319875965603
1143 0.005738913160780718 -0.007544337247468713 -0.0029082829042140434
1141 -0.009138905757913806 0.004112199172528143 -0.0010230495641442938
1186 -0.028666949843862574 -0.0030313123771014043 -0.009310689695092229
1144 -0.002282411375755521 -0.004539948881611266 0.0043281489319490826
1187 -0.019947427821174892 0.015024160005422083 -0.010672048561786805
1126 -0.010587918798593117 0.0036912379936459463 0.01793181966137543
1262 0.02258946411765018 0.04265696094108426 -0.0021544093392430914
1172 0.006721321279071438 -0.01944845452378465 0.021005293878788897
1154 -0.0017122313648661653 0.0019735445814661906 -0.0011909593415899717
1240 -0.0041286737210945255 0.0005244259308182331 0.00651169019725965
1239 0.0030887384409440766 0.004998731119317364 0.010925474020431111
1253 0.02028438072391458 0.021725759147087815 0.007049618125990217
936 0.02162969221154523 -0.021988290318530335 0.02024996874609322
1096 -0.003947049627693044 0.008299848285841899 0.0008606687483523153
1083 -0.0010232937782637774 -0.0068571835388203575 -0.0035059974759572275
1097 0.01737406243698915 -0.02265392893036194 -0.02373905223115806
1084 -0.006157527415916571 0.004142839583960478 0.006811627109727287
1050 0.005398940389120033 0.006478365770083844 -0.0004517458003346921
941 -0.004346528312157445 0.008757769899839719 -0.017629593976742613
1081 -0.0023360159103223213 0.004562140848880505 2.7987043478615722e-05
1082 -0.0007908097122293474 -0.0038237440880530566 -0.001189207943229053
1095 -0.012250182845233694 -0.01630663550993792 -0.0020262432080646892
1085 0.00402972739347958 -0.008831443821804175 0.010186663991017345
1064 0.006256794950700516 0.0008542699660011331 -0.012498782210850861
1092 0.0044319305289501195 0.01251400904801903 -0.002003452451461683
926 0.003414519056889136 0.002854004596064918 0.0012717693005604134
1080 0.0068310036180915246 -0.007442260159254621 0.006781256918363415
1091 0.003961521234175807 -0.0008306581006620727 -0.00024888184984113605
942 -0.004691677204421648 -0.03168592688851183 -0.003303925639242648
1109 -0.012858300229973724 -0.0008810756279372396 -0.00988593996035888
1110 0.005240624203825301 -0.02225204814801286 0.010410571302515917
1101 0.013516029477823028 0.010408977694671835 0.009289672343292275
1021 0.0025734659904592125 0.004012235220649029 0.001040027195827212
1035 0.02919937732728516 -0.004459777436082336 -0.014178215451956827
1020 0.00043188449453496176 0.0005030096393294636 0.0008959895363870322
1022 0.0013577492373375026 -0.00015955867270369355 0.002782932394619402
943 0.01717629590922044 0.007636988073816001 -0.013489485380571592
1030 -0.003758959270463317 0.003599021586261743 -0.009331254770355978
1041 0.00837078507370544 0.01963545688102824 0.003941097807524986
1023 0.0031146715923773037 -0.002362057992012027 0.003663914379195473
725 0.025992803373334518 0.020378900881203144 0.0003313338847378935
704 0.002999595241727983 0.0019838768871190864 -0.001330551774861301
705 -0.002068784608086672 -0.0011906424588584677 -0.002500526343690867
719 0.006631891825092107 0.007238670030486974 -0.007327464361610001
717 -0.012131982991167035 0.0021332332909485873 0.008991895656902189
706 -0.0029158762178849045 -0.01028589536148611 0.008708983415055025
728 0.005217859237064861 -0.0016523060341616953 0.016138305931093694
707 0.004211878470856524 0.0022975542857679404 0.008406672190186634
710 0.005979282679827759 0.0020253988790461257 -0.004570321804385259
727 -0.0008395794177899399 0.0033170016886648374 0.013725910012309352
726 0.0006451728836608684 0.002453580788716059 0.004657265683992257
720 0.004460305261001782 -0.027847074792243236 0.023973937829604212
975 0.009359543133994078 0.010504542194025595 0.010288943039260165
973 0.0315174412823681 -0.0012843204274503456 0.006664684576115595
959 -0.0024417732697885075 -0.0022196967538455794 -0.0025958593618494504
708 0.0018911449069377974 -0.004185214090238929 -0.003391219783975167
958 0.004473283964960488 0.0013345904773271527 -0.002650932797547219
718 -0.017059115809637333 0.015757537803117592 -0.007712469066415076
722 0.00015257059130084435 -0.02520604053833497 -0.0022239268303011757
957 0.0005732987803120211 -0.005990046025882279 0.004866850478924175
972 -0.010261727444412056 -0.0022261895635429744 -0.011498808047793069
1001 -0.0075898494921991695 -0.005149908250518576 -0.010422729912835401
960 0.0009031781843696769 0.00046010683573432463 -0.003406496779595691
961 -0.0058960597441812534 -0.0045554041541623356 0.006856473926563373
1002 -0.026471948044808763 -0.00024044662444767882 -0.015709729176965097
639 0.003064689458817623 0.009291675748569912 0.004185894590601699
641 -0.0012942279985270603 0.0015971112542618436 -0.004687553709292659
655 -0.00011368226032488159 -0.004304357140365044 0.014906084321568085
664 -0.005997802641815985 -0.01402250809784458 -0.033824027732667655
654 -0.018703089156811136 0.005252468822219293 -0.006408256320811254
672 -0.004412679288119188 0.008316341807018719 0.004594042700450355
640 -0.005528256577033098 -0.005756342625681001 0.006530979614366135
1830 -0.013259112358124011 -0.017642391935903525 -0.01896885903628959
685 0.006275664514535315 -0.019085463379773293 -0.0012336505611890512
1450 0.023119650333699712 0.028811707675054702 -0.016104839583638217
1618 -0.025700792765927193 0.02303886933926249 0.014817253074551187
1617 0.00012033088157969766 0.005206038135741272 0.003832893340637816
1436 -0.0016676074503661161 -0.009285415104092146 0.0005103021484876142
659 -0.013829448688508177 0.005459877186923812 -0.01342796157036506
1437 0.0006766005322016362 0.0031854244544019237 -0.004974109935651104
1451 0.014046779423657762 0.01848403276174228 0.0031549812039293914
645 0.0017346854390178142 0.0026000673729942732 0.0016841419650174309
660 0.00041948312970650233 0.0003124361937417197 -0.0012392526303044728
1768 0.007677382146410729 -0.008203951718604066 -0.02540701726591897
1449 -0.02766349086016337 0.02028070897634407 0.01273979124372828
1717 0.004414733338596284 0.0054873946144685755 -0.018030153404803666
1715 -0.004472105030354982 -0.0009911680828018667 -0.0003970157798479711
1716 -0.005305872777098491 -0.004263622805626911 0.006780877464549098
673 0.007433340846329093 -0.0029304786377822734 -5.9607803396550906e-05
686 -0.014672691976683248 0.013187705052502075 -0.00505298437073203
1453 -0.0014704968590635214 -0.0011396769539173852 -0.03134435901633822
1452 0.018506426903300694 -0.006001759219869778 0.015218822323669777
974 0.0011719613535083426 0.003365420818286546 -0.003152365976025256
1447 -0.004545412565464607 0.014520456057850312 0.027051059142477737
1190 0.013258461177347957 0.002390167391514445 -0.009033021601224038
1503 -0.007757780229515312 -0.00039567035095971657 0.004960895752159204
1153 0.0012314923700034602 -0.004586348812027503 -0.00453832237885668
1171 -0.009738010954917924 -0.010107928266394567 -0.005395960433243675
1438 -0.0015183858105302702 0.0005890847426931069 -0.0063402612130989385
1457 0.030689427650392044 0.0022230217613869183 0.020984104075781485
1439 0.001911234055101901 0.0037028312645025156 -0.005494685881943744
1456 -0.010319630727155304 -0.005327325679135856 -0.017527048914611508
1158 0.01121053650952614 -0.0011472781404911392 0.015901871117827895
1521 -0.020328322884542113 -0.00269193669272979 -0.024623513539387066
1454 -0.005783283284644694 0.0322511493956181 -0.009072523103630077
1167 -0.012127057491120433 0.0006560265122154606 -0.019062534756839927
1159 -0.0030757592189951184 -0.013704808889316487 -0.01156515718819158
1145 0.00573135661415958 -0.00837113431742278 0.002481267706282244
1166 0.0030915393974222157 0.004864780836649897 0.0011129984737508953
1151 0.0023214884335503996 -0.0011774231911884942 0.003360927841664641
1146 0.0005864370742164319 0.0069214207014524545 0.006647017239475341
1149 -0.007214440041037787 -0.005291531381965871 -0.004242084601181425
1147 -0.0082293509869665 0.0006835376069181727 0.0021081657586262707
1164 -0.004783713779969772 -0.006222444066701733 -0.01856450484559798
1161 -0.01435135941532001 0.018819146393658108 0.0019652751005738386
1148 0.005915796048709504 0.003940806960350818 0.006063316991471761
1160 0.024111071447616882 0.011270571503711099 -0.008164988497141841
1536 -0.010594712827966122 0.0008201752021957315 -0.00852147913512868
1094 -0.02315972412708384 0.013841286157903225 -0.004070567449482272
1063 -0.013845570644369469 -0.003601433044915239 -0.003806470797387008
1049 0.005906473133461038 -0.0026753096940554002 -8.206496597762686e-05
1093 0.013584448808631508 0.01946843585190908 0.0011784557528186895
1031 -0.021067539224194094 0.03615770034890298 0.0181880372679031
1535 -0.006820136401662964 -0.006790445460312888 -0.013683768537296926
1018 0.005676078438284653 0.006033662377282035 0.0005881122425620235
1000 -0.007694042704711008 0.0026606411452741096 -0.010800215919453052
1016 -0.004347201462182318 0.005251946335532355 0.004101664264393627
1019 -0.008371631796233663 0.004661838557054881 0.007642543178210457
998 -0.002068394569284207 -0.0026987589720853197 -0.004614999443120121
1017 0.02222346029446303 -0.009744638472476506 0.005061965680445423
992 -0.005630027988128639 0.00020066707147983016 0.001968562595231026
1033 0.017221258359946336 0.006193259036264826 0.015048034169054498
999 0.0008046146350116627 0.0047294629759226285 0.006243475728978105
989 -0.012090965731727946 -0.0005252367885675381 0.003702236086744024
1034 -0.005000614438647806 -0.01443978324240761 -0.019400496188766006
990 -0.005093343667964754 -0.0040687692924716145 -0.004193852213335186
1492 0.0029728122889032967 -0.00025169667861795397 -0.004627519558209989
1522 -0.004857856387994091 -0.0018392538002517792 0.0043327860033348774
1007 0.002991452705327134 0.0030878855668036165 -0.013742823604002462
991 -0.004172595612294084 -0.005413416874476052 0.0036178023651171325
988 -0.0037274148227869042 0.0009967757676364853 -0.012870037898522172
1003 -0.004743554216011293 0.0009543025893599765 -0.007873357867471667
1032 0.006998039360094865 0.0046832780866853645 -0.006607530213975077
987 -0.002322683327151591 -0.01126118073703754 0.004118230256287682
636 0.013838584462018936 -0.0498213842590265 -0.024633171163382955
956 -0.0035257767256702257 -0.00898906100733671 0.0011077907009196166
689 0.021028395083253566 -0.014168106199810376 -0.011605282115388658
677 -0.0029754699155437017 -0.0003410747859948072 0.006117473304452249
1596 -0.003011239070550689 -0.01498910113030381 0.034811941576261156
690 0.003052619258236226 -0.011834664689182072 -0.015072483135122867
696 -0.01948001996779785 0.0023005046590885373 0.013161797749598686
985 0.006994287871712184 0.010276498606784902 0.016923047165036363
966 -0.0026965730328612 0.002218783091289339 0.00370993801371266
574 0.0012200513414635443 -0.0023682037394288664 0.004425927409410611
967 -6.818874993473255e-05 -0.008397481224817656 0.010213852614358643
586 0.004225069042729911 -0.0099017102868213 -0.0031011661637515746
986 -0.014970924567207456 -0.008559995137682706 0.00381856246342385
983 -0.009661086882545585 0.001125894751656881 0.015447580397385911
695 0.0023179978843775673 0.008538072109559982 -0.01761700555343168
1268 0.02082011614216252 -0.0016237214521026093 -0.004988216485693977
955 0.004929205838919548 -0.005929712987829583 -0.0022505834304014627
970 -0.01716391271582269 -0.041372334099004 0.021245210335302113
1269 -0.021510199137412388 -0.015245718020858128 -0.007929403935740997
968 0.00210185312603002 -0.005309812902388774 -0.00910208834516763
589 0.02291898565087531 0.028860978534941305 0.0018499989418988905
575 0.0013297931489440625 -0.001981239571101369 0.005204430626618266
679 0.0022213207628998433 0.004550612146574162 -0.00741318779156812
692 -0.004538554294640446 -0.005856520301896222 -0.02565602463259819
1683 0.0002800295789025362 -0.0010522797553347816 -0.0011962117998611545
1767 -0.0051148882844610855 0.0006492028288623354 0.008441631760175296
676 -0.0004564772285927863 0.008240998255324438 -0.002462948707749376
674 -0.0009535169962821185 -0.00847056796065691 0.003833347760454511
1434 0.004519174673508523 0.0010026013565513114 -0.0016539927368121432
697 0.013045431688404335 0.014707055505909818 0.028448580543655854
976 -0.01517466491274488 0.029230329185303643 -0.00021773425952447935
1378 -0.007475302555298795 0.0007054372488059663 -0.0001334004746713964
1396 0.03369705264163015 0.0038695257790951234 0.0023631602453356845
675 -0.0035873557843568633 0.0023233982902818424 0.0045821086113819074
688 0.01978906848143175 0.009524171975629252 0.013462325199452055
1623 -0.0013568012009256619 -0.003967081127186246 -0.0014077813997582195
1435 0.001214660809627746 -0.0003409261773917217 0.008689861378444403
1624 -0.007522817274576638 0.0001677709201434857 0.02191831415030128
687 -0.010175349235525738 0.02564991419374868 0.017308384259610093
1714 -0.009111907650831075 0.00958253275964109 0.017113373751824854
1448 -0.0010467427646404614 -0.029542778467855253 -0.0017863308469712154
1766 -0.003583941009578232 0.0013013834439855971 0.0037652044291079803
1391 -0.003213764585479631 -0.018379066675010373 -0.02513167378876475
1374 0.004487375493218158 0.006546296257115264 -0.006041695122673221
1375 -0.00410310783469024 0.0022789077842489437 0.000239071250806828
1385 9.610511324009272e-05 -0.02215070650579096 -0.007236943097991903
1373 0.0029150748326631074 -0.006119475670332139 -0.00023734375809592758
1372 -0.0024547630569761426 -0.0008992336719772278 -0.002200720244229685
1386 0.025804003365088292 -0.017088102016005136 0.0017259001841507529
1684 -0.021026807073688807 0.04278536855799122 0.004106403275304304
1388 0.011724121288173283 0.004158469486479479 0.0004617417198111304
1392 -0.01495024294890848 0.0291076481014883 -0.0031751956809194124
1376 -0.007487627952760671 0.0023434424867352873 -0.004249951493442897
1390 0.0168086997863872 -0.02943347300435682 -0.016174064750486345
1491 -0.005519950468682848 -0.005244174990421558 0.0025957816988595056
1602 0.016536802256550433 -0.0012577666964065756 0.0010999392973958598
1601 -0.0032197913408988613 0.0011868397518801455 0.0018097736059727284
1505 -0.03234723963812866 0.01774678330150889 0.0068209595410923226
1377 0.00040554104292615524 -0.0055332612234769065 0.00467176114217306
1773 0.005682682314270585 -0.013183081388089823 0.005085645870562761
1432 0.0011399699923234606 0.003995491380085146 -0.002148601798100705
1504 0.03473747672579542 -0.02543913234218398 0.01571776125883901
1433 0.007307900422296718 -0.0025525075308588828 -0.004351345663834895
1446 0.00396135021511883 -0.006933760844077941 0.006889346889845527
1772 0.0032277189624623816 0.0003549775181172728 0.0028499293207323723
1393 0.005211764587856254 0.020051191778775 -3.5191223951535446e-05
1445 -0.014204825729482163 -0.006985000638585971 0.011823609342702218
1774 0.0035721465127304167 0.022906347319168508 -0.006101740206012792
558 0.01594395268119327 0.010561814151742233 0.01284423830847294
1566 0.012441250908111321 0.01040012667428245 0.0005569897698613675
1556 -0.004694434956475215 0.000833485389079812 -0.00987164250261357
1570 -0.0008596214618145099 -0.004458625849602211 0.004598901441918872
562 -0.007355921703304184 0.022068599771829844 -0.008990912271376644
1557 -0.001932522129164471 -0.0005194715569243891 0.0011493112063686165
545 0.0010763991211404072 0.0015149335703475296 -0.0015799664884176708
559 0.017953457218014047 -0.01341620672555848 -0.006605613773313571
1538 0.020025728614828316 -0.0021873236876042354 -0.012610775860796808
1527 -0.0031582733242386156 -0.004650047942340921 -0.0036733987781356597
1533 -0.0018408435801323592 -0.00800596590653436 -0.0012782168864214176
1567 0.027545324258838638 -0.014083316861465545 -0.026838134615714708
1539 -0.002672891715925284 -0.013228584699907753 0.018832621959880738
1526 0.008677436731623089 -0.007386996920763264 0.003573336941876255
1525 0.003363405058728495 0.005860200109925257 -0.003731532547798893
1553 -0.0010527888356328626 -0.001580358268573592 -0.0024737488120825475
1555 -0.0014753131516662902 -0.006614735701014229 -0.0038042492698788922
1569 0.010896510362563333 0.003183280778506842 0.029909044775667592
1534 -0.0027807432999316993 0.0017667234438274693 0.0011188268419076574
1554 -0.003978599707555626 0.0017532645828163237 0.005934764154197009
1552 0.015588567190061943 -0.0014395302127807748 0.01065905611254189
1524 -0.0010578125929318262 -0.009033721051212338 -0.002351772062009715
1523 0.003739226239686538 -0.001780236953175296 -0.0066481512939615415
1565 0.0015992239594610075 0.002540557155936655 0.007192047209246898
1537 0.009822824517158647 0.034575430474645376 0.029398166584679485
1568 -0.013280493261526381 -0.006518300265310286 -0.0013019485770199683
1588 -0.008938251458426557 0.009707957363095845 0.033409300194647926
1590 -0.008638408776257964 0.021720795816939892 0.025290168761278962
1589 -0.0007839545467923997 0.017109407205881007 0.0034072817282269283
1584 -0.0032924570033030565 -0.038439012072534105 -0.02197512649831626
1564 0.005705635848234906 0.001057090157769187 -0.006422148174207181
971 0.004699077041960261 -0.015500754987252273 -0.013980450547461647
969 0.01536050001836385 0.0006763961570063084 -0.016154759834475212
597 -0.015058821273736046 -0.01760923814031544 -0.009023857865361726
879 -0.004071204678137362 -0.0042483276798216995 0.0053070881524480236
1595 -0.0012008163206150627 -0.0007100832148613755 0.0013935522622614026
576 0.003154096078192955 0.007439800618480036 -0.004673481705246661
588 -0.021848758641414952 0.004225418270900583 -0.008449861204411779
577 0.004621067283730457 -0.003485271682839125 0.0005391199997944263
880 -0.004419230357811244 -0.008784435003136644 -0.00045917783975396023
592 0.03562058159355478 -0.002027545386207709 -0.0025263053524425556
1353 -0.021845757978040718 -0.011638747529118466 4.3677100662629594e-05
1394 -0.0022593411080720693 0.0014154470191007876 0.003993559914502321
1359 -0.00837718244165483 -0.022753117628228695 0.004854560996256045
1361 0.008208448923774458 -0.006850916958718041 0.010063607565092756
1345 0.00047509020103815304 0.005511207931345728 0.00786232903767886
1360 0.005302951960589141 -0.038466081644656355 0.000845515975481851
1371 -0.0006089927131659532 -0.006892941160063456 -0.0069267332764310465
1775 -0.006930615202703937 -0.0009513544404186902 0.001121300904699625
1395 -0.0072330173619993875 -0.008720328430686446 0.004900053460719059
1576 0.006384203026712766 -0.00030736133463822113 0.024377503755225974
1571 -0.020193825614450087 -0.011923882333514981 -0.004881826623133792
1541 0.020159399143672013 -0.0023297341340606957 0.011534616892381064
1558 -0.007344008007124835 0.0018544554710476365 -0.01013592802487608
1583 0.01975050549547959 0.01149348034036349 0.0071513188615121214
1628 0.005763594280133393 -0.006636688317234203 -0.002698388884280568
450 0.0011422393974907608 0.002787692831113834 0.003479853923268955
474 0.01634554694354414 0.004443615296753263 0.009411284965984755
455 -0.0029090319964490963 0.008945419506722046 7.456553396684024e-05
456 0.008039925433683344 -0.006870226270394091 -0.0018171635920614607
452 -0.0024817936127034595 0.004907048228864021 0.0029471012511578325
443 0.003054136632248327 0.007801593999535103 0.02853065120250384
1884 0.00915695776137934 -0.004868819618787408 0.02248158571803043
1729 -0.017467071214291703 0.0030984321078635305 -0.0015296106302296758
469 -0.004245241032333147 0.026978351603758388 -0.02941459342822121
453 -0.0030689580860204886 0.0075636730015125764 -0.0007981215413031933
467 0.014059239384629621 0.02028960361603441 -0.008007216290746456
1246 -0.0035240904951987936 -0.006949226908533145 0.0046991873157272695
1696 -0.0011196525236145019 -0.004558825027823346 0.0029534810989792007
482 0.002191809704607459 0.006752520786338539 0.005449896264271614
1765 0.0215096763519308 0.010712661209420667 0.0022181953548430743
1265 0.03070064424664671 0.006450794522307409 0.02233217518757871
481 -9.236178561815014e-05 0.0007650076299605126 0.0007086581549160544
417 -0.0016007556289307473 -0.0015996625894929178 -0.013873896732985953
495 -0.0019134798638513436 0.014496467456807488 -0.01275547124681885
486 0.003767886044940849 0.003764371359709954 -0.0018396616371289987
505 0.010177189722666862 0.019717546485752403 -0.040502798625010376
480 0.007060001773644335 -0.0018447511429307488 -0.0074447674343061975
487 0.01062072944622288 0.003204635613614446 -0.003987135373016902
425 -0.0015116308733397806 0.000636054484660667 0.0022942917269167975
1651 -0.0026264972923960407 0.0006852498268261992 -0.0008360004105587036
1037 0.01766944826933241 0.019641241773764438 0.006839845660138869
1028 0.00780505151715004 0.002603040128463384 -0.0017785580912957665
465 -0.01799107331911764 -0.013229614297124834 0.011949089764958157
1815 0.002716624355429343 0.0004995778119520956 0.009220645795702543
1044 -0.0042951569952805425 -0.02169617237055192 -0.03945152474610128
1816 0.007553984838754775 0.009310734320415 -0.008189760422991419
1652 0.013125589541761306 -0.0075010659616593246 0.02042696207263209
1814 0.0018907943481427292 0.009266839747141034 0.002271822537906026
1045 0.01028876493803473 0.02208883044032192 -0.03347442617168981
663 0.010336808009160297 -0.05972885113338007 -0.030331669031690687
646 0.0022760095206881756 -0.002061306051309706 0.00010399661548808204
661 -0.016319972551435726 0.0071464647517606615 -0.03880646986850841
1184 -0.0022164929326811953 0.00014494148539367794 0.00036151165935204645
1178 0.008082134514606949 0.0024966697909458635 -0.0008633681336930022
1264 -0.013980355150596506 -0.0007267727790338517 0.026389008592526048
1254 -0.012526372660207202 0.031625560618667684 -0.019723310041389403
1245 -0.0037451165953033103 -0.005393036861988542 0.0020720756444020023
1241 -0.00462533190421627 -0.004496636717612467 -0.003277301228477543
1263 -0.0034081520374079737 0.034263140774772036 0.0020756641837047164
1102 -0.004817009732545234 -0.012193805156820295 -0.011116108832761118
1088 -0.0008647038619401316 -0.0006332347059696972 -0.0003585924093622996
1086 -0.00222813065337938 -0.0038009339788450907 0.001911797604532107
1098 -0.015601957744052571 0.009698358623991602 -0.05433852648177266
1038 0.025003542089226546 0.019257174645092887 -0.00894117535029663
1026 -0.005871796257976096 0.007461125827719667 0.0011544000602257008
1040 0.018565675645385915 0.0018793851617537733 -0.024285113102389136
1829 0.0035806036110769 -0.008228356605935449 0.007012949348036005
977 0.024563913652569835 0.018797828958787354 -0.0016260119480126659
658 -0.027338276720466577 -0.04885266436076957 0.007785778053884324
1704 -0.03599595876142607 0.023386484570810957 0.006461305283174533
1878 -0.002411162675732522 -0.00038312868624232457 0.0018758075415952612
1877 0.0031868980775404195 -0.00334406382940142 -0.004475787812907817
1831 0.023857691687556516 0.008939694151678305 0.007417980836389586
1162 0.010621282120252887 0.012715433648095463 0.017627383304873904
1150 -0.00422240468454159 -0.0027493675638206845 -0.007991544487665746
1165 0.0007253424261997513 -0.004401296007847641 -0.016774795001344538
1169 -0.012873615260334845 0.0008054121861609955 -0.0034119842757091958
1163 0.007741603630969775 0.011530046834332924 0.005928159100264861
1170 -0.01514949299922807 0.009745821476718552 -0.015428239284503095
1152 0.00024058759963385047 0.0022479193066892063 0.0009505618010519241
995 0.003050412102712354 0.00544027854952038 -0.003519533396742873
1009 0.02119841865359825 0.023648834875868673 0.0054813874579256435
1005 0.014982905973370918 -0.019951928328219234 -0.005627543359771056
993 0.0010537392753917525 -0.0025249118786035848 0.0009523783385046602
1004 0.01807588854014222 0.022566362627336127 0.01703514846552399
614 -0.0011753300061635153 0.007087197931917053 6.049960862809145e-05
587 0.026653944343024677 -0.011637011426385058 -0.006059917810450333
579 -0.00427017915574355 0.0012422072743944004 -0.005663514736732129
962 -0.0017324893814162116 -0.0004739335606763409 0.006235427577282016
965 -0.0003480817924651586 -0.00033087170864903474 -0.003479190646895595
982 -0.011960586749879607 0.015754282796741553 0.003817833737609249
573 -0.005542903975888293 0.001931894565927943 -0.001758171781602548
1848 0.035981760902083666 0.006737494175579424 0.004598135351460512
1735 0.007533161064414739 -0.00866477383238584 0.003331757684477815
963 0.0013569138673867674 0.0016929158760152464 -0.003018090634780401
1389 0.0022460444118419503 6.687076287310159e-05 0.005078578972932463
1387 -0.0011489359891439157 0.02823004957337508 0.01765033230019463
1712 0.002301629659086732 0.006072490918964001 0.010179983016228593
557 0.004279296821398573 0.008794134326509025 0.008483369499627321
555 0.015420558509467988 0.002001038824521254 -0.012389244986615339
546 0.000512392774533886 -0.006756262641395404 -0.002563418211075314
561 -0.02091971803551902 -0.011778288918900596 0.001981920736509257
544 -0.000189951469935585 0.002755312259894617 -0.0038391470679472457
543 0.004753379220258756 0.0022303357238529116 0.004662718244952951
598 -0.013210767536189836 -0.023272301790066813 -0.004803492836844703
634 -0.013033416680247765 0.013568025927023296 -0.02769227201821025
541 0.004761956364308981 -0.001998458047929724 -0.00259809789104973
554 0.03163967904749825 -0.03292915490987608 -0.016238790123636156
635 -0.005534791258266698 -0.009267453137308692 0.0029223252829525407
580 0.0007738241574177006 -0.001484871881105888 -0.0038503120248467677
593 -0.007173119503154192 -0.008686829264575213 -0.012630084579880277
1713 0.01405689670107982 0.009711770482356582 0.01970495897986915
1777 0.004732559909975677 0.005597643211650093 0.00013956300721771562

Bonds

1 3 385 386
2 6 385 398
3 3 447 448
4 6 447 460
5 3 448 449
6 6 448 461
7 3 446 447
8 3 446 456
9 8 1681 1682
10 4 451 452
11 4 451 453
12 4 451 454
13 2 449 450
14 3 449 455
15 3 386 387
16 6 386 399
17 9 1799 1800
18 9 1799 1801
19 9 1910 1911
20 9 1910 1912
21 9 1874 1875
22 9 1874 1876
23 7 454 470
24 7 454 471
25 7 454 472
26 8 1659 1660
27 9 1922 1923
28 9 1922 1924
29 9 1883 1884
30 9 1883 1885
31 9 1865 1866
32 9 1865 1867
33 9 1844 1845
34 9 1844 1846
35 9 1760 1761
36 9 1760 1762
37 8 1689 1690
38 7 360 374
39 7 360 375
40 7 360 376
41 4 358 359
42 4 358 360
43 4 358 361
44 9 1808 1809
45 9 1808 1810
46 7 484 498
47 7 484 499
48 7 484 500
49 8 1685 1686
50 9 1697 1698
51 9 1697 1699
52 9 1763 1764
53 9 1763 1765
54 4 357 358
55 7 357 369
56 7 357 370
57 3 510 511
58 6 510 523
59 3 509 510
60 6 509 522
61 2 356 357
62 3 356 362
63 3 355 356
64 6 355 368
65 3 354 355
66 6 354 367
67 2 476 477
68 1 476 506
69 5 476 490
70 3 478 479
71 6 478 491
72 3 479 480
73 6 479 492
74 3 477 478
75 3 477 487
76 1 506 507
77 5 506 519
78 5 506 520
79 3 415 416
80 3 415 425
81 8 1687 1688
82 3 416 417
83 6 416 429
84 1 444 445
85 5 444 457
86 5 444 458
87 2 414 415
88 1 414 444
89 5 414 428
90 1 475 476
91 5 475 488
92 5 475 489
93 2 445 446
94 1 445 475
95 5 445 459
96 1 413 414
97 5 413 426
98 5 413 427
99 7 390 402
100 7 390 403
101 7 390 404
102 2 387 388
103 3 387 393
104 4 388 389
105 7 388 400
106 7 388 401
107 3 393 394
108 6 393 411
109 6 394 412
110 9 1868 1869
111 9 1868 1870
112 3 384 385
113 3 384 394
114 8 1649 1650
115 7 607 620
116 7 607 621
117 7 607 622
118 4 389 390
119 4 389 391
120 4 389 392
121 7 391 405
122 7 391 406
123 7 391 407
124 7 392 408
125 7 392 409
126 7 392 410
127 1 1 2
128 1 1 14
129 5 1 15
130 5 1 16
131 9 1796 1797
132 9 1796 1798
133 4 1180 1181
134 4 1180 1182
135 4 1180 1183
136 4 1179 1180
137 7 1179 1191
138 7 1179 1192
139 7 1183 1199
140 7 1183 1200
141 7 1183 1201
142 9 1898 1899
143 9 1898 1900
144 9 1850 1851
145 9 1850 1852
146 8 1593 1594
147 4 325 326
148 7 325 338
149 7 325 339
150 7 361 377
151 7 361 378
152 7 361 379
153 7 1244 1259
154 7 1244 1260
155 7 1244 1261
156 7 1243 1256
157 7 1243 1257
158 7 1243 1258
159 4 326 327
160 4 326 328
161 4 326 329
162 7 328 343
163 7 328 344
164 7 328 345
165 4 1242 1243
166 4 1242 1244
167 4 1242 1245
168 7 1181 1193
169 7 1181 1194
170 7 1181 1195
171 8 1609 1610
172 7 329 346
173 7 329 347
174 7 329 348
175 3 362 363
176 6 362 380
177 6 363 381
178 3 353 354
179 3 353 363
180 2 352 353
181 1 352 382
182 5 352 366
183 9 1838 1839
184 9 1838 1840
185 7 1090 1106
186 7 1090 1107
187 7 1090 1108
188 7 1089 1103
189 7 1089 1104
190 7 1089 1105
191 4 1087 1088
192 4 1087 1089
193 4 1087 1090
194 7 259 273
195 7 259 274
196 7 259 275
197 1 382 383
198 5 382 395
199 5 382 396
200 2 383 384
201 1 383 413
202 5 383 397
203 7 609 626
204 7 609 627
205 7 609 628
206 7 608 623
207 7 608 624
208 7 608 625
209 4 606 607
210 4 606 608
211 4 606 609
212 9 1787 1788
213 9 1787 1789
214 6 611 630
215 3 610 611
216 6 610 629
217 4 605 606
218 7 605 618
219 7 605 619
220 2 604 605
221 3 604 610
222 3 603 604
223 6 603 617
224 7 964 979
225 7 964 980
226 7 964 981
227 3 253 254
228 6 253 266
229 9 1892 1893
230 9 1892 1894
231 9 1751 1752
232 9 1751 1753
233 9 1805 1806
234 9 1805 1807
235 7 1182 1196
236 7 1182 1197
237 7 1182 1198
238 8 1631 1632
239 9 1853 1854
240 9 1853 1855
241 9 1901 1902
242 9 1901 1903
243 9 1703 1704
244 9 1703 1705
245 9 1859 1860
246 9 1859 1861
247 8 1671 1672
248 7 165 177
249 7 165 178
250 7 165 179
251 7 327 340
252 7 327 341
253 7 327 342
254 4 164 165
255 4 164 166
256 4 164 167
257 7 166 180
258 7 166 181
259 7 166 182
260 7 167 183
261 7 167 184
262 7 167 185
263 2 162 163
264 3 162 168
265 3 161 162
266 6 161 174
267 7 996 1010
268 7 996 1011
269 7 996 1012
270 3 160 161
271 6 160 173
272 8 1591 1592
273 4 256 257
274 7 256 268
275 7 256 269
276 2 255 256
277 3 255 261
278 4 257 258
279 4 257 259
280 4 257 260
281 7 997 1013
282 7 997 1014
283 7 997 1015
284 8 1633 1634
285 4 994 995
286 4 994 996
287 4 994 997
288 3 601 602
289 3 601 611
290 3 602 603
291 6 602 616
292 7 258 270
293 7 258 271
294 7 258 272
295 3 254 255
296 6 254 267
297 7 260 276
298 7 260 277
299 7 260 278
300 2 600 601
301 1 600 614
302 5 600 615
303 9 1886 1887
304 9 1886 1888
305 3 292 293
306 6 292 311
307 3 284 285
308 6 284 298
309 6 293 312
310 2 286 287
311 3 286 292
312 3 571 572
313 6 571 584
314 3 572 573
315 6 572 585
316 9 1733 1734
317 9 1733 1735
318 3 285 286
319 6 285 299
320 9 1862 1863
321 9 1862 1864
322 4 287 288
323 7 287 300
324 7 287 301
325 4 288 289
326 4 288 290
327 4 288 291
328 7 73 87
329 7 73 88
330 7 73 89
331 9 1754 1755
332 9 1754 1756
333 7 290 305
334 7 290 306
335 7 290 307
336 7 289 302
337 7 289 303
338 7 289 304
339 7 291 308
340 7 291 309
341 7 291 310
342 9 1847 1848
343 9 1847 1849
344 9 1706 1707
345 9 1706 1708
346 9 1832 1833
347 9 1832 1834
348 8 1621 1622
349 7 198 214
350 7 198 215
351 7 198 216
352 4 195 196
353 4 195 197
354 4 195 198
355 3 168 169
356 6 168 186
357 4 194 195
358 7 194 206
359 7 194 207
360 4 163 164
361 7 163 175
362 7 163 176
363 7 197 211
364 7 197 212
365 7 197 213
366 7 547 563
367 7 547 564
368 7 547 565
369 2 193 194
370 3 193 199
371 8 1647 1648
372 2 542 543
373 3 542 548
374 3 199 200
375 6 199 217
376 3 548 549
377 6 548 566
378 6 200 218
379 1 537 538
380 5 537 550
381 5 537 551
382 2 538 539
383 1 538 568
384 5 538 552
385 1 568 569
386 5 568 581
387 5 568 582
388 6 549 567
389 3 539 540
390 3 539 549
391 2 569 570
392 1 569 599
393 5 569 583
394 3 540 541
395 6 540 553
396 1 599 600
397 5 599 612
398 5 599 613
399 3 570 571
400 3 570 580
401 7 578 594
402 7 578 595
403 7 578 596
404 9 1736 1737
405 9 1736 1738
406 8 1679 1680
407 7 196 208
408 7 196 209
409 7 196 210
410 9 1694 1695
411 9 1694 1696
412 3 508 509
413 3 508 518
414 2 507 508
415 1 507 537
416 5 507 521
417 7 832 844
418 7 832 845
419 7 832 846
420 7 833 847
421 7 833 848
422 7 833 849
423 4 830 831
424 7 830 842
425 7 830 843
426 4 831 832
427 4 831 833
428 4 831 834
429 3 828 829
430 6 828 841
431 2 829 830
432 3 829 835
433 9 1904 1905
434 9 1904 1906
435 3 835 836
436 6 835 853
437 7 834 850
438 7 834 851
439 7 834 852
440 6 836 854
441 3 826 827
442 3 826 836
443 3 827 828
444 6 827 840
445 3 890 891
446 6 890 903
447 9 1757 1758
448 9 1757 1759
449 9 1835 1836
450 9 1835 1837
451 2 1310 1311
452 3 1310 1316
453 9 1880 1881
454 9 1880 1882
455 3 1316 1317
456 6 1316 1334
457 7 10 25
458 7 10 26
459 7 10 27
460 7 11 28
461 7 11 29
462 7 11 30
463 7 359 371
464 7 359 372
465 7 359 373
466 4 8 9
467 4 8 10
468 4 8 11
469 4 7 8
470 7 7 20
471 7 7 21
472 7 9 22
473 7 9 23
474 7 9 24
475 7 516 532
476 7 516 533
477 7 516 534
478 4 513 514
479 4 513 515
480 4 513 516
481 8 1645 1646
482 9 1724 1725
483 9 1724 1726
484 7 515 529
485 7 515 530
486 7 515 531
487 9 1778 1779
488 9 1778 1780
489 7 43 59
490 7 43 60
491 7 43 61
492 7 229 245
493 7 229 246
494 7 229 247
495 4 512 513
496 7 512 524
497 7 512 525
498 8 1677 1678
499 2 511 512
500 3 511 517
501 5 932 952
502 5 932 953
503 5 932 954
504 4 226 227
505 4 226 228
506 4 226 229
507 7 227 239
508 7 227 240
509 7 227 241
510 4 225 226
511 7 225 237
512 7 225 238
513 3 889 890
514 6 889 902
515 7 228 242
516 7 228 243
517 7 228 244
518 9 1841 1842
519 9 1841 1843
520 8 1669 1670
521 9 1817 1818
522 9 1817 1819
523 9 1925 1926
524 9 1925 1927
525 9 1730 1731
526 9 1730 1732
527 9 1784 1785
528 9 1784 1786
529 4 892 893
530 7 892 904
531 7 892 905
532 8 1653 1654
533 7 894 906
534 7 894 907
535 7 894 908
536 5 14 313
537 5 14 314
538 5 14 315
539 9 1895 1896
540 9 1895 1897
541 9 1931 1932
542 9 1931 1933
543 9 1856 1857
544 9 1856 1858
545 5 1286 1585
546 5 1286 1586
547 5 1286 1587
548 3 4 5
549 6 4 18
550 3 5 6
551 6 5 19
552 1 33 34
553 5 33 46
554 5 33 47
555 3 3 4
556 3 3 13
557 2 6 7
558 3 6 12
559 2 2 3
560 1 2 33
561 5 2 17
562 6 13 32
563 3 12 13
564 6 12 31
565 3 36 37
566 6 36 49
567 3 35 36
568 3 35 45
569 3 37 38
570 6 37 50
571 7 42 56
572 7 42 57
573 7 42 58
574 6 45 63
575 7 41 53
576 7 41 54
577 7 41 55
578 2 38 39
579 3 38 44
580 3 44 45
581 6 44 62
582 4 40 41
583 4 40 42
584 4 40 43
585 4 39 40
586 7 39 51
587 7 39 52
588 2 324 325
589 3 324 330
590 3 330 331
591 6 330 349
592 3 323 324
593 6 323 337
594 1 351 352
595 5 351 364
596 5 351 365
597 3 322 323
598 6 322 336
599 6 331 350
600 3 321 322
601 3 321 331
602 2 320 321
603 1 320 351
604 5 320 335
605 8 1665 1666
606 1 319 320
607 1 319 332
608 5 319 333
609 5 319 334
610 7 1057 1069
611 7 1057 1070
612 7 1057 1071
613 4 1056 1057
614 4 1056 1058
615 4 1056 1059
616 5 332 631
617 5 332 632
618 5 332 633
619 7 1059 1075
620 7 1059 1076
621 7 1059 1077
622 9 1691 1692
623 9 1691 1693
624 9 1745 1746
625 9 1745 1747
626 9 1820 1821
627 9 1820 1822
628 9 1919 1920
629 9 1919 1921
630 7 136 152
631 7 136 153
632 7 136 154
633 7 134 146
634 7 134 147
635 7 134 148
636 4 133 134
637 4 133 135
638 4 133 136
639 7 135 149
640 7 135 150
641 7 135 151
642 9 1739 1740
643 9 1739 1741
644 3 252 253
645 3 252 262
646 4 132 133
647 7 132 144
648 7 132 145
649 8 1607 1608
650 7 74 90
651 7 74 91
652 7 74 92
653 9 1916 1917
654 9 1916 1918
655 9 1721 1722
656 9 1721 1723
657 9 1889 1890
658 9 1889 1891
659 9 1709 1710
660 9 1709 1711
661 3 68 69
662 6 68 81
663 2 69 70
664 3 69 75
665 3 67 68
666 6 67 80
667 8 1619 1620
668 3 75 76
669 6 75 93
670 6 76 94
671 2 34 35
672 1 34 64
673 5 34 48
674 1 64 65
675 5 64 77
676 5 64 78
677 3 66 67
678 3 66 76
679 1 95 96
680 5 95 108
681 5 95 109
682 2 65 66
683 1 65 95
684 5 65 79
685 2 96 97
686 1 96 126
687 5 96 110
688 3 97 98
689 3 97 107
690 6 107 125
691 3 98 99
692 6 98 111
693 6 169 187
694 7 1468 1480
695 7 1468 1481
696 7 1468 1482
697 3 159 160
698 3 159 169
699 3 261 262
700 6 261 279
701 1 126 127
702 5 126 139
703 5 126 140
704 2 158 159
705 1 158 188
706 5 158 172
707 1 157 158
708 5 157 170
709 5 157 171
710 2 127 128
711 1 127 157
712 5 127 141
713 3 129 130
714 6 129 142
715 3 128 129
716 3 128 138
717 3 130 131
718 6 130 143
719 6 138 156
720 2 131 132
721 3 131 137
722 3 137 138
723 6 137 155
724 1 188 189
725 5 188 201
726 5 188 202
727 6 262 280
728 3 283 284
729 3 283 293
730 1 281 282
731 5 281 294
732 5 281 295
733 2 251 252
734 1 251 281
735 5 251 265
736 2 282 283
737 1 282 296
738 5 282 297
739 5 296 316
740 5 296 317
741 5 296 318
742 1 793 794
743 5 793 806
744 5 793 807
745 1 824 825
746 5 824 837
747 5 824 838
748 1 250 251
749 5 250 263
750 5 250 264
751 7 1313 1325
752 7 1313 1326
753 7 1313 1327
754 4 1312 1313
755 4 1312 1314
756 4 1312 1315
757 7 72 84
758 7 72 85
759 7 72 86
760 4 71 72
761 4 71 73
762 4 71 74
763 9 1790 1791
764 9 1790 1792
765 9 1793 1794
766 9 1793 1795
767 4 70 71
768 7 70 82
769 7 70 83
770 7 1406 1418
771 7 1406 1419
772 7 1406 1420
773 9 1700 1701
774 9 1700 1702
775 7 1408 1424
776 7 1408 1425
777 7 1408 1426
778 4 1405 1406
779 4 1405 1407
780 4 1405 1408
781 7 1407 1421
782 7 1407 1422
783 7 1407 1423
784 4 1404 1405
785 7 1404 1416
786 7 1404 1417
787 2 1403 1404
788 3 1403 1409
789 9 1811 1812
790 9 1811 1813
791 3 1402 1403
792 6 1402 1415
793 8 1675 1676
794 7 104 118
795 7 104 119
796 7 104 120
797 3 99 100
798 6 99 112
799 2 100 101
800 3 100 106
801 4 102 103
802 4 102 104
803 4 102 105
804 3 106 107
805 6 106 124
806 6 518 536
807 1 219 220
808 5 219 232
809 5 219 233
810 3 192 193
811 6 192 205
812 3 190 191
813 3 190 200
814 2 189 190
815 1 189 219
816 5 189 203
817 7 103 115
818 7 103 116
819 7 103 117
820 3 191 192
821 6 191 204
822 3 221 222
823 3 221 231
824 3 222 223
825 6 222 235
826 3 223 224
827 6 223 236
828 3 797 798
829 6 797 810
830 6 231 249
831 2 220 221
832 1 220 250
833 5 220 234
834 3 796 797
835 6 796 809
836 9 1781 1782
837 9 1781 1783
838 2 825 826
839 1 825 855
840 5 825 839
841 4 1311 1312
842 7 1311 1323
843 7 1311 1324
844 8 1637 1638
845 7 514 526
846 7 514 527
847 7 514 528
848 8 1667 1668
849 3 517 518
850 6 517 535
851 3 230 231
852 6 230 248
853 2 224 225
854 3 224 230
855 8 1643 1644
856 6 1285 1304
857 3 1284 1285
858 6 1284 1303
859 7 770 782
860 7 770 783
861 7 770 784
862 3 858 859
863 6 858 871
864 3 859 860
865 6 859 872
866 2 856 857
867 1 856 886
868 5 856 870
869 3 857 858
870 3 857 867
871 2 860 861
872 3 860 866
873 3 866 867
874 6 866 884
875 6 867 885
876 2 1278 1279
877 3 1278 1284
878 7 771 785
879 7 771 786
880 7 771 787
881 6 1317 1335
882 3 1309 1310
883 6 1309 1322
884 3 1308 1309
885 6 1308 1321
886 3 1307 1308
887 3 1307 1317
888 1 1305 1306
889 5 1305 1318
890 5 1305 1319
891 2 1306 1307
892 1 1306 1336
893 5 1306 1320
894 3 1339 1340
895 6 1339 1352
896 1 1336 1337
897 5 1336 1349
898 5 1336 1350
899 3 1338 1339
900 3 1338 1348
901 2 1337 1338
902 1 1337 1367
903 5 1337 1351
904 1 1367 1368
905 5 1367 1380
906 5 1367 1381
907 6 1348 1366
908 2 1368 1369
909 1 1368 1398
910 5 1368 1382
911 9 1928 1929
912 9 1928 1930
913 7 1121 1137
914 7 1121 1138
915 7 1121 1139
916 7 1119 1131
917 7 1119 1132
918 7 1119 1133
919 4 1118 1119
920 4 1118 1120
921 4 1118 1121
922 7 1120 1134
923 7 1120 1135
924 7 1120 1136
925 8 1661 1662
926 3 1122 1123
927 6 1122 1140
928 2 1116 1117
929 3 1116 1122
930 2 918 919
931 1 918 932
932 5 918 933
933 4 1117 1118
934 7 1117 1129
935 7 1117 1130
936 1 917 918
937 5 917 930
938 5 917 931
939 2 887 888
940 1 887 917
941 5 887 901
942 3 919 920
943 3 919 929
944 3 920 921
945 6 920 934
946 3 921 922
947 6 921 935
948 8 1639 1640
949 6 929 948
950 2 922 923
951 3 922 928
952 1 886 887
953 5 886 899
954 5 886 900
955 3 888 889
956 3 888 898
957 6 898 916
958 2 891 892
959 3 891 897
960 7 896 912
961 7 896 913
962 7 896 914
963 9 1718 1719
964 9 1718 1720
965 4 893 894
966 4 893 895
967 4 893 896
968 7 895 909
969 7 895 910
970 7 895 911
971 9 1748 1749
972 9 1748 1750
973 8 1597 1598
974 9 1769 1770
975 9 1769 1771
976 9 1742 1743
977 9 1742 1744
978 8 1615 1616
979 9 1823 1824
980 9 1823 1825
981 3 1275 1276
982 3 1275 1285
983 2 1274 1275
984 1 1274 1305
985 5 1274 1289
986 3 1277 1278
987 6 1277 1291
988 1 1273 1274
989 1 1273 1286
990 5 1273 1287
991 5 1273 1288
992 3 1276 1277
993 6 1276 1290
994 4 1211 1212
995 4 1211 1213
996 4 1211 1214
997 4 1210 1211
998 7 1210 1222
999 7 1210 1223
1000 3 1215 1216
1001 6 1215 1233
1002 2 1209 1210
1003 3 1209 1215
1004 3 1208 1209
1005 6 1208 1221
1006 3 1207 1208
1007 6 1207 1220
1008 7 1214 1230
1009 7 1214 1231
1010 7 1214 1232
1011 1 637 638
1012 1 637 650
1013 5 637 651
1014 5 637 652
1015 7 1212 1224
1016 7 1212 1225
1017 7 1212 1226
1018 8 1599 1600
1019 7 1213 1227
1020 7 1213 1228
1021 7 1213 1229
1022 3 1115 1116
1023 6 1115 1128
1024 3 1114 1115
1025 6 1114 1127
1026 3 1113 1114
1027 3 1113 1123
1028 7 1058 1072
1029 7 1058 1073
1030 7 1058 1074
1031 4 923 924
1032 7 923 936
1033 7 923 937
1034 4 1055 1056
1035 7 1055 1067
1036 7 1055 1068
1037 3 1053 1054
1038 6 1053 1066
1039 3 1052 1053
1040 6 1052 1065
1041 3 1051 1052
1042 3 1051 1061
1043 2 1054 1055
1044 3 1054 1060
1045 3 928 929
1046 6 928 947
1047 4 924 925
1048 4 924 926
1049 4 924 927
1050 3 1060 1061
1051 6 1060 1078
1052 6 1061 1079
1053 7 925 938
1054 7 925 939
1055 7 925 940
1056 3 897 898
1057 6 897 915
1058 9 1913 1914
1059 9 1913 1915
1060 1 731 732
1061 5 731 744
1062 5 731 745
1063 2 701 702
1064 1 701 731
1065 5 701 715
1066 3 702 703
1067 3 702 712
1068 3 703 704
1069 6 703 716
1070 6 712 730
1071 3 711 712
1072 6 711 729
1073 3 733 734
1074 3 733 743
1075 3 734 735
1076 6 734 747
1077 6 743 761
1078 2 732 733
1079 1 732 762
1080 5 732 746
1081 3 735 736
1082 6 735 748
1083 2 736 737
1084 3 736 742
1085 3 742 743
1086 6 742 760
1087 7 1469 1483
1088 7 1469 1484
1089 7 1469 1485
1090 5 650 949
1091 5 650 950
1092 5 650 951
1093 1 700 701
1094 5 700 713
1095 5 700 714
1096 4 1467 1468
1097 4 1467 1469
1098 4 1467 1470
1099 2 670 671
1100 1 670 700
1101 5 670 684
1102 3 671 672
1103 3 671 681
1104 1 669 670
1105 5 669 682
1106 5 669 683
1107 2 638 639
1108 1 638 669
1109 5 638 653
1110 6 681 699
1111 8 1629 1630
1112 7 1501 1517
1113 7 1501 1518
1114 7 1501 1519
1115 4 1466 1467
1116 7 1466 1478
1117 7 1466 1479
1118 7 1500 1514
1119 7 1500 1515
1120 7 1500 1516
1121 3 1464 1465
1122 6 1464 1477
1123 2 1465 1466
1124 3 1465 1471
1125 4 1498 1499
1126 4 1498 1500
1127 4 1498 1501
1128 7 1499 1511
1129 7 1499 1512
1130 7 1499 1513
1131 4 1497 1498
1132 7 1497 1509
1133 7 1497 1510
1134 3 1502 1503
1135 6 1502 1520
1136 2 1496 1497
1137 3 1496 1502
1138 3 1493 1494
1139 3 1493 1503
1140 3 1463 1464
1141 6 1463 1476
1142 3 1471 1472
1143 6 1471 1489
1144 3 1495 1496
1145 6 1495 1508
1146 3 1494 1495
1147 6 1494 1507
1148 8 1613 1614
1149 7 740 754
1150 7 740 755
1151 7 740 756
1152 7 801 813
1153 7 801 814
1154 7 801 815
1155 7 741 757
1156 7 741 758
1157 7 741 759
1158 4 738 739
1159 4 738 740
1160 4 738 741
1161 7 739 751
1162 7 739 752
1163 7 739 753
1164 8 1625 1626
1165 4 737 738
1166 7 737 749
1167 7 737 750
1168 2 794 795
1169 1 794 824
1170 5 794 808
1171 3 795 796
1172 3 795 805
1173 7 1314 1328
1174 7 1314 1329
1175 7 1314 1330
1176 1 762 763
1177 5 762 775
1178 5 762 776
1179 2 763 764
1180 1 763 793
1181 5 763 777
1182 3 764 765
1183 3 764 774
1184 3 765 766
1185 6 765 778
1186 3 766 767
1187 6 766 779
1188 2 767 768
1189 3 767 773
1190 3 773 774
1191 6 773 791
1192 6 774 792
1193 4 768 769
1194 7 768 780
1195 7 768 781
1196 7 1470 1486
1197 7 1470 1487
1198 7 1470 1488
1199 8 1641 1642
1200 7 1315 1331
1201 7 1315 1332
1202 7 1315 1333
1203 8 1657 1658
1204 3 680 681
1205 6 680 698
1206 9 1826 1827
1207 9 1826 1828
1208 3 1440 1441
1209 6 1440 1458
1210 6 1379 1397
1211 7 678 692
1212 7 678 693
1213 7 678 694
1214 4 101 102
1215 7 101 113
1216 7 101 114
1217 7 105 121
1218 7 105 122
1219 7 105 123
1220 3 1409 1410
1221 6 1409 1427
1222 6 1410 1428
1223 6 1441 1459
1224 3 1401 1402
1225 6 1401 1414
1226 3 1400 1401
1227 3 1400 1410
1228 2 1399 1400
1229 1 1399 1429
1230 5 1399 1413
1231 3 1431 1432
1232 3 1431 1441
1233 6 1472 1490
1234 2 1430 1431
1235 1 1430 1460
1236 5 1430 1444
1237 1 1429 1430
1238 5 1429 1442
1239 5 1429 1443
1240 3 1462 1463
1241 3 1462 1472
1242 1 1460 1461
1243 5 1460 1473
1244 5 1460 1474
1245 2 1461 1462
1246 1 1461 1491
1247 5 1461 1475
1248 7 803 819
1249 7 803 820
1250 7 803 821
1251 3 804 805
1252 6 804 822
1253 2 798 799
1254 3 798 804
1255 8 1605 1606
1256 4 799 800
1257 7 799 811
1258 7 799 812
1259 7 802 816
1260 7 802 817
1261 7 802 818
1262 4 800 801
1263 4 800 802
1264 4 800 803
1265 7 1532 1548
1266 7 1532 1549
1267 7 1532 1550
1268 4 1528 1529
1269 7 1528 1540
1270 7 1528 1541
1271 4 1529 1530
1272 4 1529 1531
1273 4 1529 1532
1274 6 805 823
1275 8 1603 1604
1276 1 855 856
1277 5 855 868
1278 5 855 869
1279 4 769 770
1280 4 769 771
1281 4 769 772
1282 7 772 788
1283 7 772 789
1284 7 772 790
1285 3 1369 1370
1286 3 1369 1379
1287 1 1398 1399
1288 5 1398 1411
1289 5 1398 1412
1290 7 1530 1542
1291 7 1530 1543
1292 7 1530 1544
1293 7 1531 1545
1294 7 1531 1546
1295 7 1531 1547
1296 7 865 881
1297 7 865 882
1298 7 865 883
1299 8 1673 1674
1300 7 863 875
1301 7 863 876
1302 7 863 877
1303 4 862 863
1304 4 862 864
1305 4 862 865
1306 4 861 862
1307 7 861 873
1308 7 861 874
1309 8 1663 1664
1310 7 864 878
1311 7 864 879
1312 7 864 880
1313 4 1279 1280
1314 7 1279 1292
1315 7 1279 1293
1316 3 1340 1341
1317 6 1340 1353
1318 7 1344 1356
1319 7 1344 1357
1320 7 1344 1358
1321 9 1907 1908
1322 9 1907 1909
1323 3 1370 1371
1324 6 1370 1383
1325 3 1347 1348
1326 6 1347 1365
1327 4 1342 1343
1328 7 1342 1354
1329 7 1342 1355
1330 2 1341 1342
1331 3 1341 1347
1332 4 1343 1344
1333 4 1343 1345
1334 4 1343 1346
1335 7 1346 1362
1336 7 1346 1363
1337 7 1346 1364
1338 9 1727 1728
1339 9 1727 1729
1340 1 1235 1236
1341 5 1235 1248
1342 5 1235 1249
1343 7 1561 1574
1344 7 1561 1575
1345 7 1561 1576
1346 2 1236 1237
1347 1 1236 1250
1348 5 1236 1251
1349 3 1237 1238
1350 3 1237 1247
1351 6 1247 1266
1352 5 1250 1270
1353 5 1250 1271
1354 5 1250 1272
1355 7 1562 1577
1356 7 1562 1578
1357 7 1562 1579
1358 7 485 501
1359 7 485 502
1360 7 485 503
1361 8 1635 1636
1362 3 1238 1239
1363 6 1238 1252
1364 7 927 944
1365 7 927 945
1366 7 927 946
1367 4 1560 1561
1368 4 1560 1562
1369 4 1560 1563
1370 7 483 495
1371 7 483 496
1372 7 483 497
1373 8 1611 1612
1374 4 1559 1560
1375 7 1559 1572
1376 7 1559 1573
1377 7 1563 1580
1378 7 1563 1581
1379 7 1563 1582
1380 7 423 439
1381 7 423 440
1382 7 423 441
1383 7 421 433
1384 7 421 434
1385 7 421 435
1386 4 419 420
1387 7 419 431
1388 7 419 432
1389 4 420 421
1390 4 420 422
1391 4 420 423
1392 7 422 436
1393 7 422 437
1394 7 422 438
1395 2 418 419
1396 3 418 424
1397 3 424 425
1398 6 424 442
1399 8 1627 1628
1400 7 1283 1300
1401 7 1283 1301
1402 7 1283 1302
1403 7 1282 1297
1404 7 1282 1298
1405 7 1282 1299
1406 7 1281 1294
1407 7 1281 1295
1408 7 1281 1296
1409 4 1280 1281
1410 4 1280 1282
1411 4 1280 1283
1412 8 1655 1656
1413 9 1802 1803
1414 9 1802 1804
1415 4 1025 1026
1416 4 1025 1027
1417 4 1025 1028
1418 4 1024 1025
1419 7 1024 1036
1420 7 1024 1037
1421 7 1027 1041
1422 7 1027 1042
1423 7 1027 1043
1424 3 1029 1030
1425 6 1029 1047
1426 7 709 723
1427 7 709 724
1428 7 709 725
1429 6 1216 1234
1430 3 1206 1207
1431 3 1206 1216
1432 6 649 668
1433 7 647 664
1434 7 647 665
1435 7 647 666
1436 3 648 649
1437 6 648 667
1438 2 1205 1206
1439 1 1205 1235
1440 5 1205 1219
1441 4 644 645
1442 4 644 646
1443 4 644 647
1444 9 1871 1872
1445 9 1871 1873
1446 2 642 643
1447 3 642 648
1448 4 643 644
1449 7 643 656
1450 7 643 657
1451 1 1204 1205
1452 5 1204 1217
1453 5 1204 1218
1454 6 1185 1203
1455 2 1174 1175
1456 1 1174 1204
1457 5 1174 1188
1458 3 1175 1176
1459 3 1175 1185
1460 3 1176 1177
1461 6 1176 1189
1462 3 1177 1178
1463 6 1177 1190
1464 6 1123 1141
1465 1 1142 1143
1466 5 1142 1155
1467 5 1142 1156
1468 1 1111 1112
1469 5 1111 1124
1470 5 1111 1125
1471 2 1112 1113
1472 1 1112 1142
1473 5 1112 1126
1474 1 1173 1174
1475 5 1173 1186
1476 5 1173 1187
1477 2 1143 1144
1478 1 1143 1173
1479 5 1143 1157
1480 3 1144 1145
1481 3 1144 1154
1482 6 1154 1172
1483 2 1240 1241
1484 3 1240 1246
1485 3 1239 1240
1486 6 1239 1253
1487 3 1083 1084
1488 6 1083 1096
1489 3 1084 1085
1490 6 1084 1097
1491 2 1050 1051
1492 1 1050 1080
1493 5 1050 1064
1494 2 1081 1082
1495 1 1081 1111
1496 5 1081 1095
1497 3 1082 1083
1498 3 1082 1092
1499 2 1085 1086
1500 3 1085 1091
1501 6 1092 1110
1502 7 926 941
1503 7 926 942
1504 7 926 943
1505 1 1080 1081
1506 5 1080 1093
1507 5 1080 1094
1508 3 1091 1092
1509 6 1091 1109
1510 3 1021 1022
1511 6 1021 1034
1512 3 1020 1021
1513 3 1020 1030
1514 3 1022 1023
1515 6 1022 1035
1516 6 1030 1048
1517 2 1023 1024
1518 3 1023 1029
1519 3 704 705
1520 6 704 717
1521 2 705 706
1522 3 705 711
1523 4 706 707
1524 7 706 718
1525 7 706 719
1526 4 707 708
1527 4 707 709
1528 4 707 710
1529 7 710 726
1530 7 710 727
1531 7 710 728
1532 3 959 960
1533 6 959 973
1534 7 708 720
1535 7 708 721
1536 7 708 722
1537 3 958 959
1538 6 958 972
1539 3 957 958
1540 3 957 967
1541 2 960 961
1542 3 960 966
1543 4 961 962
1544 7 961 974
1545 7 961 975
1546 3 639 640
1547 3 639 649
1548 3 641 642
1549 6 641 655
1550 3 672 673
1551 6 672 685
1552 3 640 641
1553 6 640 654
1554 8 1617 1618
1555 4 1436 1437
1556 4 1436 1438
1557 4 1436 1439
1558 7 1437 1449
1559 7 1437 1450
1560 7 1437 1451
1561 7 645 658
1562 7 645 659
1563 7 645 660
1564 9 1715 1716
1565 9 1715 1717
1566 3 673 674
1567 6 673 686
1568 6 1503 1521
1569 3 1153 1154
1570 6 1153 1171
1571 7 1438 1452
1572 7 1438 1453
1573 7 1438 1454
1574 7 1439 1455
1575 7 1439 1456
1576 7 1439 1457
1577 3 1145 1146
1578 6 1145 1158
1579 7 1151 1165
1580 7 1151 1166
1581 7 1151 1167
1582 3 1146 1147
1583 6 1146 1159
1584 4 1149 1150
1585 4 1149 1151
1586 4 1149 1152
1587 2 1147 1148
1588 3 1147 1153
1589 4 1148 1149
1590 7 1148 1160
1591 7 1148 1161
1592 1 1049 1050
1593 5 1049 1062
1594 5 1049 1063
1595 1 1018 1019
1596 5 1018 1031
1597 5 1018 1032
1598 2 1019 1020
1599 1 1019 1049
1600 5 1019 1033
1601 3 998 999
1602 6 998 1016
1603 2 992 993
1604 3 992 998
1605 6 999 1017
1606 3 989 990
1607 3 989 999
1608 3 990 991
1609 6 990 1003
1610 2 1492 1493
1611 1 1492 1522
1612 5 1492 1506
1613 1 1522 1523
1614 5 1522 1535
1615 5 1522 1536
1616 3 991 992
1617 6 991 1004
1618 2 988 989
1619 1 988 1018
1620 5 988 1002
1621 1 987 988
1622 5 987 1000
1623 5 987 1001
1624 2 956 957
1625 1 956 987
1626 5 956 971
1627 7 677 689
1628 7 677 690
1629 7 677 691
1630 3 966 967
1631 6 966 985
1632 4 574 575
1633 7 574 586
1634 7 574 587
1635 6 967 986
1636 1 955 956
1637 1 955 968
1638 5 955 969
1639 5 955 970
1640 5 968 1267
1641 5 968 1268
1642 5 968 1269
1643 4 575 576
1644 4 575 577
1645 4 575 578
1646 7 679 695
1647 7 679 696
1648 7 679 697
1649 8 1683 1684
1650 4 676 677
1651 4 676 678
1652 4 676 679
1653 2 674 675
1654 3 674 680
1655 2 1434 1435
1656 3 1434 1440
1657 3 1378 1379
1658 6 1378 1396
1659 4 675 676
1660 7 675 687
1661 7 675 688
1662 8 1623 1624
1663 4 1435 1436
1664 7 1435 1447
1665 7 1435 1448
1666 9 1766 1767
1667 9 1766 1768
1668 4 1374 1375
1669 4 1374 1376
1670 4 1374 1377
1671 7 1375 1387
1672 7 1375 1388
1673 7 1375 1389
1674 4 1373 1374
1675 7 1373 1385
1676 7 1373 1386
1677 2 1372 1373
1678 3 1372 1378
1679 7 1376 1390
1680 7 1376 1391
1681 7 1376 1392
1682 1 1491 1492
1683 5 1491 1504
1684 5 1491 1505
1685 8 1601 1602
1686 7 1377 1393
1687 7 1377 1394
1688 7 1377 1395
1689 3 1432 1433
1690 6 1432 1445
1691 3 1433 1434
1692 6 1433 1446
1693 9 1772 1773
1694 9 1772 1774
1695 3 1556 1557
1696 6 1556 1570
1697 3 1557 1558
1698 6 1557 1571
1699 7 545 557
1700 7 545 558
1701 7 545 559
1702 2 1527 1528
1703 3 1527 1533
1704 3 1533 1534
1705 6 1533 1551
1706 3 1526 1527
1707 6 1526 1539
1708 3 1525 1526
1709 6 1525 1538
1710 1 1553 1554
1711 5 1553 1566
1712 5 1553 1567
1713 3 1555 1556
1714 3 1555 1565
1715 6 1534 1552
1716 2 1554 1555
1717 1 1554 1568
1718 5 1554 1569
1719 3 1524 1525
1720 3 1524 1534
1721 2 1523 1524
1722 1 1523 1553
1723 5 1523 1537
1724 6 1565 1584
1725 5 1568 1588
1726 5 1568 1589
1727 5 1568 1590
1728 3 1564 1565
1729 6 1564 1583
1730 8 1595 1596
1731 7 576 588
1732 7 576 589
1733 7 576 590
1734 7 577 591
1735 7 577 592
1736 7 577 593
1737 7 1345 1359
1738 7 1345 1360
1739 7 1345 1361
1740 3 1371 1372
1741 6 1371 1384
1742 9 1775 1776
1743 9 1775 1777
1744 2 1558 1559
1745 3 1558 1564
1746 4 450 451
1747 7 450 462
1748 7 450 463
1749 3 455 456
1750 6 455 473
1751 6 456 474
1752 7 452 464
1753 7 452 465
1754 7 452 466
1755 7 453 467
1756 7 453 468
1757 7 453 469
1758 3 1246 1247
1759 6 1246 1265
1760 4 482 483
1761 4 482 484
1762 4 482 485
1763 4 481 482
1764 7 481 493
1765 7 481 494
1766 3 417 418
1767 6 417 430
1768 3 486 487
1769 6 486 504
1770 2 480 481
1771 3 480 486
1772 6 487 505
1773 6 425 443
1774 8 1651 1652
1775 7 1028 1044
1776 7 1028 1045
1777 7 1028 1046
1778 9 1814 1815
1779 9 1814 1816
1780 7 646 661
1781 7 646 662
1782 7 646 663
1783 3 1184 1185
1784 6 1184 1202
1785 2 1178 1179
1786 3 1178 1184
1787 7 1245 1262
1788 7 1245 1263
1789 7 1245 1264
1790 4 1241 1242
1791 7 1241 1254
1792 7 1241 1255
1793 7 1088 1100
1794 7 1088 1101
1795 7 1088 1102
1796 4 1086 1087
1797 7 1086 1098
1798 7 1086 1099
1799 7 1026 1038
1800 7 1026 1039
1801 7 1026 1040
1802 9 1829 1830
1803 9 1829 1831
1804 9 1877 1878
1805 9 1877 1879
1806 7 1150 1162
1807 7 1150 1163
1808 7 1150 1164
1809 7 1152 1168
1810 7 1152 1169
1811 7 1152 1170
1812 7 995 1007
1813 7 995 1008
1814 7 995 1009
1815 4 993 994
1816 7 993 1005
1817 7 993 1006
1818 5 614 634
1819 5 614 635
1820 5 614 636
1821 3 579 580
1822 6 579 597
1823 4 962 963
1824 4 962 964
1825 4 962 965
1826 7 965 982
1827 7 965 983
1828 7 965 984
1829 2 573 574
1830 3 573 579
1831 7 963 976
1832 7 963 977
1833 7 963 978
1834 9 1712 1713
1835 9 1712 1714
1836 7 546 560
1837 7 546 561
1838 7 546 562
1839 4 544 545
1840 4 544 546
1841 4 544 547
1842 4 543 544
1843 7 543 555
1844 7 543 556
1845 3 541 542
1846 6 541 554
1847 6 580 598

Angles

1 4 384 385 386
2 9 384 385 398
3 9 386 385 398
4 4 446 447 448
5 9 446 447 460
6 9 448 447 460
7 4 447 448 449
8 9 447 448 461
9 9 449 448 461
10 3 445 446 447
11 3 445 446 456
12 4 447 446 456
13 6 450 451 452
14 6 450 451 453
15 6 450 451 454
16 6 452 451 453
17 6 452 451 454
18 6 453 451 454
19 3 448 449 450
20 4 448 449 455
21 3 450 449 455
22 4 385 386 387
23 9 385 386 399
24 9 387 386 399
25 14 1800 1799 1801
26 14 1911 1910 1912
27 14 1875 1874 1876
28 11 451 454 470
29 11 451 454 471
30 11 451 454 472
31 13 470 454 471
32 13 470 454 472
33 13 471 454 472
34 14 1923 1922 1924
35 14 1884 1883 1885
36 14 1866 1865 1867
37 14 1845 1844 1846
38 14 1761 1760 1762
39 11 358 360 374
40 11 358 360 375
41 11 358 360 376
42 13 374 360 375
43 13 374 360 376
44 13 375 360 376
45 6 357 358 359
46 6 357 358 360
47 6 357 358 361
48 6 359 358 360
49 6 359 358 361
50 6 360 358 361
51 14 1809 1808 1810
52 11 482 484 498
53 11 482 484 499
54 11 482 484 500
55 13 498 484 499
56 13 498 484 500
57 13 499 484 500
58 14 1698 1697 1699
59 14 1764 1763 1765
60 5 356 357 358
61 10 356 357 369
62 10 356 357 370
63 11 358 357 369
64 11 358 357 370
65 13 369 357 370
66 4 509 510 511
67 9 509 510 523
68 9 511 510 523
69 4 508 509 510
70 9 508 509 522
71 9 510 509 522
72 3 355 356 357
73 4 355 356 362
74 3 357 356 362
75 4 354 355 356
76 9 354 355 368
77 9 356 355 368
78 4 353 354 355
79 9 353 354 367
80 9 355 354 367
81 1 475 476 477
82 2 475 476 506
83 1 477 476 506
84 7 475 476 490
85 8 477 476 490
86 7 490 476 506
87 4 477 478 479
88 9 477 478 491
89 9 479 478 491
90 4 478 479 480
91 9 478 479 492
92 9 480 479 492
93 3 476 477 478
94 3 476 477 487
95 4 478 477 487
96 2 476 506 507
97 7 476 506 519
98 7 476 506 520
99 7 507 506 519
100 7 507 506 520
101 12 519 506 520
102 3 414 415 416
103 3 414 415 425
104 4 416 415 425
105 4 415 416 417
106 9 415 416 429
107 9 417 416 429
108 2 414 444 445
109 7 414 444 457
110 7 414 444 458
111 7 445 444 457
112 7 445 444 458
113 12 457 444 458
114 1 413 414 415
115 2 413 414 444
116 1 415 414 444
117 7 413 414 428
118 8 415 414 428
119 7 428 414 444
120 2 445 475 476
121 7 445 475 488
122 7 445 475 489
123 7 476 475 488
124 7 476 475 489
125 12 488 475 489
126 1 444 445 446
127 2 444 445 475
128 1 446 445 475
129 7 444 445 459
130 8 446 445 459
131 7 459 445 475
132 2 383 413 414
133 7 383 413 426
134 7 383 413 427
135 7 414 413 426
136 7 414 413 427
137 12 426 413 427
138 11 389 390 402
139 11 389 390 403
140 11 389 390 404
141 13 402 390 403
142 13 402 390 404
143 13 403 390 404
144 3 386 387 388
145 4 386 387 393
146 3 388 387 393
147 5 387 388 389
148 10 387 388 400
149 10 387 388 401
150 11 389 388 400
151 11 389 388 401
152 13 400 388 401
153 4 387 393 394
154 9 387 393 411
155 9 394 393 411
156 4 384 394 393
157 9 384 394 412
158 9 393 394 412
159 14 1869 1868 1870
160 3 383 384 385
161 3 383 384 394
162 4 385 384 394
163 11 606 607 620
164 11 606 607 621
165 11 606 607 622
166 13 620 607 621
167 13 620 607 622
168 13 621 607 622
169 6 388 389 390
170 6 388 389 391
171 6 388 389 392
172 6 390 389 391
173 6 390 389 392
174 6 391 389 392
175 11 389 391 405
176 11 389 391 406
177 11 389 391 407
178 13 405 391 406
179 13 405 391 407
180 13 406 391 407
181 11 389 392 408
182 11 389 392 409
183 11 389 392 410
184 13 408 392 409
185 13 408 392 410
186 13 409 392 410
187 2 2 1 14
188 7 2 1 15
189 7 2 1 16
190 7 14 1 15
191 7 14 1 16
192 12 15 1 16
193 14 1797 1796 1798
194 6 1179 1180 1181
195 6 1179 1180 1182
196 6 1179 1180 1183
197 6 1181 1180 1182
198 6 1181 1180 1183
199 6 1182 1180 1183
200 5 1178 1179 1180
201 10 1178 1179 1191
202 10 1178 1179 1192
203 11 1180 1179 1191
204 11 1180 1179 1192
205 13 1191 1179 1192
206 11 1180 1183 1199
207 11 1180 1183 1200
208 11 1180 1183 1201
209 13 1199 1183 1200
210 13 1199 1183 1201
211 13 1200 1183 1201
212 14 1899 1898 1900
213 14 1851 1850 1852
214 5 324 325 326
215 10 324 325 338
216 10 324 325 339
217 11 326 325 338
218 11 326 325 339
219 13 338 325 339
220 11 358 361 377
221 11 358 361 378
222 11 358 361 379
223 13 377 361 378
224 13 377 361 379
225 13 378 361 379
226 11 1242 1244 1259
227 11 1242 1244 1260
228 11 1242 1244 1261
229 13 1259 1244 1260
230 13 1259 1244 1261
231 13 1260 1244 1261
232 11 1242 1243 1256
233 11 1242 1243 1257
234 11 1242 1243 1258
235 13 1256 1243 1257
236 13 1256 1243 1258
237 13 1257 1243 1258
238 6 325 326 327
239 6 325 326 328
240 6 325 326 329
241 6 327 326 328
242 6 327 326 329
243 6 328 326 329
244 11 326 328 343
245 11 326 328 344
246 11 326 328 345
247 13 343 328 344
248 13 343 328 345
249 13 344 328 345
250 6 1241 1242 1243
251 6 1241 1242 1244
252 6 1241 1242 1245
253 6 1243 1242 1244
254 6 1243 1242 1245
255 6 1244 1242 1245
256 11 1180 1181 1193
257 11 1180 1181 1194
258 11 1180 1181 1195
259 13 1193 1181 1194
260 13 1193 1181 1195
261 13 1194 1181 1195
262 11 326 329 346
263 11 326 329 347
264 11 326 329 348
265 13 346 329 347
266 13 346 329 348
267 13 347 329 348
268 4 356 362 363
269 9 356 362 380
270 9 363 362 380
271 4 353 363 362
272 9 353 363 381
273 9 362 363 381
274 3 352 353 354
275 3 352 353 363
276 4 354 353 363
277 1 351 352 353
278 2 351 352 382
279 1 353 352 382
280 7 351 352 366
281 8 353 352 366
282 7 366 352 382
283 14 1839 1838 1840
284 11 1087 1090 1106
285 11 1087 1090 1107
286 11 1087 1090 1108
287 13 1106 1090 1107
288 13 1106 1090 1108
289 13 1107 1090 1108
290 11 1087 1089 1103
291 11 1087 1089 1104
292 11 1087 1089 1105
293 13 1103 1089 1104
294 13 1103 1089 1105
295 13 1104 1089 1105
296 6 1086 1087 1088
297 6 1086 1087 1089
298 6 1086 1087 1090
299 6 1088 1087 1089
300 6 1088 1087 1090
301 6 1089 1087 1090
302 11 257 259 273
303 11 257 259 274
304 11 257 259 275
305 13 273 259 274
306 13 273 259 275
307 13 274 259 275
308 2 352 382 383
309 7 352 382 395
310 7 352 382 396
311 7 383 382 395
312 7 383 382 396
313 12 395 382 396
314 1 382 383 384
315 2 382 383 413
316 1 384 383 413
317 7 382 383 397
318 8 384 383 397
319 7 397 383 413
320 11 606 609 626
321 11 606 609 627
322 11 606 609 628
323 13 626 609 627
324 13 626 609 628
325 13 627 609 628
326 11 606 608 623
327 11 606 608 624
328 11 606 608 625
329 13 623 608 624
330 13 623 608 625
331 13 624 608 625
332 6 605 606 607
333 6 605 606 608
334 6 605 606 609
335 6 607 606 608
336 6 607 606 609
337 6 608 606 609
338 14 1788 1787 1789
339 4 601 611 610
340 9 601 611 630
341 9 610 611 630
342 4 604 610 611
343 9 604 610 629
344 9 611 610 629
345 5 604 605 606
346 10 604 605 618
347 10 604 605 619
348 11 606 605 618
349 11 606 605 619
350 13 618 605 619
351 3 603 604 605
352 4 603 604 610
353 3 605 604 610
354 4 602 603 604
355 9 602 603 617
356 9 604 603 617
357 11 962 964 979
358 11 962 964 980
359 11 962 964 981
360 13 979 964 980
361 13 979 964 981
362 13 980 964 981
363 4 252 253 254
364 9 252 253 266
365 9 254 253 266
366 14 1893 1892 1894
367 14 1752 1751 1753
368 14 1806 1805 1807
369 11 1180 1182 1196
370 11 1180 1182 1197
371 11 1180 1182 1198
372 13 1196 1182 1197
373 13 1196 1182 1198
374 13 1197 1182 1198
375 14 1854 1853 1855
376 14 1902 1901 1903
377 14 1704 1703 1705
378 14 1860 1859 1861
379 11 164 165 177
380 11 164 165 178
381 11 164 165 179
382 13 177 165 178
383 13 177 165 179
384 13 178 165 179
385 11 326 327 340
386 11 326 327 341
387 11 326 327 342
388 13 340 327 341
389 13 340 327 342
390 13 341 327 342
391 6 163 164 165
392 6 163 164 166
393 6 163 164 167
394 6 165 164 166
395 6 165 164 167
396 6 166 164 167
397 11 164 166 180
398 11 164 166 181
399 11 164 166 182
400 13 180 166 181
401 13 180 166 182
402 13 181 166 182
403 11 164 167 183
404 11 164 167 184
405 11 164 167 185
406 13 183 167 184
407 13 183 167 185
408 13 184 167 185
409 3 161 162 163
410 4 161 162 168
411 3 163 162 168
412 4 160 161 162
413 9 160 161 174
414 9 162 161 174
415 11 994 996 1010
416 11 994 996 1011
417 11 994 996 1012
418 13 1010 996 1011
419 13 1010 996 1012
420 13 1011 996 1012
421 4 159 160 161
422 9 159 160 173
423 9 161 160 173
424 5 255 256 257
425 10 255 256 268
426 10 255 256 269
427 11 257 256 268
428 11 257 256 269
429 13 268 256 269
430 3 254 255 256
431 4 254 255 261
432 3 256 255 261
433 6 256 257 258
434 6 256 257 259
435 6 256 257 260
436 6 258 257 259
437 6 258 257 260
438 6 259 257 260
439 11 994 997 1013
440 11 994 997 1014
441 11 994 997 1015
442 13 1013 997 1014
443 13 1013 997 1015
444 13 1014 997 1015
445 6 993 994 995
446 6 993 994 996
447 6 993 994 997
448 6 995 994 996
449 6 995 994 997
450 6 996 994 997
451 3 600 601 602
452 3 600 601 611
453 4 602 601 611
454 4 601 602 603
455 9 601 602 616
456 9 603 602 616
457 11 257 258 270
458 11 257 258 271
459 11 257 258 272
460 13 270 258 271
461 13 270 258 272
462 13 271 258 272
463 4 253 254 255
464 9 253 254 267
465 9 255 254 267
466 11 257 260 276
467 11 257 260 277
468 11 257 260 278
469 13 276 260 277
470 13 276 260 278
471 13 277 260 278
472 1 599 600 601
473 2 599 600 614
474 1 601 600 614
475 7 599 600 615
476 8 601 600 615
477 7 614 600 615
478 14 1887 1886 1888
479 4 286 292 293
480 9 286 292 311
481 9 293 292 311
482 4 283 284 285
483 9 283 284 298
484 9 285 284 298
485 4 283 293 292
486 9 283 293 312
487 9 292 293 312
488 3 285 286 287
489 4 285 286 292
490 3 287 286 292
491 4 570 571 572
492 9 570 571 584
493 9 572 571 584
494 4 571 572 573
495 9 571 572 585
496 9 573 572 585
497 14 1734 1733 1735
498 4 284 285 286
499 9 284 285 299
500 9 286 285 299
501 14 1863 1862 1864
502 5 286 287 288
503 10 286 287 300
504 10 286 287 301
505 11 288 287 300
506 11 288 287 301
507 13 300 287 301
508 6 287 288 289
509 6 287 288 290
510 6 287 288 291
511 6 289 288 290
512 6 289 288 291
513 6 290 288 291
514 11 71 73 87
515 11 71 73 88
516 11 71 73 89
517 13 87 73 88
518 13 87 73 89
519 13 88 73 89
520 14 1755 1754 1756
521 11 288 290 305
522 11 288 290 306
523 11 288 290 307
524 13 305 290 306
525 13 305 290 307
526 13 306 290 307
527 11 288 289 302
528 11 288 289 303
529 11 288 289 304
530 13 302 289 303
531 13 302 289 304
532 13 303 289 304
533 11 288 291 308
534 11 288 291 309
535 11 288 291 310
536 13 308 291 309
537 13 308 291 310
538 13 309 291 310
539 14 1848 1847 1849
540 14 1707 1706 1708
541 14 1833 1832 1834
542 11 195 198 214
543 11 195 198 215
544 11 195 198 216
545 13 214 198 215
546 13 214 198 216
547 13 215 198 216
548 6 194 195 196
549 6 194 195 197
550 6 194 195 198
551 6 196 195 197
552 6 196 195 198
553 6 197 195 198
554 4 162 168 169
555 9 162 168 186
556 9 169 168 186
557 5 193 194 195
558 10 193 194 206
559 10 193 194 207
560 11 195 194 206
561 11 195 194 207
562 13 206 194 207
563 5 162 163 164
564 10 162 163 175
565 10 162 163 176
566 11 164 163 175
567 11 164 163 176
568 13 175 163 176
569 11 195 197 211
570 11 195 197 212
571 11 195 197 213
572 13 211 197 212
573 13 211 197 213
574 13 212 197 213
575 11 544 547 563
576 11 544 547 564
577 11 544 547 565
578 13 563 547 564
579 13 563 547 565
580 13 564 547 565
581 3 192 193 194
582 4 192 193 199
583 3 194 193 199
584 3 541 542 543
585 4 541 542 548
586 3 543 542 548
587 4 193 199 200
588 9 193 199 217
589 9 200 199 217
590 4 542 548 549
591 9 542 548 566
592 9 549 548 566
593 4 190 200 199
594 9 190 200 218
595 9 199 200 218
596 2 507 537 538
597 7 507 537 550
598 7 507 537 551
599 7 538 537 550
600 7 538 537 551
601 12 550 537 551
602 1 537 538 539
603 2 537 538 568
604 1 539 538 568
605 7 537 538 552
606 8 539 538 552
607 7 552 538 568
608 2 538 568 569
609 7 538 568 581
610 7 538 568 582
611 7 569 568 581
612 7 569 568 582
613 12 581 568 582
614 4 539 549 548
615 9 539 549 567
616 9 548 549 567
617 3 538 539 540
618 3 538 539 549
619 4 540 539 549
620 1 568 569 570
621 2 568 569 599
622 1 570 569 599
623 7 568 569 583
624 8 570 569 583
625 7 583 569 599
626 4 539 540 541
627 9 539 540 553
628 9 541 540 553
629 2 569 599 600
630 7 569 599 612
631 7 569 599 613
632 7 600 599 612
633 7 600 599 613
634 12 612 599 613
635 3 569 570 571
636 3 569 570 580
637 4 571 570 580
638 11 575 578 594
639 11 575 578 595
640 11 575 578 596
641 13 594 578 595
642 13 594 578 596
643 13 595 578 596
644 14 1737 1736 1738
645 11 195 196 208
646 11 195 196 209
647 11 195 196 210
648 13 208 196 209
649 13 208 196 210
650 13 209 196 210
651 14 1695 1694 1696
652 3 507 508 509
653 3 507 508 518
654 4 509 508 518
655 1 506 507 508
656 2 506 507 537
657 1 508 507 537
658 7 506 507 521
659 8 508 507 521
660 7 521 507 537
661 11 831 832 844
662 11 831 832 845
663 11 831 832 846
664 13 844 832 845
665 13 844 832 846
666 13 845 832 846
667 11 831 833 847
668 11 831 833 848
669 11 831 833 849
670 13 847 833 848
671 13 847 833 849
672 13 848 833 849
673 5 829 830 831
674 10 829 830 842
675 10 829 830 843
676 11 831 830 842
677 11 831 830 843
678 13 842 830 843
679 6 830 831 832
680 6 830 831 833
681 6 830 831 834
682 6 832 831 833
683 6 832 831 834
684 6 833 831 834
685 4 827 828 829
686 9 827 828 841
687 9 829 828 841
688 3 828 829 830
689 4 828 829 835
690 3 830 829 835
691 14 1905 1904 1906
692 4 829 835 836
693 9 829 835 853
694 9 836 835 853
695 11 831 834 850
696 11 831 834 851
697 11 831 834 852
698 13 850 834 851
699 13 850 834 852
700 13 851 834 852
701 4 826 836 835
702 9 826 836 854
703 9 835 836 854
704 3 825 826 827
705 3 825 826 836
706 4 827 826 836
707 4 826 827 828
708 9 826 827 840
709 9 828 827 840
710 4 889 890 891
711 9 889 890 903
712 9 891 890 903
713 14 1758 1757 1759
714 14 1836 1835 1837
715 3 1309 1310 1311
716 4 1309 1310 1316
717 3 1311 1310 1316
718 14 1881 1880 1882
719 4 1310 1316 1317
720 9 1310 1316 1334
721 9 1317 1316 1334
722 11 8 10 25
723 11 8 10 26
724 11 8 10 27
725 13 25 10 26
726 13 25 10 27
727 13 26 10 27
728 11 8 11 28
729 11 8 11 29
730 11 8 11 30
731 13 28 11 29
732 13 28 11 30
733 13 29 11 30
734 11 358 359 371
735 11 358 359 372
736 11 358 359 373
737 13 371 359 372
738 13 371 359 373
739 13 372 359 373
740 6 7 8 9
741 6 7 8 10
742 6 7 8 11
743 6 9 8 10
744 6 9 8 11
745 6 10 8 11
746 5 6 7 8
747 10 6 7 20
748 10 6 7 21
749 11 8 7 20
750 11 8 7 21
751 13 20 7 21
752 11 8 9 22
753 11 8 9 23
754 11 8 9 24
755 13 22 9 23
756 13 22 9 24
757 13 23 9 24
758 11 513 516 532
759 11 513 516 533
760 11 513 516 534
761 13 532 516 533
762 13 532 516 534
763 13 533 516 534
764 6 512 513 514
765 6 512 513 515
766 6 512 513 516
767 6 514 513 515
768 6 514 513 516
769 6 515 513 516
770 14 1725 1724 1726
771 11 513 515 529
772 11 513 515 530
773 11 513 515 531
774 13 529 515 530
775 13 529 515 531
776 13 530 515 531
777 14 1779 1778 1780
778 11 40 43 59
779 11 40 43 60
780 11 40 43 61
781 13 59 43 60
782 13 59 43 61
783 13 60 43 61
784 11 226 229 245
785 11 226 229 246
786 11 226 229 247
787 13 245 229 246
788 13 245 229 247
789 13 246 229 247
790 5 511 512 513
791 10 511 512 524
792 10 511 512 525
793 11 513 512 524
794 11 513 512 525
795 13 524 512 525
796 3 510 511 512
797 4 510 511 517
798 3 512 511 517
799 7 918 932 952
800 7 918 932 953
801 7 918 932 954
802 12 952 932 953
803 12 952 932 954
804 12 953 932 954
805 6 225 226 227
806 6 225 226 228
807 6 225 226 229
808 6 227 226 228
809 6 227 226 229
810 6 228 226 229
811 11 226 227 239
812 11 226 227 240
813 11 226 227 241
814 13 239 227 240
815 13 239 227 241
816 13 240 227 241
817 5 224 225 226
818 10 224 225 237
819 10 224 225 238
820 11 226 225 237
821 11 226 225 238
822 13 237 225 238
823 4 888 889 890
824 9 888 889 902
825 9 890 889 902
826 11 226 228 242
827 11 226 228 243
828 11 226 228 244
829 13 242 228 243
830 13 242 228 244
831 13 243 228 244
832 14 1842 1841 1843
833 14 1818 1817 1819
834 14 1926 1925 1927
835 14 1731 1730 1732
836 14 1785 1784 1786
837 5 891 892 893
838 10 891 892 904
839 10 891 892 905
840 11 893 892 904
841 11 893 892 905
842 13 904 892 905
843 11 893 894 906
844 11 893 894 907
845 11 893 894 908
846 13 906 894 907
847 13 906 894 908
848 13 907 894 908
849 7 1 14 313
850 7 1 14 314
851 7 1 14 315
852 12 313 14 314
853 12 313 14 315
854 12 314 14 315
855 14 1896 1895 1897
856 14 1932 1931 1933
857 14 1857 1856 1858
858 7 1273 1286 1585
859 7 1273 1286 1586
860 7 1273 1286 1587
861 12 1585 1286 1586
862 12 1585 1286 1587
863 12 1586 1286 1587
864 4 3 4 5
865 9 3 4 18
866 9 5 4 18
867 4 4 5 6
868 9 4 5 19
869 9 6 5 19
870 2 2 33 34
871 7 2 33 46
872 7 2 33 47
873 7 34 33 46
874 7 34 33 47
875 12 46 33 47
876 3 2 3 4
877 3 2 3 13
878 4 4 3 13
879 3 5 6 7
880 4 5 6 12
881 3 7 6 12
882 1 1 2 3
883 2 1 2 33
884 1 3 2 33
885 7 1 2 17
886 8 3 2 17
887 7 17 2 33
888 4 3 13 12
889 9 3 13 32
890 9 12 13 32
891 4 6 12 13
892 9 6 12 31
893 9 13 12 31
894 4 35 36 37
895 9 35 36 49
896 9 37 36 49
897 3 34 35 36
898 3 34 35 45
899 4 36 35 45
900 4 36 37 38
901 9 36 37 50
902 9 38 37 50
903 11 40 42 56
904 11 40 42 57
905 11 40 42 58
906 13 56 42 57
907 13 56 42 58
908 13 57 42 58
909 4 35 45 44
910 9 35 45 63
911 9 44 45 63
912 11 40 41 53
913 11 40 41 54
914 11 40 41 55
915 13 53 41 54
916 13 53 41 55
917 13 54 41 55
918 3 37 38 39
919 4 37 38 44
920 3 39 38 44
921 4 38 44 45
922 9 38 44 62
923 9 45 44 62
924 6 39 40 41
925 6 39 40 42
926 6 39 40 43
927 6 41 40 42
928 6 41 40 43
929 6 42 40 43
930 5 38 39 40
931 10 38 39 51
932 10 38 39 52
933 11 40 39 51
934 11 40 39 52
935 13 51 39 52
936 3 323 324 325
937 4 323 324 330
938 3 325 324 330
939 4 324 330 331
940 9 324 330 349
941 9 331 330 349
942 4 322 323 324
943 9 322 323 337
944 9 324 323 337
945 2 320 351 352
946 7 320 351 364
947 7 320 351 365
948 7 352 351 364
949 7 352 351 365
950 12 364 351 365
951 4 321 322 323
952 9 321 322 336
953 9 323 322 336
954 4 321 331 330
955 9 321 331 350
956 9 330 331 350
957 3 320 321 322
958 3 320 321 331
959 4 322 321 331
960 1 319 320 321
961 2 319 320 351
962 1 321 320 351
963 7 319 320 335
964 8 321 320 335
965 7 335 320 351
966 2 320 319 332
967 7 320 319 333
968 7 320 319 334
969 7 332 319 333
970 7 332 319 334
971 12 333 319 334
972 11 1056 1057 1069
973 11 1056 1057 1070
974 11 1056 1057 1071
975 13 1069 1057 1070
976 13 1069 1057 1071
977 13 1070 1057 1071
978 6 1055 1056 1057
979 6 1055 1056 1058
980 6 1055 1056 1059
981 6 1057 1056 1058
982 6 1057 1056 1059
983 6 1058 1056 1059
984 7 319 332 631
985 7 319 332 632
986 7 319 332 633
987 12 631 332 632
988 12 631 332 633
989 12 632 332 633
990 11 1056 1059 1075
991 11 1056 1059 1076
992 11 1056 1059 1077
993 13 1075 1059 1076
994 13 1075 1059 1077
995 13 1076 1059 1077
996 14 1692 1691 1693
997 14 1746 1745 1747
998 14 1821 1820 1822
999 14 1920 1919 1921
1000 11 133 136 152
1001 11 133 136 153
1002 11 133 136 154
1003 13 152 136 153
1004 13 152 136 154
1005 13 153 136 154
1006 11 133 134 146
1007 11 133 134 147
1008 11 133 134 148
1009 13 146 134 147
1010 13 146 134 148
1011 13 147 134 148
1012 6 132 133 134
1013 6 132 133 135
1014 6 132 133 136
1015 6 134 133 135
1016 6 134 133 136
1017 6 135 133 136
1018 11 133 135 149
1019 11 133 135 150
1020 11 133 135 151
1021 13 149 135 150
1022 13 149 135 151
1023 13 150 135 151
1024 14 1740 1739 1741
1025 3 251 252 253
1026 3 251 252 262
1027 4 253 252 262
1028 5 131 132 133
1029 10 131 132 144
1030 10 131 132 145
1031 11 133 132 144
1032 11 133 132 145
1033 13 144 132 145
1034 11 71 74 90
1035 11 71 74 91
1036 11 71 74 92
1037 13 90 74 91
1038 13 90 74 92
1039 13 91 74 92
1040 14 1917 1916 1918
1041 14 1722 1721 1723
1042 14 1890 1889 1891
1043 14 1710 1709 1711
1044 4 67 68 69
1045 9 67 68 81
1046 9 69 68 81
1047 3 68 69 70
1048 4 68 69 75
1049 3 70 69 75
1050 4 66 67 68
1051 9 66 67 80
1052 9 68 67 80
1053 4 69 75 76
1054 9 69 75 93
1055 9 76 75 93
1056 4 66 76 75
1057 9 66 76 94
1058 9 75 76 94
1059 1 33 34 35
1060 2 33 34 64
1061 1 35 34 64
1062 7 33 34 48
1063 8 35 34 48
1064 7 48 34 64
1065 2 34 64 65
1066 7 34 64 77
1067 7 34 64 78
1068 7 65 64 77
1069 7 65 64 78
1070 12 77 64 78
1071 3 65 66 67
1072 3 65 66 76
1073 4 67 66 76
1074 2 65 95 96
1075 7 65 95 108
1076 7 65 95 109
1077 7 96 95 108
1078 7 96 95 109
1079 12 108 95 109
1080 1 64 65 66
1081 2 64 65 95
1082 1 66 65 95
1083 7 64 65 79
1084 8 66 65 79
1085 7 79 65 95
1086 1 95 96 97
1087 2 95 96 126
1088 1 97 96 126
1089 7 95 96 110
1090 8 97 96 110
1091 7 110 96 126
1092 3 96 97 98
1093 3 96 97 107
1094 4 98 97 107
1095 4 97 107 106
1096 9 97 107 125
1097 9 106 107 125
1098 4 97 98 99
1099 9 97 98 111
1100 9 99 98 111
1101 4 159 169 168
1102 9 159 169 187
1103 9 168 169 187
1104 11 1467 1468 1480
1105 11 1467 1468 1481
1106 11 1467 1468 1482
1107 13 1480 1468 1481
1108 13 1480 1468 1482
1109 13 1481 1468 1482
1110 3 158 159 160
1111 3 158 159 169
1112 4 160 159 169
1113 4 255 261 262
1114 9 255 261 279
1115 9 262 261 279
1116 2 96 126 127
1117 7 96 126 139
1118 7 96 126 140
1119 7 127 126 139
1120 7 127 126 140
1121 12 139 126 140
1122 1 157 158 159
1123 2 157 158 188
1124 1 159 158 188
1125 7 157 158 172
1126 8 159 158 172
1127 7 172 158 188
1128 2 127 157 158
1129 7 127 157 170
1130 7 127 157 171
1131 7 158 157 170
1132 7 158 157 171
1133 12 170 157 171
1134 1 126 127 128
1135 2 126 127 157
1136 1 128 127 157
1137 7 126 127 141
1138 8 128 127 141
1139 7 141 127 157
1140 4 128 129 130
1141 9 128 129 142
1142 9 130 129 142
1143 3 127 128 129
1144 3 127 128 138
1145 4 129 128 138
1146 4 129 130 131
1147 9 129 130 143
1148 9 131 130 143
1149 4 128 138 137
1150 9 128 138 156
1151 9 137 138 156
1152 3 130 131 132
1153 4 130 131 137
1154 3 132 131 137
1155 4 131 137 138
1156 9 131 137 155
1157 9 138 137 155
1158 2 158 188 189
1159 7 158 188 201
1160 7 158 188 202
1161 7 189 188 201
1162 7 189 188 202
1163 12 201 188 202
1164 4 252 262 261
1165 9 252 262 280
1166 9 261 262 280
1167 3 282 283 284
1168 3 282 283 293
1169 4 284 283 293
1170 2 251 281 282
1171 7 251 281 294
1172 7 251 281 295
1173 7 282 281 294
1174 7 282 281 295
1175 12 294 281 295
1176 1 250 251 252
1177 2 250 251 281
1178 1 252 251 281
1179 7 250 251 265
1180 8 252 251 265
1181 7 265 251 281
1182 1 281 282 283
1183 2 281 282 296
1184 1 283 282 296
1185 7 281 282 297
1186 8 283 282 297
1187 7 296 282 297
1188 7 282 296 316
1189 7 282 296 317
1190 7 282 296 318
1191 12 316 296 317
1192 12 316 296 318
1193 12 317 296 318
1194 2 763 793 794
1195 7 763 793 806
1196 7 763 793 807
1197 7 794 793 806
1198 7 794 793 807
1199 12 806 793 807
1200 2 794 824 825
1201 7 794 824 837
1202 7 794 824 838
1203 7 825 824 837
1204 7 825 824 838
1205 12 837 824 838
1206 2 220 250 251
1207 7 220 250 263
1208 7 220 250 264
1209 7 251 250 263
1210 7 251 250 264
1211 12 263 250 264
1212 11 1312 1313 1325
1213 11 1312 1313 1326
1214 11 1312 1313 1327
1215 13 1325 1313 1326
1216 13 1325 1313 1327
1217 13 1326 1313 1327
1218 6 1311 1312 1313
1219 6 1311 1312 1314
1220 6 1311 1312 1315
1221 6 1313 1312 1314
1222 6 1313 1312 1315
1223 6 1314 1312 1315
1224 11 71 72 84
1225 11 71 72 85
1226 11 71 72 86
1227 13 84 72 85
1228 13 84 72 86
1229 13 85 72 86
1230 6 70 71 72
1231 6 70 71 73
1232 6 70 71 74
1233 6 72 71 73
1234 6 72 71 74
1235 6 73 71 74
1236 14 1791 1790 1792
1237 14 1794 1793 1795
1238 5 69 70 71
1239 10 69 70 82
1240 10 69 70 83
1241 11 71 70 82
1242 11 71 70 83
1243 13 82 70 83
1244 11 1405 1406 1418
1245 11 1405 1406 1419
1246 11 1405 1406 1420
1247 13 1418 1406 1419
1248 13 1418 1406 1420
1249 13 1419 1406 1420
1250 14 1701 1700 1702
1251 11 1405 1408 1424
1252 11 1405 1408 1425
1253 11 1405 1408 1426
1254 13 1424 1408 1425
1255 13 1424 1408 1426
1256 13 1425 1408 1426
1257 6 1404 1405 1406
1258 6 1404 1405 1407
1259 6 1404 1405 1408
1260 6 1406 1405 1407
1261 6 1406 1405 1408
1262 6 1407 1405 1408
1263 11 1405 1407 1421
1264 11 1405 1407 1422
1265 11 1405 1407 1423
1266 13 1421 1407 1422
1267 13 1421 1407 1423
1268 13 1422 1407 1423
1269 5 1403 1404 1405
1270 10 1403 1404 1416
1271 10 1403 1404 1417
1272 11 1405 1404 1416
1273 11 1405 1404 1417
1274 13 1416 1404 1417
1275 3 1402 1403 1404
1276 4 1402 1403 1409
1277 3 1404 1403 1409
1278 14 1812 1811 1813
1279 4 1401 1402 1403
1280 9 1401 1402 1415
1281 9 1403 1402 1415
1282 11 102 104 118
1283 11 102 104 119
1284 11 102 104 120
1285 13 118 104 119
1286 13 118 104 120
1287 13 119 104 120
1288 4 98 99 100
1289 9 98 99 112
1290 9 100 99 112
1291 3 99 100 101
1292 4 99 100 106
1293 3 101 100 106
1294 6 101 102 103
1295 6 101 102 104
1296 6 101 102 105
1297 6 103 102 104
1298 6 103 102 105
1299 6 104 102 105
1300 4 100 106 107
1301 9 100 106 124
1302 9 107 106 124
1303 4 508 518 517
1304 9 508 518 536
1305 9 517 518 536
1306 2 189 219 220
1307 7 189 219 232
1308 7 189 219 233
1309 7 220 219 232
1310 7 220 219 233
1311 12 232 219 233
1312 4 191 192 193
1313 9 191 192 205
1314 9 193 192 205
1315 3 189 190 191
1316 3 189 190 200
1317 4 191 190 200
1318 1 188 189 190
1319 2 188 189 219
1320 1 190 189 219
1321 7 188 189 203
1322 8 190 189 203
1323 7 203 189 219
1324 11 102 103 115
1325 11 102 103 116
1326 11 102 103 117
1327 13 115 103 116
1328 13 115 103 117
1329 13 116 103 117
1330 4 190 191 192
1331 9 190 191 204
1332 9 192 191 204
1333 3 220 221 222
1334 3 220 221 231
1335 4 222 221 231
1336 4 221 222 223
1337 9 221 222 235
1338 9 223 222 235
1339 4 222 223 224
1340 9 222 223 236
1341 9 224 223 236
1342 4 796 797 798
1343 9 796 797 810
1344 9 798 797 810
1345 4 221 231 230
1346 9 221 231 249
1347 9 230 231 249
1348 1 219 220 221
1349 2 219 220 250
1350 1 221 220 250
1351 7 219 220 234
1352 8 221 220 234
1353 7 234 220 250
1354 4 795 796 797
1355 9 795 796 809
1356 9 797 796 809
1357 14 1782 1781 1783
1358 1 824 825 826
1359 2 824 825 855
1360 1 826 825 855
1361 7 824 825 839
1362 8 826 825 839
1363 7 839 825 855
1364 5 1310 1311 1312
1365 10 1310 1311 1323
1366 10 1310 1311 1324
1367 11 1312 1311 1323
1368 11 1312 1311 1324
1369 13 1323 1311 1324
1370 11 513 514 526
1371 11 513 514 527
1372 11 513 514 528
1373 13 526 514 527
1374 13 526 514 528
1375 13 527 514 528
1376 4 511 517 518
1377 9 511 517 535
1378 9 518 517 535
1379 4 224 230 231
1380 9 224 230 248
1381 9 231 230 248
1382 3 223 224 225
1383 4 223 224 230
1384 3 225 224 230
1385 4 1275 1285 1284
1386 9 1275 1285 1304
1387 9 1284 1285 1304
1388 4 1278 1284 1285
1389 9 1278 1284 1303
1390 9 1285 1284 1303
1391 11 769 770 782
1392 11 769 770 783
1393 11 769 770 784
1394 13 782 770 783
1395 13 782 770 784
1396 13 783 770 784
1397 4 857 858 859
1398 9 857 858 871
1399 9 859 858 871
1400 4 858 859 860
1401 9 858 859 872
1402 9 860 859 872
1403 1 855 856 857
1404 2 855 856 886
1405 1 857 856 886
1406 7 855 856 870
1407 8 857 856 870
1408 7 870 856 886
1409 3 856 857 858
1410 3 856 857 867
1411 4 858 857 867
1412 3 859 860 861
1413 4 859 860 866
1414 3 861 860 866
1415 4 860 866 867
1416 9 860 866 884
1417 9 867 866 884
1418 4 857 867 866
1419 9 857 867 885
1420 9 866 867 885
1421 3 1277 1278 1279
1422 4 1277 1278 1284
1423 3 1279 1278 1284
1424 11 769 771 785
1425 11 769 771 786
1426 11 769 771 787
1427 13 785 771 786
1428 13 785 771 787
1429 13 786 771 787
1430 4 1307 1317 1316
1431 9 1307 1317 1335
1432 9 1316 1317 1335
1433 4 1308 1309 1310
1434 9 1308 1309 1322
1435 9 1310 1309 1322
1436 4 1307 1308 1309
1437 9 1307 1308 1321
1438 9 1309 1308 1321
1439 3 1306 1307 1308
1440 3 1306 1307 1317
1441 4 1308 1307 1317
1442 2 1274 1305 1306
1443 7 1274 1305 1318
1444 7 1274 1305 1319
1445 7 1306 1305 1318
1446 7 1306 1305 1319
1447 12 1318 1305 1319
1448 1 1305 1306 1307
1449 2 1305 1306 1336
1450 1 1307 1306 1336
1451 7 1305 1306 1320
1452 8 1307 1306 1320
1453 7 1320 1306 1336
1454 4 1338 1339 1340
1455 9 1338 1339 1352
1456 9 1340 1339 1352
1457 2 1306 1336 1337
1458 7 1306 1336 1349
1459 7 1306 1336 1350
1460 7 1337 1336 1349
1461 7 1337 1336 1350
1462 12 1349 1336 1350
1463 3 1337 1338 1339
1464 3 1337 1338 1348
1465 4 1339 1338 1348
1466 1 1336 1337 1338
1467 2 1336 1337 1367
1468 1 1338 1337 1367
1469 7 1336 1337 1351
1470 8 1338 1337 1351
1471 7 1351 1337 1367
1472 2 1337 1367 1368
1473 7 1337 1367 1380
1474 7 1337 1367 1381
1475 7 1368 1367 1380
1476 7 1368 1367 1381
1477 12 1380 1367 1381
1478 4 1338 1348 1347
1479 9 1338 1348 1366
1480 9 1347 1348 1366
1481 1 1367 1368 1369
1482 2 1367 1368 1398
1483 1 1369 1368 1398
1484 7 1367 1368 1382
1485 8 1369 1368 1382
1486 7 1382 1368 1398
1487 14 1929 1928 1930
1488 11 1118 1121 1137
1489 11 1118 1121 1138
1490 11 1118 1121 1139
1491 13 1137 1121 1138
1492 13 1137 1121 1139
1493 13 1138 1121 1139
1494 11 1118 1119 1131
1495 11 1118 1119 1132
1496 11 1118 1119 1133
1497 13 1131 1119 1132
1498 13 1131 1119 1133
1499 13 1132 1119 1133
1500 6 1117 1118 1119
1501 6 1117 1118 1120
1502 6 1117 1118 1121
1503 6 1119 1118 1120
1504 6 1119 1118 1121
1505 6 1120 1118 1121
1506 11 1118 1120 1134
1507 11 1118 1120 1135
1508 11 1118 1120 1136
1509 13 1134 1120 1135
1510 13 1134 1120 1136
1511 13 1135 1120 1136
1512 4 1116 1122 1123
1513 9 1116 1122 1140
1514 9 1123 1122 1140
1515 3 1115 1116 1117
1516 4 1115 1116 1122
1517 3 1117 1116 1122
1518 1 917 918 919
1519 2 917 918 932
1520 1 919 918 932
1521 7 917 918 933
1522 8 919 918 933
1523 7 932 918 933
1524 5 1116 1117 1118
1525 10 1116 1117 1129
1526 10 1116 1117 1130
1527 11 1118 1117 1129
1528 11 1118 1117 1130
1529 13 1129 1117 1130
1530 2 887 917 918
1531 7 887 917 930
1532 7 887 917 931
1533 7 918 917 930
1534 7 918 917 931
1535 12 930 917 931
1536 1 886 887 888
1537 2 886 887 917
1538 1 888 887 917
1539 7 886 887 901
1540 8 888 887 901
1541 7 901 887 917
1542 3 918 919 920
1543 3 918 919 929
1544 4 920 919 929
1545 4 919 920 921
1546 9 919 920 934
1547 9 921 920 934
1548 4 920 921 922
1549 9 920 921 935
1550 9 922 921 935
1551 4 919 929 928
1552 9 919 929 948
1553 9 928 929 948
1554 3 921 922 923
1555 4 921 922 928
1556 3 923 922 928
1557 2 856 886 887
1558 7 856 886 899
1559 7 856 886 900
1560 7 887 886 899
1561 7 887 886 900
1562 12 899 886 900
1563 3 887 888 889
1564 3 887 888 898
1565 4 889 888 898
1566 4 888 898 897
1567 9 888 898 916
1568 9 897 898 916
1569 3 890 891 892
1570 4 890 891 897
1571 3 892 891 897
1572 11 893 896 912
1573 11 893 896 913
1574 11 893 896 914
1575 13 912 896 913
1576 13 912 896 914
1577 13 913 896 914
1578 14 1719 1718 1720
1579 6 892 893 894
1580 6 892 893 895
1581 6 892 893 896
1582 6 894 893 895
1583 6 894 893 896
1584 6 895 893 896
1585 11 893 895 909
1586 11 893 895 910
1587 11 893 895 911
1588 13 909 895 910
1589 13 909 895 911
1590 13 910 895 911
1591 14 1749 1748 1750
1592 14 1770 1769 1771
1593 14 1743 1742 1744
1594 14 1824 1823 1825
1595 3 1274 1275 1276
1596 3 1274 1275 1285
1597 4 1276 1275 1285
1598 1 1273 1274 1275
1599 2 1273 1274 1305
1600 1 1275 1274 1305
1601 7 1273 1274 1289
1602 8 1275 1274 1289
1603 7 1289 1274 1305
1604 4 1276 1277 1278
1605 9 1276 1277 1291
1606 9 1278 1277 1291
1607 2 1274 1273 1286
1608 7 1274 1273 1287
1609 7 1274 1273 1288
1610 7 1286 1273 1287
1611 7 1286 1273 1288
1612 12 1287 1273 1288
1613 4 1275 1276 1277
1614 9 1275 1276 1290
1615 9 1277 1276 1290
1616 6 1210 1211 1212
1617 6 1210 1211 1213
1618 6 1210 1211 1214
1619 6 1212 1211 1213
1620 6 1212 1211 1214
1621 6 1213 1211 1214
1622 5 1209 1210 1211
1623 10 1209 1210 1222
1624 10 1209 1210 1223
1625 11 1211 1210 1222
1626 11 1211 1210 1223
1627 13 1222 1210 1223
1628 4 1209 1215 1216
1629 9 1209 1215 1233
1630 9 1216 1215 1233
1631 3 1208 1209 1210
1632 4 1208 1209 1215
1633 3 1210 1209 1215
1634 4 1207 1208 1209
1635 9 1207 1208 1221
1636 9 1209 1208 1221
1637 4 1206 1207 1208
1638 9 1206 1207 1220
1639 9 1208 1207 1220
1640 11 1211 1214 1230
1641 11 1211 1214 1231
1642 11 1211 1214 1232
1643 13 1230 1214 1231
1644 13 1230 1214 1232
1645 13 1231 1214 1232
1646 2 638 637 650
1647 7 638 637 651
1648 7 638 637 652
1649 7 650 637 651
1650 7 650 637 652
1651 12 651 637 652
1652 11 1211 1212 1224
1653 11 1211 1212 1225
1654 11 1211 1212 1226
1655 13 1224 1212 1225
1656 13 1224 1212 1226
1657 13 1225 1212 1226
1658 11 1211 1213 1227
1659 11 1211 1213 1228
1660 11 1211 1213 1229
1661 13 1227 1213 1228
1662 13 1227 1213 1229
1663 13 1228 1213 1229
1664 4 1114 1115 1116
1665 9 1114 1115 1128
1666 9 1116 1115 1128
1667 4 1113 1114 1115
1668 9 1113 1114 1127
1669 9 1115 1114 1127
1670 3 1112 1113 1114
1671 3 1112 1113 1123
1672 4 1114 1113 1123
1673 11 1056 1058 1072
1674 11 1056 1058 1073
1675 11 1056 1058 1074
1676 13 1072 1058 1073
1677 13 1072 1058 1074
1678 13 1073 1058 1074
1679 5 922 923 924
1680 10 922 923 936
1681 10 922 923 937
1682 11 924 923 936
1683 11 924 923 937
1684 13 936 923 937
1685 5 1054 1055 1056
1686 10 1054 1055 1067
1687 10 1054 1055 1068
1688 11 1056 1055 1067
1689 11 1056 1055 1068
1690 13 1067 1055 1068
1691 4 1052 1053 1054
1692 9 1052 1053 1066
1693 9 1054 1053 1066
1694 4 1051 1052 1053
1695 9 1051 1052 1065
1696 9 1053 1052 1065
1697 3 1050 1051 1052
1698 3 1050 1051 1061
1699 4 1052 1051 1061
1700 3 1053 1054 1055
1701 4 1053 1054 1060
1702 3 1055 1054 1060
1703 4 922 928 929
1704 9 922 928 947
1705 9 929 928 947
1706 6 923 924 925
1707 6 923 924 926
1708 6 923 924 927
1709 6 925 924 926
1710 6 925 924 927
1711 6 926 924 927
1712 4 1054 1060 1061
1713 9 1054 1060 1078
1714 9 1061 1060 1078
1715 4 1051 1061 1060
1716 9 1051 1061 1079
1717 9 1060 1061 1079
1718 11 924 925 938
1719 11 924 925 939
1720 11 924 925 940
1721 13 938 925 939
1722 13 938 925 940
1723 13 939 925 940
1724 4 891 897 898
1725 9 891 897 915
1726 9 898 897 915
1727 14 1914 1913 1915
1728 2 701 731 732
1729 7 701 731 744
1730 7 701 731 745
1731 7 732 731 744
1732 7 732 731 745
1733 12 744 731 745
1734 1 700 701 702
1735 2 700 701 731
1736 1 702 701 731
1737 7 700 701 715
1738 8 702 701 715
1739 7 715 701 731
1740 3 701 702 703
1741 3 701 702 712
1742 4 703 702 712
1743 4 702 703 704
1744 9 702 703 716
1745 9 704 703 716
1746 4 702 712 711
1747 9 702 712 730
1748 9 711 712 730
1749 4 705 711 712
1750 9 705 711 729
1751 9 712 711 729
1752 3 732 733 734
1753 3 732 733 743
1754 4 734 733 743
1755 4 733 734 735
1756 9 733 734 747
1757 9 735 734 747
1758 4 733 743 742
1759 9 733 743 761
1760 9 742 743 761
1761 1 731 732 733
1762 2 731 732 762
1763 1 733 732 762
1764 7 731 732 746
1765 8 733 732 746
1766 7 746 732 762
1767 4 734 735 736
1768 9 734 735 748
1769 9 736 735 748
1770 3 735 736 737
1771 4 735 736 742
1772 3 737 736 742
1773 4 736 742 743
1774 9 736 742 760
1775 9 743 742 760
1776 11 1467 1469 1483
1777 11 1467 1469 1484
1778 11 1467 1469 1485
1779 13 1483 1469 1484
1780 13 1483 1469 1485
1781 13 1484 1469 1485
1782 7 637 650 949
1783 7 637 650 950
1784 7 637 650 951
1785 12 949 650 950
1786 12 949 650 951
1787 12 950 650 951
1788 2 670 700 701
1789 7 670 700 713
1790 7 670 700 714
1791 7 701 700 713
1792 7 701 700 714
1793 12 713 700 714
1794 6 1466 1467 1468
1795 6 1466 1467 1469
1796 6 1466 1467 1470
1797 6 1468 1467 1469
1798 6 1468 1467 1470
1799 6 1469 1467 1470
1800 1 669 670 671
1801 2 669 670 700
1802 1 671 670 700
1803 7 669 670 684
1804 8 671 670 684
1805 7 684 670 700
1806 3 670 671 672
1807 3 670 671 681
1808 4 672 671 681
1809 2 638 669 670
1810 7 638 669 682
1811 7 638 669 683
1812 7 670 669 682
1813 7 670 669 683
1814 12 682 669 683
1815 1 637 638 639
1816 2 637 638 669
1817 1 639 638 669
1818 7 637 638 653
1819 8 639 638 653
1820 7 653 638 669
1821 4 671 681 680
1822 9 671 681 699
1823 9 680 681 699
1824 11 1498 1501 1517
1825 11 1498 1501 1518
1826 11 1498 1501 1519
1827 13 1517 1501 1518
1828 13 1517 1501 1519
1829 13 1518 1501 1519
1830 5 1465 1466 1467
1831 10 1465 1466 1478
1832 10 1465 1466 1479
1833 11 1467 1466 1478
1834 11 1467 1466 1479
1835 13 1478 1466 1479
1836 11 1498 1500 1514
1837 11 1498 1500 1515
1838 11 1498 1500 1516
1839 13 1514 1500 1515
1840 13 1514 1500 1516
1841 13 1515 1500 1516
1842 4 1463 1464 1465
1843 9 1463 1464 1477
1844 9 1465 1464 1477
1845 3 1464 1465 1466
1846 4 1464 1465 1471
1847 3 1466 1465 1471
1848 6 1497 1498 1499
1849 6 1497 1498 1500
1850 6 1497 1498 1501
1851 6 1499 1498 1500
1852 6 1499 1498 1501
1853 6 1500 1498 1501
1854 11 1498 1499 1511
1855 11 1498 1499 1512
1856 11 1498 1499 1513
1857 13 1511 1499 1512
1858 13 1511 1499 1513
1859 13 1512 1499 1513
1860 5 1496 1497 1498
1861 10 1496 1497 1509
1862 10 1496 1497 1510
1863 11 1498 1497 1509
1864 11 1498 1497 1510
1865 13 1509 1497 1510
1866 4 1496 1502 1503
1867 9 1496 1502 1520
1868 9 1503 1502 1520
1869 3 1495 1496 1497
1870 4 1495 1496 1502
1871 3 1497 1496 1502
1872 3 1492 1493 1494
1873 3 1492 1493 1503
1874 4 1494 1493 1503
1875 4 1462 1463 1464
1876 9 1462 1463 1476
1877 9 1464 1463 1476
1878 4 1465 1471 1472
1879 9 1465 1471 1489
1880 9 1472 1471 1489
1881 4 1494 1495 1496
1882 9 1494 1495 1508
1883 9 1496 1495 1508
1884 4 1493 1494 1495
1885 9 1493 1494 1507
1886 9 1495 1494 1507
1887 11 738 740 754
1888 11 738 740 755
1889 11 738 740 756
1890 13 754 740 755
1891 13 754 740 756
1892 13 755 740 756
1893 11 800 801 813
1894 11 800 801 814
1895 11 800 801 815
1896 13 813 801 814
1897 13 813 801 815
1898 13 814 801 815
1899 11 738 741 757
1900 11 738 741 758
1901 11 738 741 759
1902 13 757 741 758
1903 13 757 741 759
1904 13 758 741 759
1905 6 737 738 739
1906 6 737 738 740
1907 6 737 738 741
1908 6 739 738 740
1909 6 739 738 741
1910 6 740 738 741
1911 11 738 739 751
1912 11 738 739 752
1913 11 738 739 753
1914 13 751 739 752
1915 13 751 739 753
1916 13 752 739 753
1917 5 736 737 738
1918 10 736 737 749
1919 10 736 737 750
1920 11 738 737 749
1921 11 738 737 750
1922 13 749 737 750
1923 1 793 794 795
1924 2 793 794 824
1925 1 795 794 824
1926 7 793 794 808
1927 8 795 794 808
1928 7 808 794 824
1929 3 794 795 796
1930 3 794 795 805
1931 4 796 795 805
1932 11 1312 1314 1328
1933 11 1312 1314 1329
1934 11 1312 1314 1330
1935 13 1328 1314 1329
1936 13 1328 1314 1330
1937 13 1329 1314 1330
1938 2 732 762 763
1939 7 732 762 775
1940 7 732 762 776
1941 7 763 762 775
1942 7 763 762 776
1943 12 775 762 776
1944 1 762 763 764
1945 2 762 763 793
1946 1 764 763 793
1947 7 762 763 777
1948 8 764 763 777
1949 7 777 763 793
1950 3 763 764 765
1951 3 763 764 774
1952 4 765 764 774
1953 4 764 765 766
1954 9 764 765 778
1955 9 766 765 778
1956 4 765 766 767
1957 9 765 766 779
1958 9 767 766 779
1959 3 766 767 768
1960 4 766 767 773
1961 3 768 767 773
1962 4 767 773 774
1963 9 767 773 791
1964 9 774 773 791
1965 4 764 774 773
1966 9 764 774 792
1967 9 773 774 792
1968 5 767 768 769
1969 10 767 768 780
1970 10 767 768 781
1971 11 769 768 780
1972 11 769 768 781
1973 13 780 768 781
1974 11 1467 1470 1486
1975 11 1467 1470 1487
1976 11 1467 1470 1488
1977 13 1486 1470 1487
1978 13 1486 1470 1488
1979 13 1487 1470 1488
1980 11 1312 1315 1331
1981 11 1312 1315 1332
1982 11 1312 1315 1333
1983 13 1331 1315 1332
1984 13 1331 1315 1333
1985 13 1332 1315 1333
1986 4 674 680 681
1987 9 674 680 698
1988 9 681 680 698
1989 14 1827 1826 1828
1990 4 1434 1440 1441
1991 9 1434 1440 1458
1992 9 1441 1440 1458
1993 4 1369 1379 1378
1994 9 1369 1379 1397
1995 9 1378 1379 1397
1996 11 676 678 692
1997 11 676 678 693
1998 11 676 678 694
1999 13 692 678 693
2000 13 692 678 694
2001 13 693 678 694
2002 5 100 101 102
2003 10 100 101 113
2004 10 100 101 114
2005 11 102 101 113
2006 11 102 101 114
2007 13 113 101 114
2008 11 102 105 121
2009 11 102 105 122
2010 11 102 105 123
2011 13 121 105 122
2012 13 121 105 123
2013 13 122 105 123
2014 4 1403 1409 1410
2015 9 1403 1409 1427
2016 9 1410 1409 1427
2017 4 1400 1410 1409
2018 9 1400 1410 1428
2019 9 1409 1410 1428
2020 4 1431 1441 1440
2021 9 1431 1441 1459
2022 9 1440 1441 1459
2023 4 1400 1401 1402
2024 9 1400 1401 1414
2025 9 1402 1401 1414
2026 3 1399 1400 1401
2027 3 1399 1400 1410
2028 4 1401 1400 1410
2029 1 1398 1399 1400
2030 2 1398 1399 1429
2031 1 1400 1399 1429
2032 7 1398 1399 1413
2033 8 1400 1399 1413
2034 7 1413 1399 1429
2035 3 1430 1431 1432
2036 3 1430 1431 1441
2037 4 1432 1431 1441
2038 4 1462 1472 1471
2039 9 1462 1472 1490
2040 9 1471 1472 1490
2041 1 1429 1430 1431
2042 2 1429 1430 1460
2043 1 1431 1430 1460
2044 7 1429 1430 1444
2045 8 1431 1430 1444
2046 7 1444 1430 1460
2047 2 1399 1429 1430
2048 7 1399 1429 1442
2049 7 1399 1429 1443
2050 7 1430 1429 1442
2051 7 1430 1429 1443
2052 12 1442 1429 1443
2053 3 1461 1462 1463
2054 3 1461 1462 1472
2055 4 1463 1462 1472
2056 2 1430 1460 1461
2057 7 1430 1460 1473
2058 7 1430 1460 1474
2059 7 1461 1460 1473
2060 7 1461 1460 1474
2061 12 1473 1460 1474
2062 1 1460 1461 1462
2063 2 1460 1461 1491
2064 1 1462 1461 1491
2065 7 1460 1461 1475
2066 8 1462 1461 1475
2067 7 1475 1461 1491
2068 11 800 803 819
2069 11 800 803 820
2070 11 800 803 821
2071 13 819 803 820
2072 13 819 803 821
2073 13 820 803 821
2074 4 798 804 805
2075 9 798 804 822
2076 9 805 804 822
2077 3 797 798 799
2078 4 797 798 804
2079 3 799 798 804
2080 5 798 799 800
2081 10 798 799 811
2082 10 798 799 812
2083 11 800 799 811
2084 11 800 799 812
2085 13 811 799 812
2086 11 800 802 816
2087 11 800 802 817
2088 11 800 802 818
2089 13 816 802 817
2090 13 816 802 818
2091 13 817 802 818
2092 6 799 800 801
2093 6 799 800 802
2094 6 799 800 803
2095 6 801 800 802
2096 6 801 800 803
2097 6 802 800 803
2098 11 1529 1532 1548
2099 11 1529 1532 1549
2100 11 1529 1532 1550
2101 13 1548 1532 1549
2102 13 1548 1532 1550
2103 13 1549 1532 1550
2104 5 1527 1528 1529
2105 10 1527 1528 1540
2106 10 1527 1528 1541
2107 11 1529 1528 1540
2108 11 1529 1528 1541
2109 13 1540 1528 1541
2110 6 1528 1529 1530
2111 6 1528 1529 1531
2112 6 1528 1529 1532
2113 6 1530 1529 1531
2114 6 1530 1529 1532
2115 6 1531 1529 1532
2116 4 795 805 804
2117 9 795 805 823
2118 9 804 805 823
2119 2 825 855 856
2120 7 825 855 868
2121 7 825 855 869
2122 7 856 855 868
2123 7 856 855 869
2124 12 868 855 869
2125 6 768 769 770
2126 6 768 769 771
2127 6 768 769 772
2128 6 770 769 771
2129 6 770 769 772
2130 6 771 769 772
2131 11 769 772 788
2132 11 769 772 789
2133 11 769 772 790
2134 13 788 772 789
2135 13 788 772 790
2136 13 789 772 790
2137 3 1368 1369 1370
2138 3 1368 1369 1379
2139 4 1370 1369 1379
2140 2 1368 1398 1399
2141 7 1368 1398 1411
2142 7 1368 1398 1412
2143 7 1399 1398 1411
2144 7 1399 1398 1412
2145 12 1411 1398 1412
2146 11 1529 1530 1542
2147 11 1529 1530 1543
2148 11 1529 1530 1544
2149 13 1542 1530 1543
2150 13 1542 1530 1544
2151 13 1543 1530 1544
2152 11 1529 1531 1545
2153 11 1529 1531 1546
2154 11 1529 1531 1547
2155 13 1545 1531 1546
2156 13 1545 1531 1547
2157 13 1546 1531 1547
2158 11 862 865 881
2159 11 862 865 882
2160 11 862 865 883
2161 13 881 865 882
2162 13 881 865 883
2163 13 882 865 883
2164 11 862 863 875
2165 11 862 863 876
2166 11 862 863 877
2167 13 875 863 876
2168 13 875 863 877
2169 13 876 863 877
2170 6 861 862 863
2171 6 861 862 864
2172 6 861 862 865
2173 6 863 862 864
2174 6 863 862 865
2175 6 864 862 865
2176 5 860 861 862
2177 10 860 861 873
2178 10 860 861 874
2179 11 862 861 873
2180 11 862 861 874
2181 13 873 861 874
2182 11 862 864 878
2183 11 862 864 879
2184 11 862 864 880
2185 13 878 864 879
2186 13 878 864 880
2187 13 879 864 880
2188 5 1278 1279 1280
2189 10 1278 1279 1292
2190 10 1278 1279 1293
2191 11 1280 1279 1292
2192 11 1280 1279 1293
2193 13 1292 1279 1293
2194 4 1339 1340 1341
2195 9 1339 1340 1353
2196 9 1341 1340 1353
2197 11 1343 1344 1356
2198 11 1343 1344 1357
2199 11 1343 1344 1358
2200 13 1356 1344 1357
2201 13 1356 1344 1358
2202 13 1357 1344 1358
2203 14 1908 1907 1909
2204 4 1369 1370 1371
2205 9 1369 1370 1383
2206 9 1371 1370 1383
2207 4 1341 1347 1348
2208 9 1341 1347 1365
2209 9 1348 1347 1365
2210 5 1341 1342 1343
2211 10 1341 1342 1354
2212 10 1341 1342 1355
2213 11 1343 1342 1354
2214 11 1343 1342 1355
2215 13 1354 1342 1355
2216 3 1340 1341 1342
2217 4 1340 1341 1347
2218 3 1342 1341 1347
2219 6 1342 1343 1344
2220 6 1342 1343 1345
2221 6 1342 1343 1346
2222 6 1344 1343 1345
2223 6 1344 1343 1346
2224 6 1345 1343 1346
2225 11 1343 1346 1362
2226 11 1343 1346 1363
2227 11 1343 1346 1364
2228 13 1362 1346 1363
2229 13 1362 1346 1364
2230 13 1363 1346 1364
2231 14 1728 1727 1729
2232 2 1205 1235 1236
2233 7 1205 1235 1248
2234 7 1205 1235 1249
2235 7 1236 1235 1248
2236 7 1236 1235 1249
2237 12 1248 1235 1249
2238 11 1560 1561 1574
2239 11 1560 1561 1575
2240 11 1560 1561 1576
2241 13 1574 1561 1575
2242 13 1574 1561 1576
2243 13 1575 1561 1576
2244 1 1235 1236 1237
2245 2 1235 1236 1250
2246 1 1237 1236 1250
2247 7 1235 1236 1251
2248 8 1237 1236 1251
2249 7 1250 1236 1251
2250 3 1236 1237 1238
2251 3 1236 1237 1247
2252 4 1238 1237 1247
2253 4 1237 1247 1246
2254 9 1237 1247 1266
2255 9 1246 1247 1266
2256 7 1236 1250 1270
2257 7 1236 1250 1271
2258 7 1236 1250 1272
2259 12 1270 1250 1271
2260 12 1270 1250 1272
2261 12 1271 1250 1272
2262 11 1560 1562 1577
2263 11 1560 1562 1578
2264 11 1560 1562 1579
2265 13 1577 1562 1578
2266 13 1577 1562 1579
2267 13 1578 1562 1579
2268 11 482 485 501
2269 11 482 485 502
2270 11 482 485 503
2271 13 501 485 502
2272 13 501 485 503
2273 13 502 485 503
2274 4 1237 1238 1239
2275 9 1237 1238 1252
2276 9 1239 1238 1252
2277 11 924 927 944
2278 11 924 927 945
2279 11 924 927 946
2280 13 944 927 945
2281 13 944 927 946
2282 13 945 927 946
2283 6 1559 1560 1561
2284 6 1559 1560 1562
2285 6 1559 1560 1563
2286 6 1561 1560 1562
2287 6 1561 1560 1563
2288 6 1562 1560 1563
2289 11 482 483 495
2290 11 482 483 496
2291 11 482 483 497
2292 13 495 483 496
2293 13 495 483 497
2294 13 496 483 497
2295 5 1558 1559 1560
2296 10 1558 1559 1572
2297 10 1558 1559 1573
2298 11 1560 1559 1572
2299 11 1560 1559 1573
2300 13 1572 1559 1573
2301 11 1560 1563 1580
2302 11 1560 1563 1581
2303 11 1560 1563 1582
2304 13 1580 1563 1581
2305 13 1580 1563 1582
2306 13 1581 1563 1582
2307 11 420 423 439
2308 11 420 423 440
2309 11 420 423 441
2310 13 439 423 440
2311 13 439 423 441
2312 13 440 423 441
2313 11 420 421 433
2314 11 420 421 434
2315 11 420 421 435
2316 13 433 421 434
2317 13 433 421 435
2318 13 434 421 435
2319 5 418 419 420
2320 10 418 419 431
2321 10 418 419 432
2322 11 420 419 431
2323 11 420 419 432
2324 13 431 419 432
2325 6 419 420 421
2326 6 419 420 422
2327 6 419 420 423
2328 6 421 420 422
2329 6 421 420 423
2330 6 422 420 423
2331 11 420 422 436
2332 11 420 422 437
2333 11 420 422 438
2334 13 436 422 437
2335 13 436 422 438
2336 13 437 422 438
2337 3 417 418 419
2338 4 417 418 424
2339 3 419 418 424
2340 4 418 424 425
2341 9 418 424 442
2342 9 425 424 442
2343 11 1280 1283 1300
2344 11 1280 1283 1301
2345 11 1280 1283 1302
2346 13 1300 1283 1301
2347 13 1300 1283 1302
2348 13 1301 1283 1302
2349 11 1280 1282 1297
2350 11 1280 1282 1298
2351 11 1280 1282 1299
2352 13 1297 1282 1298
2353 13 1297 1282 1299
2354 13 1298 1282 1299
2355 11 1280 1281 1294
2356 11 1280 1281 1295
2357 11 1280 1281 1296
2358 13 1294 1281 1295
2359 13 1294 1281 1296
2360 13 1295 1281 1296
2361 6 1279 1280 1281
2362 6 1279 1280 1282
2363 6 1279 1280 1283
2364 6 1281 1280 1282
2365 6 1281 1280 1283
2366 6 1282 1280 1283
2367 14 1803 1802 1804
2368 6 1024 1025 1026
2369 6 1024 1025 1027
2370 6 1024 1025 1028
2371 6 1026 1025 1027
2372 6 1026 1025 1028
2373 6 1027 1025 1028
2374 5 1023 1024 1025
2375 10 1023 1024 1036
2376 10 1023 1024 1037
2377 11 1025 1024 1036
2378 11 1025 1024 1037
2379 13 1036 1024 1037
2380 11 1025 1027 1041
2381 11 1025 1027 1042
2382 11 1025 1027 1043
2383 13 1041 1027 1042
2384 13 1041 1027 1043
2385 13 1042 1027 1043
2386 4 1023 1029 1030
2387 9 1023 1029 1047
2388 9 1030 1029 1047
2389 11 707 709 723
2390 11 707 709 724
2391 11 707 709 725
2392 13 723 709 724
2393 13 723 709 725
2394 13 724 709 725
2395 4 1206 1216 1215
2396 9 1206 1216 1234
2397 9 1215 1216 1234
2398 3 1205 1206 1207
2399 3 1205 1206 1216
2400 4 1207 1206 1216
2401 4 639 649 648
2402 9 639 649 668
2403 9 648 649 668
2404 11 644 647 664
2405 11 644 647 665
2406 11 644 647 666
2407 13 664 647 665
2408 13 664 647 666
2409 13 665 647 666
2410 4 642 648 649
2411 9 642 648 667
2412 9 649 648 667
2413 1 1204 1205 1206
2414 2 1204 1205 1235
2415 1 1206 1205 1235
2416 7 1204 1205 1219
2417 8 1206 1205 1219
2418 7 1219 1205 1235
2419 6 643 644 645
2420 6 643 644 646
2421 6 643 644 647
2422 6 645 644 646
2423 6 645 644 647
2424 6 646 644 647
2425 14 1872 1871 1873
2426 3 641 642 643
2427 4 641 642 648
2428 3 643 642 648
2429 5 642 643 644
2430 10 642 643 656
2431 10 642 643 657
2432 11 644 643 656
2433 11 644 643 657
2434 13 656 643 657
2435 2 1174 1204 1205
2436 7 1174 1204 1217
2437 7 1174 1204 1218
2438 7 1205 1204 1217
2439 7 1205 1204 1218
2440 12 1217 1204 1218
2441 4 1175 1185 1184
2442 9 1175 1185 1203
2443 9 1184 1185 1203
2444 1 1173 1174 1175
2445 2 1173 1174 1204
2446 1 1175 1174 1204
2447 7 1173 1174 1188
2448 8 1175 1174 1188
2449 7 1188 1174 1204
2450 3 1174 1175 1176
2451 3 1174 1175 1185
2452 4 1176 1175 1185
2453 4 1175 1176 1177
2454 9 1175 1176 1189
2455 9 1177 1176 1189
2456 4 1176 1177 1178
2457 9 1176 1177 1190
2458 9 1178 1177 1190
2459 4 1113 1123 1122
2460 9 1113 1123 1141
2461 9 1122 1123 1141
2462 2 1112 1142 1143
2463 7 1112 1142 1155
2464 7 1112 1142 1156
2465 7 1143 1142 1155
2466 7 1143 1142 1156
2467 12 1155 1142 1156
2468 2 1081 1111 1112
2469 7 1081 1111 1124
2470 7 1081 1111 1125
2471 7 1112 1111 1124
2472 7 1112 1111 1125
2473 12 1124 1111 1125
2474 1 1111 1112 1113
2475 2 1111 1112 1142
2476 1 1113 1112 1142
2477 7 1111 1112 1126
2478 8 1113 1112 1126
2479 7 1126 1112 1142
2480 2 1143 1173 1174
2481 7 1143 1173 1186
2482 7 1143 1173 1187
2483 7 1174 1173 1186
2484 7 1174 1173 1187
2485 12 1186 1173 1187
2486 1 1142 1143 1144
2487 2 1142 1143 1173
2488 1 1144 1143 1173
2489 7 1142 1143 1157
2490 8 1144 1143 1157
2491 7 1157 1143 1173
2492 3 1143 1144 1145
2493 3 1143 1144 1154
2494 4 1145 1144 1154
2495 4 1144 1154 1153
2496 9 1144 1154 1172
2497 9 1153 1154 1172
2498 3 1239 1240 1241
2499 4 1239 1240 1246
2500 3 1241 1240 1246
2501 4 1238 1239 1240
2502 9 1238 1239 1253
2503 9 1240 1239 1253
2504 4 1082 1083 1084
2505 9 1082 1083 1096
2506 9 1084 1083 1096
2507 4 1083 1084 1085
2508 9 1083 1084 1097
2509 9 1085 1084 1097
2510 1 1049 1050 1051
2511 2 1049 1050 1080
2512 1 1051 1050 1080
2513 7 1049 1050 1064
2514 8 1051 1050 1064
2515 7 1064 1050 1080
2516 1 1080 1081 1082
2517 2 1080 1081 1111
2518 1 1082 1081 1111
2519 7 1080 1081 1095
2520 8 1082 1081 1095
2521 7 1095 1081 1111
2522 3 1081 1082 1083
2523 3 1081 1082 1092
2524 4 1083 1082 1092
2525 3 1084 1085 1086
2526 4 1084 1085 1091
2527 3 1086 1085 1091
2528 4 1082 1092 1091
2529 9 1082 1092 1110
2530 9 1091 1092 1110
2531 11 924 926 941
2532 11 924 926 942
2533 11 924 926 943
2534 13 941 926 942
2535 13 941 926 943
2536 13 942 926 943
2537 2 1050 1080 1081
2538 7 1050 1080 1093
2539 7 1050 1080 1094
2540 7 1081 1080 1093
2541 7 1081 1080 1094
2542 12 1093 1080 1094
2543 4 1085 1091 1092
2544 9 1085 1091 1109
2545 9 1092 1091 1109
2546 4 1020 1021 1022
2547 9 1020 1021 1034
2548 9 1022 1021 1034
2549 3 1019 1020 1021
2550 3 1019 1020 1030
2551 4 1021 1020 1030
2552 4 1021 1022 1023
2553 9 1021 1022 1035
2554 9 1023 1022 1035
2555 4 1020 1030 1029
2556 9 1020 1030 1048
2557 9 1029 1030 1048
2558 3 1022 1023 1024
2559 4 1022 1023 1029
2560 3 1024 1023 1029
2561 4 703 704 705
2562 9 703 704 717
2563 9 705 704 717
2564 3 704 705 706
2565 4 704 705 711
2566 3 706 705 711
2567 5 705 706 707
2568 10 705 706 718
2569 10 705 706 719
2570 11 707 706 718
2571 11 707 706 719
2572 13 718 706 719
2573 6 706 707 708
2574 6 706 707 709
2575 6 706 707 710
2576 6 708 707 709
2577 6 708 707 710
2578 6 709 707 710
2579 11 707 710 726
2580 11 707 710 727
2581 11 707 710 728
2582 13 726 710 727
2583 13 726 710 728
2584 13 727 710 728
2585 4 958 959 960
2586 9 958 959 973
2587 9 960 959 973
2588 11 707 708 720
2589 11 707 708 721
2590 11 707 708 722
2591 13 720 708 721
2592 13 720 708 722
2593 13 721 708 722
2594 4 957 958 959
2595 9 957 958 972
2596 9 959 958 972
2597 3 956 957 958
2598 3 956 957 967
2599 4 958 957 967
2600 3 959 960 961
2601 4 959 960 966
2602 3 961 960 966
2603 5 960 961 962
2604 10 960 961 974
2605 10 960 961 975
2606 11 962 961 974
2607 11 962 961 975
2608 13 974 961 975
2609 3 638 639 640
2610 3 638 639 649
2611 4 640 639 649
2612 4 640 641 642
2613 9 640 641 655
2614 9 642 641 655
2615 4 671 672 673
2616 9 671 672 685
2617 9 673 672 685
2618 4 639 640 641
2619 9 639 640 654
2620 9 641 640 654
2621 6 1435 1436 1437
2622 6 1435 1436 1438
2623 6 1435 1436 1439
2624 6 1437 1436 1438
2625 6 1437 1436 1439
2626 6 1438 1436 1439
2627 11 1436 1437 1449
2628 11 1436 1437 1450
2629 11 1436 1437 1451
2630 13 1449 1437 1450
2631 13 1449 1437 1451
2632 13 1450 1437 1451
2633 11 644 645 658
2634 11 644 645 659
2635 11 644 645 660
2636 13 658 645 659
2637 13 658 645 660
2638 13 659 645 660
2639 14 1716 1715 1717
2640 4 672 673 674
2641 9 672 673 686
2642 9 674 673 686
2643 4 1493 1503 1502
2644 9 1493 1503 1521
2645 9 1502 1503 1521
2646 4 1147 1153 1154
2647 9 1147 1153 1171
2648 9 1154 1153 1171
2649 11 1436 1438 1452
2650 11 1436 1438 1453
2651 11 1436 1438 1454
2652 13 1452 1438 1453
2653 13 1452 1438 1454
2654 13 1453 1438 1454
2655 11 1436 1439 1455
2656 11 1436 1439 1456
2657 11 1436 1439 1457
2658 13 1455 1439 1456
2659 13 1455 1439 1457
2660 13 1456 1439 1457
2661 4 1144 1145 1146
2662 9 1144 1145 1158
2663 9 1146 1145 1158
2664 11 1149 1151 1165
2665 11 1149 1151 1166
2666 11 1149 1151 1167
2667 13 1165 1151 1166
2668 13 1165 1151 1167
2669 13 1166 1151 1167
2670 4 1145 1146 1147
2671 9 1145 1146 1159
2672 9 1147 1146 1159
2673 6 1148 1149 1150
2674 6 1148 1149 1151
2675 6 1148 1149 1152
2676 6 1150 1149 1151
2677 6 1150 1149 1152
2678 6 1151 1149 1152
2679 3 1146 1147 1148
2680 4 1146 1147 1153
2681 3 1148 1147 1153
2682 5 1147 1148 1149
2683 10 1147 1148 1160
2684 10 1147 1148 1161
2685 11 1149 1148 1160
2686 11 1149 1148 1161
2687 13 1160 1148 1161
2688 2 1019 1049 1050
2689 7 1019 1049 1062
2690 7 1019 1049 1063
2691 7 1050 1049 1062
2692 7 1050 1049 1063
2693 12 1062 1049 1063
2694 2 988 1018 1019
2695 7 988 1018 1031
2696 7 988 1018 1032
2697 7 1019 1018 1031
2698 7 1019 1018 1032
2699 12 1031 1018 1032
2700 1 1018 1019 1020
2701 2 1018 1019 1049
2702 1 1020 1019 1049
2703 7 1018 1019 1033
2704 8 1020 1019 1033
2705 7 1033 1019 1049
2706 4 992 998 999
2707 9 992 998 1016
2708 9 999 998 1016
2709 3 991 992 993
2710 4 991 992 998
2711 3 993 992 998
2712 4 989 999 998
2713 9 989 999 1017
2714 9 998 999 1017
2715 3 988 989 990
2716 3 988 989 999
2717 4 990 989 999
2718 4 989 990 991
2719 9 989 990 1003
2720 9 991 990 1003
2721 1 1491 1492 1493
2722 2 1491 1492 1522
2723 1 1493 1492 1522
2724 7 1491 1492 1506
2725 8 1493 1492 1506
2726 7 1506 1492 1522
2727 2 1492 1522 1523
2728 7 1492 1522 1535
2729 7 1492 1522 1536
2730 7 1523 1522 1535
2731 7 1523 1522 1536
2732 12 1535 1522 1536
2733 4 990 991 992
2734 9 990 991 1004
2735 9 992 991 1004
2736 1 987 988 989
2737 2 987 988 1018
2738 1 989 988 1018
2739 7 987 988 1002
2740 8 989 988 1002
2741 7 1002 988 1018
2742 2 956 987 988
2743 7 956 987 1000
2744 7 956 987 1001
2745 7 988 987 1000
2746 7 988 987 1001
2747 12 1000 987 1001
2748 1 955 956 957
2749 2 955 956 987
2750 1 957 956 987
2751 7 955 956 971
2752 8 957 956 971
2753 7 971 956 987
2754 11 676 677 689
2755 11 676 677 690
2756 11 676 677 691
2757 13 689 677 690
2758 13 689 677 691
2759 13 690 677 691
2760 4 960 966 967
2761 9 960 966 985
2762 9 967 966 985
2763 5 573 574 575
2764 10 573 574 586
2765 10 573 574 587
2766 11 575 574 586
2767 11 575 574 587
2768 13 586 574 587
2769 4 957 967 966
2770 9 957 967 986
2771 9 966 967 986
2772 2 956 955 968
2773 7 956 955 969
2774 7 956 955 970
2775 7 968 955 969
2776 7 968 955 970
2777 12 969 955 970
2778 7 955 968 1267
2779 7 955 968 1268
2780 7 955 968 1269
2781 12 1267 968 1268
2782 12 1267 968 1269
2783 12 1268 968 1269
2784 6 574 575 576
2785 6 574 575 577
2786 6 574 575 578
2787 6 576 575 577
2788 6 576 575 578
2789 6 577 575 578
2790 11 676 679 695
2791 11 676 679 696
2792 11 676 679 697
2793 13 695 679 696
2794 13 695 679 697
2795 13 696 679 697
2796 6 675 676 677
2797 6 675 676 678
2798 6 675 676 679
2799 6 677 676 678
2800 6 677 676 679
2801 6 678 676 679
2802 3 673 674 675
2803 4 673 674 680
2804 3 675 674 680
2805 3 1433 1434 1435
2806 4 1433 1434 1440
2807 3 1435 1434 1440
2808 4 1372 1378 1379
2809 9 1372 1378 1396
2810 9 1379 1378 1396
2811 5 674 675 676
2812 10 674 675 687
2813 10 674 675 688
2814 11 676 675 687
2815 11 676 675 688
2816 13 687 675 688
2817 5 1434 1435 1436
2818 10 1434 1435 1447
2819 10 1434 1435 1448
2820 11 1436 1435 1447
2821 11 1436 1435 1448
2822 13 1447 1435 1448
2823 14 1767 1766 1768
2824 6 1373 1374 1375
2825 6 1373 1374 1376
2826 6 1373 1374 1377
2827 6 1375 1374 1376
2828 6 1375 1374 1377
2829 6 1376 1374 1377
2830 11 1374 1375 1387
2831 11 1374 1375 1388
2832 11 1374 1375 1389
2833 13 1387 1375 1388
2834 13 1387 1375 1389
2835 13 1388 1375 1389
2836 5 1372 1373 1374
2837 10 1372 1373 1385
2838 10 1372 1373 1386
2839 11 1374 1373 1385
2840 11 1374 1373 1386
2841 13 1385 1373 1386
2842 3 1371 1372 1373
2843 4 1371 1372 1378
2844 3 1373 1372 1378
2845 11 1374 1376 1390
2846 11 1374 1376 1391
2847 11 1374 1376 1392
2848 13 1390 1376 1391
2849 13 1390 1376 1392
2850 13 1391 1376 1392
2851 2 1461 1491 1492
2852 7 1461 1491 1504
2853 7 1461 1491 1505
2854 7 1492 1491 1504
2855 7 1492 1491 1505
2856 12 1504 1491 1505
2857 11 1374 1377 1393
2858 11 1374 1377 1394
2859 11 1374 1377 1395
2860 13 1393 1377 1394
2861 13 1393 1377 1395
2862 13 1394 1377 1395
2863 4 1431 1432 1433
2864 9 1431 1432 1445
2865 9 1433 1432 1445
2866 4 1432 1433 1434
2867 9 1432 1433 1446
2868 9 1434 1433 1446
2869 14 1773 1772 1774
2870 4 1555 1556 1557
2871 9 1555 1556 1570
2872 9 1557 1556 1570
2873 4 1556 1557 1558
2874 9 1556 1557 1571
2875 9 1558 1557 1571
2876 11 544 545 557
2877 11 544 545 558
2878 11 544 545 559
2879 13 557 545 558
2880 13 557 545 559
2881 13 558 545 559
2882 3 1526 1527 1528
2883 4 1526 1527 1533
2884 3 1528 1527 1533
2885 4 1527 1533 1534
2886 9 1527 1533 1551
2887 9 1534 1533 1551
2888 4 1525 1526 1527
2889 9 1525 1526 1539
2890 9 1527 1526 1539
2891 4 1524 1525 1526
2892 9 1524 1525 1538
2893 9 1526 1525 1538
2894 2 1523 1553 1554
2895 7 1523 1553 1566
2896 7 1523 1553 1567
2897 7 1554 1553 1566
2898 7 1554 1553 1567
2899 12 1566 1553 1567
2900 3 1554 1555 1556
2901 3 1554 1555 1565
2902 4 1556 1555 1565
2903 4 1524 1534 1533
2904 9 1524 1534 1552
2905 9 1533 1534 1552
2906 1 1553 1554 1555
2907 2 1553 1554 1568
2908 1 1555 1554 1568
2909 7 1553 1554 1569
2910 8 1555 1554 1569
2911 7 1568 1554 1569
2912 3 1523 1524 1525
2913 3 1523 1524 1534
2914 4 1525 1524 1534
2915 1 1522 1523 1524
2916 2 1522 1523 1553
2917 1 1524 1523 1553
2918 7 1522 1523 1537
2919 8 1524 1523 1537
2920 7 1537 1523 1553
2921 4 1555 1565 1564
2922 9 1555 1565 1584
2923 9 1564 1565 1584
2924 7 1554 1568 1588
2925 7 1554 1568 1589
2926 7 1554 1568 1590
2927 12 1588 1568 1589
2928 12 1588 1568 1590
2929 12 1589 1568 1590
2930 4 1558 1564 1565
2931 9 1558 1564 1583
2932 9 1565 1564 1583
2933 11 575 576 588
2934 11 575 576 589
2935 11 575 576 590
2936 13 588 576 589
2937 13 588 576 590
2938 13 589 576 590
2939 11 575 577 591
2940 11 575 577 592
2941 11 575 577 593
2942 13 591 577 592
2943 13 591 577 593
2944 13 592 577 593
2945 11 1343 1345 1359
2946 11 1343 1345 1360
2947 11 1343 1345 1361
2948 13 1359 1345 1360
2949 13 1359 1345 1361
2950 13 1360 1345 1361
2951 4 1370 1371 1372
2952 9 1370 1371 1384
2953 9 1372 1371 1384
2954 14 1776 1775 1777
2955 3 1557 1558 1559
2956 4 1557 1558 1564
2957 3 1559 1558 1564
2958 5 449 450 451
2959 10 449 450 462
2960 10 449 450 463
2961 11 451 450 462
2962 11 451 450 463
2963 13 462 450 463
2964 4 449 455 456
2965 9 449 455 473
2966 9 456 455 473
2967 4 446 456 455
2968 9 446 456 474
2969 9 455 456 474
2970 11 451 452 464
2971 11 451 452 465
2972 11 451 452 466
2973 13 464 452 465
2974 13 464 452 466
2975 13 465 452 466
2976 11 451 453 467
2977 11 451 453 468
2978 11 451 453 469
2979 13 467 453 468
2980 13 467 453 469
2981 13 468 453 469
2982 4 1240 1246 1247
2983 9 1240 1246 1265
2984 9 1247 1246 1265
2985 6 481 482 483
2986 6 481 482 484
2987 6 481 482 485
2988 6 483 482 484
2989 6 483 482 485
2990 6 484 482 485
2991 5 480 481 482
2992 10 480 481 493
2993 10 480 481 494
2994 11 482 481 493
2995 11 482 481 494
2996 13 493 481 494
2997 4 416 417 418
2998 9 416 417 430
2999 9 418 417 430
3000 4 480 486 487
3001 9 480 486 504
3002 9 487 486 504
3003 3 479 480 481
3004 4 479 480 486
3005 3 481 480 486
3006 4 477 487 486
3007 9 477 487 505
3008 9 486 487 505
3009 4 415 425 424
3010 9 415 425 443
3011 9 424 425 443
3012 11 1025 1028 1044
3013 11 1025 1028 1045
3014 11 1025 1028 1046
3015 13 1044 1028 1045
3016 13 1044 1028 1046
3017 13 1045 1028 1046
3018 14 1815 1814 1816
3019 11 644 646 661
3020 11 644 646 662
3021 11 644 646 663
3022 13 661 646 662
3023 13 661 646 663
3024 13 662 646 663
3025 4 1178 1184 1185
3026 9 1178 1184 1202
3027 9 1185 1184 1202
3028 3 1177 1178 1179
3029 4 1177 1178 1184
3030 3 1179 1178 1184
3031 11 1242 1245 1262
3032 11 1242 1245 1263
3033 11 1242 1245 1264
3034 13 1262 1245 1263
3035 13 1262 1245 1264
3036 13 1263 1245 1264
3037 5 1240 1241 1242
3038 10 1240 1241 1254
3039 10 1240 1241 1255
3040 11 1242 1241 1254
3041 11 1242 1241 1255
3042 13 1254 1241 1255
3043 11 1087 1088 1100
3044 11 1087 1088 1101
3045 11 1087 1088 1102
3046 13 1100 1088 1101
3047 13 1100 1088 1102
3048 13 1101 1088 1102
3049 5 1085 1086 1087
3050 10 1085 1086 1098
3051 10 1085 1086 1099
3052 11 1087 1086 1098
3053 11 1087 1086 1099
3054 13 1098 1086 1099
3055 11 1025 1026 1038
3056 11 1025 1026 1039
3057 11 1025 1026 1040
3058 13 1038 1026 1039
3059 13 1038 1026 1040
3060 13 1039 1026 1040
3061 14 1830 1829 1831
3062 14 1878 1877 1879
3063 11 1149 1150 1162
3064 11 1149 1150 1163
3065 11 1149 1150 1164
3066 13 1162 1150 1163
3067 13 1162 1150 1164
3068 13 1163 1150 1164
3069 11 1149 1152 1168
3070 11 1149 1152 1169
3071 11 1149 1152 1170
3072 13 1168 1152 1169
3073 13 1168 1152 1170
3074 13 1169 1152 1170
3075 11 994 995 1007
3076 11 994 995 1008
3077 11 994 995 1009
3078 13 1007 995 1008
3079 13 1007 995 1009
3080 13 1008 995 1009
3081 5 992 993 994
3082 10 992 993 1005
3083 10 992 993 1006
3084 11 994 993 1005
3085 11 994 993 1006
3086 13 1005 993 1006
3087 7 600 614 634
3088 7 600 614 635
3089 7 600 614 636
3090 12 634 614 635
3091 12 634 614 636
3092 12 635 614 636
3093 4 573 579 580
3094 9 573 579 597
3095 9 580 579 597
3096 6 961 962 963
3097 6 961 962 964
3098 6 961 962 965
3099 6 963 962 964
3100 6 963 962 965
3101 6 964 962 965
3102 11 962 965 982
3103 11 962 965 983
3104 11 962 965 984
3105 13 982 965 983
3106 13 982 965 984
3107 13 983 965 984
3108 3 572 573 574
3109 4 572 573 579
3110 3 574 573 579
3111 11 962 963 976
3112 11 962 963 977
3113 11 962 963 978
3114 13 976 963 977
3115 13 976 963 978
3116 13 977 963 978
3117 14 1713 1712 1714
3118 11 544 546 560
3119 11 544 546 561
3120 11 544 546 562
3121 13 560 546 561
3122 13 560 546 562
3123 13 561 546 562
3124 6 543 544 545
3125 6 543 544 546
3126 6 543 544 547
3127 6 545 544 546
3128 6 545 544 547
3129 6 546 544 547
3130 5 542 543 544
3131 10 542 543 555
3132 10 542 543 556
3133 11 544 543 555
3134 11 544 543 556
3135 13 555 543 556
3136 4 540 541 542
3137 9 540 541 554
3138 9 542 541 554
3139 4 570 580 579
3140 9 570 580 598
3141 9 579 580 598

Dihedrals

1 3 384 385 386 387
2 3 386 385 384 394
3 3 384 385 386 399
4 3 398 385 386 399
5 3 446 447 448 449
6 3 448 447 446 456
7 3 446 447 448 461
8 3 460 447 448 461
9 3 447 448 449 450
10 3 447 448 449 455
11 3 449 448 447 460
12 3 445 446 447 448
13 3 445 446 456 455
14 1 447 446 445 475
15 3 447 446 456 455
16 1 456 446 445 475
17 3 445 446 447 460
18 3 445 446 456 474
19 9 447 446 445 459
20 5 447 446 445 459
21 3 447 446 456 474
22 9 456 446 445 459
23 5 456 446 445 459
24 3 456 446 447 460
25 4 450 451 452 464
26 4 450 451 452 465
27 4 450 451 452 466
28 4 450 451 453 467
29 4 450 451 453 468
30 4 450 451 453 469
31 4 450 451 454 470
32 4 450 451 454 471
33 4 450 451 454 472
34 4 452 451 450 462
35 4 452 451 450 463
36 4 452 451 453 467
37 4 452 451 453 468
38 4 452 451 453 469
39 4 452 451 454 470
40 4 452 451 454 471
41 4 452 451 454 472
42 4 453 451 450 462
43 4 453 451 450 463
44 4 453 451 452 464
45 4 453 451 452 465
46 4 453 451 452 466
47 4 453 451 454 470
48 4 453 451 454 471
49 4 453 451 454 472
50 4 454 451 450 462
51 4 454 451 450 463
52 4 454 451 452 464
53 4 454 451 452 465
54 4 454 451 452 466
55 4 454 451 453 467
56 4 454 451 453 468
57 4 454 451 453 469
58 5 448 449 450 451
59 3 448 449 455 456
60 3 450 449 455 456
61 5 448 449 450 462
62 5 448 449 450 463
63 3 448 449 455 473
64 3 450 449 448 461
65 3 450 449 455 473
66 3 455 449 448 461
67 5 455 449 450 462
68 5 455 449 450 463
69 3 385 386 387 388
70 3 385 386 387 393
71 3 387 386 385 398
72 4 357 358 359 371
73 4 357 358 359 372
74 4 357 358 359 373
75 4 357 358 360 374
76 4 357 358 360 375
77 4 357 358 360 376
78 4 357 358 361 377
79 4 357 358 361 378
80 4 357 358 361 379
81 4 359 358 357 369
82 4 359 358 357 370
83 4 359 358 360 374
84 4 359 358 360 375
85 4 359 358 360 376
86 4 359 358 361 377
87 4 359 358 361 378
88 4 359 358 361 379
89 4 360 358 357 369
90 4 360 358 357 370
91 4 360 358 359 371
92 4 360 358 359 372
93 4 360 358 359 373
94 4 360 358 361 377
95 4 360 358 361 378
96 4 360 358 361 379
97 4 361 358 357 369
98 4 361 358 357 370
99 4 361 358 359 371
100 4 361 358 359 372
101 4 361 358 359 373
102 4 361 358 360 374
103 4 361 358 360 375
104 4 361 358 360 376
105 6 356 357 358 359
106 7 356 357 358 359
107 6 356 357 358 360
108 7 356 357 358 360
109 6 356 357 358 361
110 7 356 357 358 361
111 5 358 357 356 362
112 3 509 510 511 512
113 3 509 510 511 517
114 3 511 510 509 522
115 3 508 509 510 511
116 3 510 509 508 518
117 3 508 509 510 523
118 3 522 509 510 523
119 5 355 356 357 358
120 3 355 356 362 363
121 3 357 356 362 363
122 5 355 356 357 369
123 5 355 356 357 370
124 3 355 356 362 380
125 3 357 356 355 368
126 3 357 356 362 380
127 3 362 356 355 368
128 5 362 356 357 369
129 5 362 356 357 370
130 3 354 355 356 357
131 3 354 355 356 362
132 3 356 355 354 367
133 3 353 354 355 356
134 3 355 354 353 363
135 3 353 354 355 368
136 3 367 354 355 368
137 1 475 476 477 478
138 1 475 476 477 487
139 2 475 476 506 507
140 4 477 476 506 507
141 8 475 476 506 519
142 8 475 476 506 520
143 4 477 476 475 488
144 4 477 476 475 489
145 4 477 476 506 519
146 4 477 476 506 520
147 8 490 476 506 507
148 10 490 476 506 519
149 10 490 476 506 520
150 3 477 478 479 480
151 3 479 478 477 487
152 3 477 478 479 492
153 3 491 478 479 492
154 3 478 479 480 481
155 3 478 479 480 486
156 3 480 479 478 491
157 3 476 477 478 479
158 3 476 477 487 486
159 1 478 477 476 506
160 3 478 477 487 486
161 1 487 477 476 506
162 3 476 477 478 491
163 3 476 477 487 505
164 9 478 477 476 490
165 5 478 477 476 490
166 3 478 477 487 505
167 9 487 477 476 490
168 5 487 477 476 490
169 3 487 477 478 491
170 4 476 506 507 508
171 2 476 506 507 537
172 8 476 506 507 521
173 10 519 506 507 521
174 8 519 506 507 537
175 10 520 506 507 521
176 8 520 506 507 537
177 3 414 415 416 417
178 3 414 415 425 424
179 1 416 415 414 444
180 3 416 415 425 424
181 1 425 415 414 444
182 3 414 415 416 429
183 3 414 415 425 443
184 9 416 415 414 428
185 5 416 415 414 428
186 3 416 415 425 443
187 9 425 415 414 428
188 5 425 415 414 428
189 3 425 415 416 429
190 3 415 416 417 418
191 3 417 416 415 425
192 3 415 416 417 430
193 3 429 416 417 430
194 4 414 444 445 446
195 2 414 444 445 475
196 8 414 444 445 459
197 10 457 444 445 459
198 8 457 444 445 475
199 10 458 444 445 459
200 8 458 444 445 475
201 1 413 414 415 416
202 1 413 414 415 425
203 2 413 414 444 445
204 4 415 414 444 445
205 8 413 414 444 457
206 8 413 414 444 458
207 4 415 414 413 426
208 4 415 414 413 427
209 4 415 414 444 457
210 4 415 414 444 458
211 8 428 414 444 445
212 10 428 414 444 457
213 10 428 414 444 458
214 4 445 475 476 477
215 2 445 475 476 506
216 8 445 475 476 490
217 10 488 475 476 490
218 8 488 475 476 506
219 10 489 475 476 490
220 8 489 475 476 506
221 1 444 445 446 447
222 1 444 445 446 456
223 2 444 445 475 476
224 4 446 445 475 476
225 8 444 445 475 488
226 8 444 445 475 489
227 4 446 445 444 457
228 4 446 445 444 458
229 4 446 445 475 488
230 4 446 445 475 489
231 8 459 445 475 476
232 10 459 445 475 488
233 10 459 445 475 489
234 4 383 413 414 415
235 2 383 413 414 444
236 8 383 413 414 428
237 10 426 413 414 428
238 8 426 413 414 444
239 10 427 413 414 428
240 8 427 413 414 444
241 5 386 387 388 389
242 3 386 387 393 394
243 3 388 387 393 394
244 5 386 387 388 400
245 5 386 387 388 401
246 3 386 387 393 411
247 3 388 387 386 399
248 3 388 387 393 411
249 3 393 387 386 399
250 5 393 387 388 400
251 5 393 387 388 401
252 6 387 388 389 390
253 7 387 388 389 390
254 6 387 388 389 391
255 7 387 388 389 391
256 6 387 388 389 392
257 7 387 388 389 392
258 5 389 388 387 393
259 3 387 393 394 412
260 3 411 393 394 412
261 3 384 394 393 387
262 3 384 394 393 411
263 3 383 384 385 386
264 3 383 384 394 393
265 1 385 384 383 413
266 3 385 384 394 393
267 1 394 384 383 413
268 3 383 384 385 398
269 3 383 384 394 412
270 9 385 384 383 397
271 5 385 384 383 397
272 3 385 384 394 412
273 9 394 384 383 397
274 5 394 384 383 397
275 3 394 384 385 398
276 4 388 389 390 402
277 4 388 389 390 403
278 4 388 389 390 404
279 4 388 389 391 405
280 4 388 389 391 406
281 4 388 389 391 407
282 4 388 389 392 408
283 4 388 389 392 409
284 4 388 389 392 410
285 4 390 389 388 400
286 4 390 389 388 401
287 4 390 389 391 405
288 4 390 389 391 406
289 4 390 389 391 407
290 4 390 389 392 408
291 4 390 389 392 409
292 4 390 389 392 410
293 4 391 389 388 400
294 4 391 389 388 401
295 4 391 389 390 402
296 4 391 389 390 403
297 4 391 389 390 404
298 4 391 389 392 408
299 4 391 389 392 409
300 4 391 389 392 410
301 4 392 389 388 400
302 4 392 389 388 401
303 4 392 389 390 402
304 4 392 389 390 403
305 4 392 389 390 404
306 4 392 389 391 405
307 4 392 389 391 406
308 4 392 389 391 407
309 4 14 1 2 3
310 2 14 1 2 33
311 8 2 1 14 313
312 8 2 1 14 314
313 8 2 1 14 315
314 4 15 1 2 3
315 4 16 1 2 3
316 8 14 1 2 17
317 10 15 1 2 17
318 8 15 1 2 33
319 10 15 1 14 313
320 10 15 1 14 314
321 10 15 1 14 315
322 10 16 1 2 17
323 8 16 1 2 33
324 10 16 1 14 313
325 10 16 1 14 314
326 10 16 1 14 315
327 4 1179 1180 1181 1193
328 4 1179 1180 1181 1194
329 4 1179 1180 1181 1195
330 4 1179 1180 1182 1196
331 4 1179 1180 1182 1197
332 4 1179 1180 1182 1198
333 4 1179 1180 1183 1199
334 4 1179 1180 1183 1200
335 4 1179 1180 1183 1201
336 4 1181 1180 1179 1191
337 4 1181 1180 1179 1192
338 4 1181 1180 1182 1196
339 4 1181 1180 1182 1197
340 4 1181 1180 1182 1198
341 4 1181 1180 1183 1199
342 4 1181 1180 1183 1200
343 4 1181 1180 1183 1201
344 4 1182 1180 1179 1191
345 4 1182 1180 1179 1192
346 4 1182 1180 1181 1193
347 4 1182 1180 1181 1194
348 4 1182 1180 1181 1195
349 4 1182 1180 1183 1199
350 4 1182 1180 1183 1200
351 4 1182 1180 1183 1201
352 4 1183 1180 1179 1191
353 4 1183 1180 1179 1192
354 4 1183 1180 1181 1193
355 4 1183 1180 1181 1194
356 4 1183 1180 1181 1195
357 4 1183 1180 1182 1196
358 4 1183 1180 1182 1197
359 4 1183 1180 1182 1198
360 6 1178 1179 1180 1181
361 7 1178 1179 1180 1181
362 6 1178 1179 1180 1182
363 7 1178 1179 1180 1182
364 6 1178 1179 1180 1183
365 7 1178 1179 1180 1183
366 5 1180 1179 1178 1184
367 6 324 325 326 327
368 7 324 325 326 327
369 6 324 325 326 328
370 7 324 325 326 328
371 6 324 325 326 329
372 7 324 325 326 329
373 5 326 325 324 330
374 4 325 326 327 340
375 4 325 326 327 341
376 4 325 326 327 342
377 4 325 326 328 343
378 4 325 326 328 344
379 4 325 326 328 345
380 4 325 326 329 346
381 4 325 326 329 347
382 4 325 326 329 348
383 4 327 326 325 338
384 4 327 326 325 339
385 4 327 326 328 343
386 4 327 326 328 344
387 4 327 326 328 345
388 4 327 326 329 346
389 4 327 326 329 347
390 4 327 326 329 348
391 4 328 326 325 338
392 4 328 326 325 339
393 4 328 326 327 340
394 4 328 326 327 341
395 4 328 326 327 342
396 4 328 326 329 346
397 4 328 326 329 347
398 4 328 326 329 348
399 4 329 326 325 338
400 4 329 326 325 339
401 4 329 326 327 340
402 4 329 326 327 341
403 4 329 326 327 342
404 4 329 326 328 343
405 4 329 326 328 344
406 4 329 326 328 345
407 4 1241 1242 1243 1256
408 4 1241 1242 1243 1257
409 4 1241 1242 1243 1258
410 4 1241 1242 1244 1259
411 4 1241 1242 1244 1260
412 4 1241 1242 1244 1261
413 4 1241 1242 1245 1262
414 4 1241 1242 1245 1263
415 4 1241 1242 1245 1264
416 4 1243 1242 1241 1254
417 4 1243 1242 1241 1255
418 4 1243 1242 1244 1259
419 4 1243 1242 1244 1260
420 4 1243 1242 1244 1261
421 4 1243 1242 1245 1262
422 4 1243 1242 1245 1263
423 4 1243 1242 1245 1264
424 4 1244 1242 1241 1254
425 4 1244 1242 1241 1255
426 4 1244 1242 1243 1256
427 4 1244 1242 1243 1257
428 4 1244 1242 1243 1258
429 4 1244 1242 1245 1262
430 4 1244 1242 1245 1263
431 4 1244 1242 1245 1264
432 4 1245 1242 1241 1254
433 4 1245 1242 1241 1255
434 4 1245 1242 1243 1256
435 4 1245 1242 1243 1257
436 4 1245 1242 1243 1258
437 4 1245 1242 1244 1259
438 4 1245 1242 1244 1260
439 4 1245 1242 1244 1261
440 3 356 362 363 381
441 3 380 362 363 381
442 3 353 363 362 356
443 3 353 363 362 380
444 3 352 353 354 355
445 3 352 353 363 362
446 1 354 353 352 382
447 3 354 353 363 362
448 1 363 353 352 382
449 3 352 353 354 367
450 3 352 353 363 381
451 9 354 353 352 366
452 5 354 353 352 366
453 3 354 353 363 381
454 9 363 353 352 366
455 5 363 353 352 366
456 3 363 353 354 367
457 1 351 352 353 354
458 1 351 352 353 363
459 2 351 352 382 383
460 4 353 352 382 383
461 8 351 352 382 395
462 8 351 352 382 396
463 4 353 352 351 364
464 4 353 352 351 365
465 4 353 352 382 395
466 4 353 352 382 396
467 8 366 352 382 383
468 10 366 352 382 395
469 10 366 352 382 396
470 4 1086 1087 1088 1100
471 4 1086 1087 1088 1101
472 4 1086 1087 1088 1102
473 4 1086 1087 1089 1103
474 4 1086 1087 1089 1104
475 4 1086 1087 1089 1105
476 4 1086 1087 1090 1106
477 4 1086 1087 1090 1107
478 4 1086 1087 1090 1108
479 4 1088 1087 1086 1098
480 4 1088 1087 1086 1099
481 4 1088 1087 1089 1103
482 4 1088 1087 1089 1104
483 4 1088 1087 1089 1105
484 4 1088 1087 1090 1106
485 4 1088 1087 1090 1107
486 4 1088 1087 1090 1108
487 4 1089 1087 1086 1098
488 4 1089 1087 1086 1099
489 4 1089 1087 1088 1100
490 4 1089 1087 1088 1101
491 4 1089 1087 1088 1102
492 4 1089 1087 1090 1106
493 4 1089 1087 1090 1107
494 4 1089 1087 1090 1108
495 4 1090 1087 1086 1098
496 4 1090 1087 1086 1099
497 4 1090 1087 1088 1100
498 4 1090 1087 1088 1101
499 4 1090 1087 1088 1102
500 4 1090 1087 1089 1103
501 4 1090 1087 1089 1104
502 4 1090 1087 1089 1105
503 4 352 382 383 384
504 2 352 382 383 413
505 8 352 382 383 397
506 10 395 382 383 397
507 8 395 382 383 413
508 10 396 382 383 397
509 8 396 382 383 413
510 1 382 383 384 385
511 1 382 383 384 394
512 2 382 383 413 414
513 4 384 383 413 414
514 8 382 383 413 426
515 8 382 383 413 427
516 4 384 383 382 395
517 4 384 383 382 396
518 4 384 383 413 426
519 4 384 383 413 427
520 8 397 383 413 414
521 10 397 383 413 426
522 10 397 383 413 427
523 4 605 606 607 620
524 4 605 606 607 621
525 4 605 606 607 622
526 4 605 606 608 623
527 4 605 606 608 624
528 4 605 606 608 625
529 4 605 606 609 626
530 4 605 606 609 627
531 4 605 606 609 628
532 4 607 606 605 618
533 4 607 606 605 619
534 4 607 606 608 623
535 4 607 606 608 624
536 4 607 606 608 625
537 4 607 606 609 626
538 4 607 606 609 627
539 4 607 606 609 628
540 4 608 606 605 618
541 4 608 606 605 619
542 4 608 606 607 620
543 4 608 606 607 621
544 4 608 606 607 622
545 4 608 606 609 626
546 4 608 606 609 627
547 4 608 606 609 628
548 4 609 606 605 618
549 4 609 606 605 619
550 4 609 606 607 620
551 4 609 606 607 621
552 4 609 606 607 622
553 4 609 606 608 623
554 4 609 606 608 624
555 4 609 606 608 625
556 3 601 611 610 604
557 3 601 611 610 629
558 3 604 610 611 630
559 3 629 610 611 630
560 6 604 605 606 607
561 7 604 605 606 607
562 6 604 605 606 608
563 7 604 605 606 608
564 6 604 605 606 609
565 7 604 605 606 609
566 5 606 605 604 610
567 5 603 604 605 606
568 3 603 604 610 611
569 3 605 604 610 611
570 5 603 604 605 618
571 5 603 604 605 619
572 3 603 604 610 629
573 3 605 604 603 617
574 3 605 604 610 629
575 3 610 604 603 617
576 5 610 604 605 618
577 5 610 604 605 619
578 3 602 603 604 605
579 3 602 603 604 610
580 3 604 603 602 616
581 3 252 253 254 255
582 3 254 253 252 262
583 3 252 253 254 267
584 3 266 253 254 267
585 4 163 164 165 177
586 4 163 164 165 178
587 4 163 164 165 179
588 4 163 164 166 180
589 4 163 164 166 181
590 4 163 164 166 182
591 4 163 164 167 183
592 4 163 164 167 184
593 4 163 164 167 185
594 4 165 164 163 175
595 4 165 164 163 176
596 4 165 164 166 180
597 4 165 164 166 181
598 4 165 164 166 182
599 4 165 164 167 183
600 4 165 164 167 184
601 4 165 164 167 185
602 4 166 164 163 175
603 4 166 164 163 176
604 4 166 164 165 177
605 4 166 164 165 178
606 4 166 164 165 179
607 4 166 164 167 183
608 4 166 164 167 184
609 4 166 164 167 185
610 4 167 164 163 175
611 4 167 164 163 176
612 4 167 164 165 177
613 4 167 164 165 178
614 4 167 164 165 179
615 4 167 164 166 180
616 4 167 164 166 181
617 4 167 164 166 182
618 5 161 162 163 164
619 3 161 162 168 169
620 3 163 162 168 169
621 5 161 162 163 175
622 5 161 162 163 176
623 3 161 162 168 186
624 3 163 162 161 174
625 3 163 162 168 186
626 3 168 162 161 174
627 5 168 162 163 175
628 5 168 162 163 176
629 3 160 161 162 163
630 3 160 161 162 168
631 3 162 161 160 173
632 3 159 160 161 162
633 3 161 160 159 169
634 3 159 160 161 174
635 3 173 160 161 174
636 6 255 256 257 258
637 7 255 256 257 258
638 6 255 256 257 259
639 7 255 256 257 259
640 6 255 256 257 260
641 7 255 256 257 260
642 5 257 256 255 261
643 5 254 255 256 257
644 3 254 255 261 262
645 3 256 255 261 262
646 5 254 255 256 268
647 5 254 255 256 269
648 3 254 255 261 279
649 3 256 255 254 267
650 3 256 255 261 279
651 3 261 255 254 267
652 5 261 255 256 268
653 5 261 255 256 269
654 4 256 257 258 270
655 4 256 257 258 271
656 4 256 257 258 272
657 4 256 257 259 273
658 4 256 257 259 274
659 4 256 257 259 275
660 4 256 257 260 276
661 4 256 257 260 277
662 4 256 257 260 278
663 4 258 257 256 268
664 4 258 257 256 269
665 4 258 257 259 273
666 4 258 257 259 274
667 4 258 257 259 275
668 4 258 257 260 276
669 4 258 257 260 277
670 4 258 257 260 278
671 4 259 257 256 268
672 4 259 257 256 269
673 4 259 257 258 270
674 4 259 257 258 271
675 4 259 257 258 272
676 4 259 257 260 276
677 4 259 257 260 277
678 4 259 257 260 278
679 4 260 257 256 268
680 4 260 257 256 269
681 4 260 257 258 270
682 4 260 257 258 271
683 4 260 257 258 272
684 4 260 257 259 273
685 4 260 257 259 274
686 4 260 257 259 275
687 4 993 994 995 1007
688 4 993 994 995 1008
689 4 993 994 995 1009
690 4 993 994 996 1010
691 4 993 994 996 1011
692 4 993 994 996 1012
693 4 993 994 997 1013
694 4 993 994 997 1014
695 4 993 994 997 1015
696 4 995 994 993 1005
697 4 995 994 993 1006
698 4 995 994 996 1010
699 4 995 994 996 1011
700 4 995 994 996 1012
701 4 995 994 997 1013
702 4 995 994 997 1014
703 4 995 994 997 1015
704 4 996 994 993 1005
705 4 996 994 993 1006
706 4 996 994 995 1007
707 4 996 994 995 1008
708 4 996 994 995 1009
709 4 996 994 997 1013
710 4 996 994 997 1014
711 4 996 994 997 1015
712 4 997 994 993 1005
713 4 997 994 993 1006
714 4 997 994 995 1007
715 4 997 994 995 1008
716 4 997 994 995 1009
717 4 997 994 996 1010
718 4 997 994 996 1011
719 4 997 994 996 1012
720 3 600 601 602 603
721 3 600 601 611 610
722 1 602 601 600 614
723 3 602 601 611 610
724 1 611 601 600 614
725 3 600 601 602 616
726 3 600 601 611 630
727 9 602 601 600 615
728 5 602 601 600 615
729 3 602 601 611 630
730 9 611 601 600 615
731 5 611 601 600 615
732 3 611 601 602 616
733 3 601 602 603 604
734 3 603 602 601 611
735 3 601 602 603 617
736 3 616 602 603 617
737 3 253 254 255 256
738 3 253 254 255 261
739 3 255 254 253 266
740 1 599 600 601 602
741 1 599 600 601 611
742 8 599 600 614 634
743 8 599 600 614 635
744 8 599 600 614 636
745 4 601 600 599 612
746 4 601 600 599 613
747 4 601 600 614 634
748 4 601 600 614 635
749 4 601 600 614 636
750 10 615 600 614 634
751 10 615 600 614 635
752 10 615 600 614 636
753 3 286 292 293 312
754 3 311 292 293 312
755 3 283 284 285 286
756 3 285 284 283 293
757 3 283 284 285 299
758 3 298 284 285 299
759 3 283 293 292 286
760 3 283 293 292 311
761 5 285 286 287 288
762 3 285 286 292 293
763 3 287 286 292 293
764 5 285 286 287 300
765 5 285 286 287 301
766 3 285 286 292 311
767 3 287 286 285 299
768 3 287 286 292 311
769 3 292 286 285 299
770 5 292 286 287 300
771 5 292 286 287 301
772 3 570 571 572 573
773 3 572 571 570 580
774 3 570 571 572 585
775 3 584 571 572 585
776 3 571 572 573 574
777 3 571 572 573 579
778 3 573 572 571 584
779 3 284 285 286 287
780 3 284 285 286 292
781 3 286 285 284 298
782 6 286 287 288 289
783 7 286 287 288 289
784 6 286 287 288 290
785 7 286 287 288 290
786 6 286 287 288 291
787 7 286 287 288 291
788 5 288 287 286 292
789 4 287 288 289 302
790 4 287 288 289 303
791 4 287 288 289 304
792 4 287 288 290 305
793 4 287 288 290 306
794 4 287 288 290 307
795 4 287 288 291 308
796 4 287 288 291 309
797 4 287 288 291 310
798 4 289 288 287 300
799 4 289 288 287 301
800 4 289 288 290 305
801 4 289 288 290 306
802 4 289 288 290 307
803 4 289 288 291 308
804 4 289 288 291 309
805 4 289 288 291 310
806 4 290 288 287 300
807 4 290 288 287 301
808 4 290 288 289 302
809 4 290 288 289 303
810 4 290 288 289 304
811 4 290 288 291 308
812 4 290 288 291 309
813 4 290 288 291 310
814 4 291 288 287 300
815 4 291 288 287 301
816 4 291 288 289 302
817 4 291 288 289 303
818 4 291 288 289 304
819 4 291 288 290 305
820 4 291 288 290 306
821 4 291 288 290 307
822 4 194 195 196 208
823 4 194 195 196 209
824 4 194 195 196 210
825 4 194 195 197 211
826 4 194 195 197 212
827 4 194 195 197 213
828 4 194 195 198 214
829 4 194 195 198 215
830 4 194 195 198 216
831 4 196 195 194 206
832 4 196 195 194 207
833 4 196 195 197 211
834 4 196 195 197 212
835 4 196 195 197 213
836 4 196 195 198 214
837 4 196 195 198 215
838 4 196 195 198 216
839 4 197 195 194 206
840 4 197 195 194 207
841 4 197 195 196 208
842 4 197 195 196 209
843 4 197 195 196 210
844 4 197 195 198 214
845 4 197 195 198 215
846 4 197 195 198 216
847 4 198 195 194 206
848 4 198 195 194 207
849 4 198 195 196 208
850 4 198 195 196 209
851 4 198 195 196 210
852 4 198 195 197 211
853 4 198 195 197 212
854 4 198 195 197 213
855 3 162 168 169 187
856 3 186 168 169 187
857 6 193 194 195 196
858 7 193 194 195 196
859 6 193 194 195 197
860 7 193 194 195 197
861 6 193 194 195 198
862 7 193 194 195 198
863 5 195 194 193 199
864 6 162 163 164 165
865 7 162 163 164 165
866 6 162 163 164 166
867 7 162 163 164 166
868 6 162 163 164 167
869 7 162 163 164 167
870 5 164 163 162 168
871 5 192 193 194 195
872 3 192 193 199 200
873 3 194 193 199 200
874 5 192 193 194 206
875 5 192 193 194 207
876 3 192 193 199 217
877 3 194 193 192 205
878 3 194 193 199 217
879 3 199 193 192 205
880 5 199 193 194 206
881 5 199 193 194 207
882 5 541 542 543 544
883 3 541 542 548 549
884 3 543 542 548 549
885 5 541 542 543 555
886 5 541 542 543 556
887 3 541 542 548 566
888 3 543 542 541 554
889 3 543 542 548 566
890 3 548 542 541 554
891 5 548 542 543 555
892 5 548 542 543 556
893 3 193 199 200 218
894 3 217 199 200 218
895 3 542 548 549 567
896 3 566 548 549 567
897 3 190 200 199 193
898 3 190 200 199 217
899 4 507 537 538 539
900 2 507 537 538 568
901 8 507 537 538 552
902 10 550 537 538 552
903 8 550 537 538 568
904 10 551 537 538 552
905 8 551 537 538 568
906 1 537 538 539 540
907 1 537 538 539 549
908 2 537 538 568 569
909 4 539 538 568 569
910 8 537 538 568 581
911 8 537 538 568 582
912 4 539 538 537 550
913 4 539 538 537 551
914 4 539 538 568 581
915 4 539 538 568 582
916 8 552 538 568 569
917 10 552 538 568 581
918 10 552 538 568 582
919 4 538 568 569 570
920 2 538 568 569 599
921 8 538 568 569 583
922 10 581 568 569 583
923 8 581 568 569 599
924 10 582 568 569 583
925 8 582 568 569 599
926 3 539 549 548 542
927 3 539 549 548 566
928 3 538 539 540 541
929 3 538 539 549 548
930 1 540 539 538 568
931 3 540 539 549 548
932 1 549 539 538 568
933 3 538 539 540 553
934 3 538 539 549 567
935 9 540 539 538 552
936 5 540 539 538 552
937 3 540 539 549 567
938 9 549 539 538 552
939 5 549 539 538 552
940 3 549 539 540 553
941 1 568 569 570 571
942 1 568 569 570 580
943 2 568 569 599 600
944 4 570 569 599 600
945 8 568 569 599 612
946 8 568 569 599 613
947 4 570 569 568 581
948 4 570 569 568 582
949 4 570 569 599 612
950 4 570 569 599 613
951 8 583 569 599 600
952 10 583 569 599 612
953 10 583 569 599 613
954 3 539 540 541 542
955 3 541 540 539 549
956 3 539 540 541 554
957 3 553 540 541 554
958 4 569 599 600 601
959 2 569 599 600 614
960 8 569 599 600 615
961 8 612 599 600 614
962 10 612 599 600 615
963 8 613 599 600 614
964 10 613 599 600 615
965 3 569 570 571 572
966 3 569 570 580 579
967 1 571 570 569 599
968 3 571 570 580 579
969 1 580 570 569 599
970 3 569 570 571 584
971 3 569 570 580 598
972 9 571 570 569 583
973 5 571 570 569 583
974 3 571 570 580 598
975 9 580 570 569 583
976 5 580 570 569 583
977 3 580 570 571 584
978 3 507 508 509 510
979 3 507 508 518 517
980 1 509 508 507 537
981 3 509 508 518 517
982 1 518 508 507 537
983 3 507 508 509 522
984 3 507 508 518 536
985 9 509 508 507 521
986 5 509 508 507 521
987 3 509 508 518 536
988 9 518 508 507 521
989 5 518 508 507 521
990 3 518 508 509 522
991 1 506 507 508 509
992 1 506 507 508 518
993 2 506 507 537 538
994 4 508 507 537 538
995 8 506 507 537 550
996 8 506 507 537 551
997 4 508 507 506 519
998 4 508 507 506 520
999 4 508 507 537 550
1000 4 508 507 537 551
1001 8 521 507 537 538
1002 10 521 507 537 550
1003 10 521 507 537 551
1004 6 829 830 831 832
1005 7 829 830 831 832
1006 6 829 830 831 833
1007 7 829 830 831 833
1008 6 829 830 831 834
1009 7 829 830 831 834
1010 5 831 830 829 835
1011 4 830 831 832 844
1012 4 830 831 832 845
1013 4 830 831 832 846
1014 4 830 831 833 847
1015 4 830 831 833 848
1016 4 830 831 833 849
1017 4 830 831 834 850
1018 4 830 831 834 851
1019 4 830 831 834 852
1020 4 832 831 830 842
1021 4 832 831 830 843
1022 4 832 831 833 847
1023 4 832 831 833 848
1024 4 832 831 833 849
1025 4 832 831 834 850
1026 4 832 831 834 851
1027 4 832 831 834 852
1028 4 833 831 830 842
1029 4 833 831 830 843
1030 4 833 831 832 844
1031 4 833 831 832 845
1032 4 833 831 832 846
1033 4 833 831 834 850
1034 4 833 831 834 851
1035 4 833 831 834 852
1036 4 834 831 830 842
1037 4 834 831 830 843
1038 4 834 831 832 844
1039 4 834 831 832 845
1040 4 834 831 832 846
1041 4 834 831 833 847
1042 4 834 831 833 848
1043 4 834 831 833 849
1044 3 827 828 829 830
1045 3 827 828 829 835
1046 3 829 828 827 840
1047 5 828 829 830 831
1048 3 828 829 835 836
1049 3 830 829 835 836
1050 5 828 829 830 842
1051 5 828 829 830 843
1052 3 828 829 835 853
1053 3 830 829 828 841
1054 3 830 829 835 853
1055 3 835 829 828 841
1056 5 835 829 830 842
1057 5 835 829 830 843
1058 3 829 835 836 854
1059 3 853 835 836 854
1060 3 826 836 835 829
1061 3 826 836 835 853
1062 3 825 826 827 828
1063 3 825 826 836 835
1064 1 827 826 825 855
1065 3 827 826 836 835
1066 1 836 826 825 855
1067 3 825 826 827 840
1068 3 825 826 836 854
1069 9 827 826 825 839
1070 5 827 826 825 839
1071 3 827 826 836 854
1072 9 836 826 825 839
1073 5 836 826 825 839
1074 3 836 826 827 840
1075 3 826 827 828 829
1076 3 828 827 826 836
1077 3 826 827 828 841
1078 3 840 827 828 841
1079 3 889 890 891 892
1080 3 889 890 891 897
1081 3 891 890 889 902
1082 5 1309 1310 1311 1312
1083 3 1309 1310 1316 1317
1084 3 1311 1310 1316 1317
1085 5 1309 1310 1311 1323
1086 5 1309 1310 1311 1324
1087 3 1309 1310 1316 1334
1088 3 1311 1310 1309 1322
1089 3 1311 1310 1316 1334
1090 3 1316 1310 1309 1322
1091 5 1316 1310 1311 1323
1092 5 1316 1310 1311 1324
1093 3 1310 1316 1317 1335
1094 3 1334 1316 1317 1335
1095 4 7 8 9 22
1096 4 7 8 9 23
1097 4 7 8 9 24
1098 4 7 8 10 25
1099 4 7 8 10 26
1100 4 7 8 10 27
1101 4 7 8 11 28
1102 4 7 8 11 29
1103 4 7 8 11 30
1104 4 9 8 7 20
1105 4 9 8 7 21
1106 4 9 8 10 25
1107 4 9 8 10 26
1108 4 9 8 10 27
1109 4 9 8 11 28
1110 4 9 8 11 29
1111 4 9 8 11 30
1112 4 10 8 7 20
1113 4 10 8 7 21
1114 4 10 8 9 22
1115 4 10 8 9 23
1116 4 10 8 9 24
1117 4 10 8 11 28
1118 4 10 8 11 29
1119 4 10 8 11 30
1120 4 11 8 7 20
1121 4 11 8 7 21
1122 4 11 8 9 22
1123 4 11 8 9 23
1124 4 11 8 9 24
1125 4 11 8 10 25
1126 4 11 8 10 26
1127 4 11 8 10 27
1128 6 6 7 8 9
1129 7 6 7 8 9
1130 6 6 7 8 10
1131 7 6 7 8 10
1132 6 6 7 8 11
1133 7 6 7 8 11
1134 5 8 7 6 12
1135 4 512 513 514 526
1136 4 512 513 514 527
1137 4 512 513 514 528
1138 4 512 513 515 529
1139 4 512 513 515 530
1140 4 512 513 515 531
1141 4 512 513 516 532
1142 4 512 513 516 533
1143 4 512 513 516 534
1144 4 514 513 512 524
1145 4 514 513 512 525
1146 4 514 513 515 529
1147 4 514 513 515 530
1148 4 514 513 515 531
1149 4 514 513 516 532
1150 4 514 513 516 533
1151 4 514 513 516 534
1152 4 515 513 512 524
1153 4 515 513 512 525
1154 4 515 513 514 526
1155 4 515 513 514 527
1156 4 515 513 514 528
1157 4 515 513 516 532
1158 4 515 513 516 533
1159 4 515 513 516 534
1160 4 516 513 512 524
1161 4 516 513 512 525
1162 4 516 513 514 526
1163 4 516 513 514 527
1164 4 516 513 514 528
1165 4 516 513 515 529
1166 4 516 513 515 530
1167 4 516 513 515 531
1168 6 511 512 513 514
1169 7 511 512 513 514
1170 6 511 512 513 515
1171 7 511 512 513 515
1172 6 511 512 513 516
1173 7 511 512 513 516
1174 5 513 512 511 517
1175 5 510 511 512 513
1176 3 510 511 517 518
1177 3 512 511 517 518
1178 5 510 511 512 524
1179 5 510 511 512 525
1180 3 510 511 517 535
1181 3 512 511 510 523
1182 3 512 511 517 535
1183 3 517 511 510 523
1184 5 517 511 512 524
1185 5 517 511 512 525
1186 4 225 226 227 239
1187 4 225 226 227 240
1188 4 225 226 227 241
1189 4 225 226 228 242
1190 4 225 226 228 243
1191 4 225 226 228 244
1192 4 225 226 229 245
1193 4 225 226 229 246
1194 4 225 226 229 247
1195 4 227 226 225 237
1196 4 227 226 225 238
1197 4 227 226 228 242
1198 4 227 226 228 243
1199 4 227 226 228 244
1200 4 227 226 229 245
1201 4 227 226 229 246
1202 4 227 226 229 247
1203 4 228 226 225 237
1204 4 228 226 225 238
1205 4 228 226 227 239
1206 4 228 226 227 240
1207 4 228 226 227 241
1208 4 228 226 229 245
1209 4 228 226 229 246
1210 4 228 226 229 247
1211 4 229 226 225 237
1212 4 229 226 225 238
1213 4 229 226 227 239
1214 4 229 226 227 240
1215 4 229 226 227 241
1216 4 229 226 228 242
1217 4 229 226 228 243
1218 4 229 226 228 244
1219 6 224 225 226 227
1220 7 224 225 226 227
1221 6 224 225 226 228
1222 7 224 225 226 228
1223 6 224 225 226 229
1224 7 224 225 226 229
1225 5 226 225 224 230
1226 3 888 889 890 891
1227 3 890 889 888 898
1228 3 888 889 890 903
1229 3 902 889 890 903
1230 6 891 892 893 894
1231 7 891 892 893 894
1232 6 891 892 893 895
1233 7 891 892 893 895
1234 6 891 892 893 896
1235 7 891 892 893 896
1236 5 893 892 891 897
1237 3 3 4 5 6
1238 3 5 4 3 13
1239 3 3 4 5 19
1240 3 18 4 5 19
1241 3 4 5 6 7
1242 3 4 5 6 12
1243 3 6 5 4 18
1244 4 2 33 34 35
1245 2 2 33 34 64
1246 8 2 33 34 48
1247 10 46 33 34 48
1248 8 46 33 34 64
1249 10 47 33 34 48
1250 8 47 33 34 64
1251 3 2 3 4 5
1252 3 2 3 13 12
1253 1 4 3 2 33
1254 3 4 3 13 12
1255 1 13 3 2 33
1256 3 2 3 4 18
1257 3 2 3 13 32
1258 9 4 3 2 17
1259 3 4 3 13 32
1260 9 13 3 2 17
1261 5 13 3 2 17
1262 3 13 3 4 18
1263 5 5 6 7 8
1264 3 5 6 12 13
1265 3 7 6 12 13
1266 5 5 6 7 20
1267 5 5 6 7 21
1268 3 5 6 12 31
1269 3 7 6 5 19
1270 3 7 6 12 31
1271 3 12 6 5 19
1272 5 12 6 7 20
1273 5 12 6 7 21
1274 1 1 2 3 4
1275 1 1 2 3 13
1276 2 1 2 33 34
1277 4 3 2 33 34
1278 8 1 2 33 46
1279 8 1 2 33 47
1280 4 3 2 33 46
1281 4 3 2 33 47
1282 8 17 2 33 34
1283 10 17 2 33 46
1284 10 17 2 33 47
1285 3 3 13 12 6
1286 3 3 13 12 31
1287 3 6 12 13 32
1288 3 31 12 13 32
1289 3 35 36 37 38
1290 3 37 36 35 45
1291 3 35 36 37 50
1292 3 49 36 37 50
1293 3 34 35 36 37
1294 3 34 35 45 44
1295 1 36 35 34 64
1296 3 36 35 45 44
1297 1 45 35 34 64
1298 3 34 35 36 49
1299 3 34 35 45 63
1300 9 36 35 34 48
1301 5 36 35 34 48
1302 3 36 35 45 63
1303 9 45 35 34 48
1304 5 45 35 34 48
1305 3 45 35 36 49
1306 3 36 37 38 39
1307 3 36 37 38 44
1308 3 38 37 36 49
1309 3 35 45 44 38
1310 3 35 45 44 62
1311 5 37 38 39 40
1312 3 37 38 44 45
1313 3 39 38 44 45
1314 5 37 38 39 51
1315 5 37 38 39 52
1316 3 37 38 44 62
1317 3 39 38 37 50
1318 3 39 38 44 62
1319 3 44 38 37 50
1320 5 44 38 39 51
1321 5 44 38 39 52
1322 3 38 44 45 63
1323 3 62 44 45 63
1324 4 39 40 41 53
1325 4 39 40 41 54
1326 4 39 40 41 55
1327 4 39 40 42 56
1328 4 39 40 42 57
1329 4 39 40 42 58
1330 4 39 40 43 59
1331 4 39 40 43 60
1332 4 39 40 43 61
1333 4 41 40 39 51
1334 4 41 40 39 52
1335 4 41 40 42 56
1336 4 41 40 42 57
1337 4 41 40 42 58
1338 4 41 40 43 59
1339 4 41 40 43 60
1340 4 41 40 43 61
1341 4 42 40 39 51
1342 4 42 40 39 52
1343 4 42 40 41 53
1344 4 42 40 41 54
1345 4 42 40 41 55
1346 4 42 40 43 59
1347 4 42 40 43 60
1348 4 42 40 43 61
1349 4 43 40 39 51
1350 4 43 40 39 52
1351 4 43 40 41 53
1352 4 43 40 41 54
1353 4 43 40 41 55
1354 4 43 40 42 56
1355 4 43 40 42 57
1356 4 43 40 42 58
1357 6 38 39 40 41
1358 7 38 39 40 41
1359 6 38 39 40 42
1360 7 38 39 40 42
1361 6 38 39 40 43
1362 7 38 39 40 43
1363 5 40 39 38 44
1364 5 323 324 325 326
1365 3 323 324 330 331
1366 3 325 324 330 331
1367 5 323 324 325 338
1368 5 323 324 325 339
1369 3 323 324 330 349
1370 3 325 324 323 337
1371 3 325 324 330 349
1372 3 330 324 323 337
1373 5 330 324 325 338
1374 5 330 324 325 339
1375 3 324 330 331 350
1376 3 349 330 331 350
1377 3 322 323 324 325
1378 3 322 323 324 330
1379 3 324 323 322 336
1380 4 320 351 352 353
1381 2 320 351 352 382
1382 8 320 351 352 366
1383 10 364 351 352 366
1384 8 364 351 352 382
1385 10 365 351 352 366
1386 8 365 351 352 382
1387 3 321 322 323 324
1388 3 323 322 321 331
1389 3 321 322 323 337
1390 3 336 322 323 337
1391 3 321 331 330 324
1392 3 321 331 330 349
1393 3 320 321 322 323
1394 3 320 321 331 330
1395 1 322 321 320 351
1396 3 322 321 331 330
1397 1 331 321 320 351
1398 3 320 321 322 336
1399 3 320 321 331 350
1400 9 322 321 320 335
1401 3 322 321 331 350
1402 9 331 321 320 335
1403 5 331 321 320 335
1404 3 331 321 322 336
1405 1 319 320 321 322
1406 1 319 320 321 331
1407 2 319 320 351 352
1408 4 321 320 351 352
1409 8 319 320 351 364
1410 8 319 320 351 365
1411 4 321 320 351 364
1412 4 321 320 351 365
1413 8 335 320 351 352
1414 10 335 320 351 364
1415 10 335 320 351 365
1416 4 332 319 320 321
1417 2 332 319 320 351
1418 8 320 319 332 631
1419 8 320 319 332 632
1420 8 320 319 332 633
1421 4 333 319 320 321
1422 4 334 319 320 321
1423 8 332 319 320 335
1424 10 333 319 320 335
1425 8 333 319 320 351
1426 10 333 319 332 631
1427 10 333 319 332 632
1428 10 333 319 332 633
1429 10 334 319 320 335
1430 8 334 319 320 351
1431 10 334 319 332 631
1432 10 334 319 332 632
1433 10 334 319 332 633
1434 4 1055 1056 1057 1069
1435 4 1055 1056 1057 1070
1436 4 1055 1056 1057 1071
1437 4 1055 1056 1058 1072
1438 4 1055 1056 1058 1073
1439 4 1055 1056 1058 1074
1440 4 1055 1056 1059 1075
1441 4 1055 1056 1059 1076
1442 4 1055 1056 1059 1077
1443 4 1057 1056 1055 1067
1444 4 1057 1056 1055 1068
1445 4 1057 1056 1058 1072
1446 4 1057 1056 1058 1073
1447 4 1057 1056 1058 1074
1448 4 1057 1056 1059 1075
1449 4 1057 1056 1059 1076
1450 4 1057 1056 1059 1077
1451 4 1058 1056 1055 1067
1452 4 1058 1056 1055 1068
1453 4 1058 1056 1057 1069
1454 4 1058 1056 1057 1070
1455 4 1058 1056 1057 1071
1456 4 1058 1056 1059 1075
1457 4 1058 1056 1059 1076
1458 4 1058 1056 1059 1077
1459 4 1059 1056 1055 1067
1460 4 1059 1056 1055 1068
1461 4 1059 1056 1057 1069
1462 4 1059 1056 1057 1070
1463 4 1059 1056 1057 1071
1464 4 1059 1056 1058 1072
1465 4 1059 1056 1058 1073
1466 4 1059 1056 1058 1074
1467 4 132 133 134 146
1468 4 132 133 134 147
1469 4 132 133 134 148
1470 4 132 133 135 149
1471 4 132 133 135 150
1472 4 132 133 135 151
1473 4 132 133 136 152
1474 4 132 133 136 153
1475 4 132 133 136 154
1476 4 134 133 132 144
1477 4 134 133 132 145
1478 4 134 133 135 149
1479 4 134 133 135 150
1480 4 134 133 135 151
1481 4 134 133 136 152
1482 4 134 133 136 153
1483 4 134 133 136 154
1484 4 135 133 132 144
1485 4 135 133 132 145
1486 4 135 133 134 146
1487 4 135 133 134 147
1488 4 135 133 134 148
1489 4 135 133 136 152
1490 4 135 133 136 153
1491 4 135 133 136 154
1492 4 136 133 132 144
1493 4 136 133 132 145
1494 4 136 133 134 146
1495 4 136 133 134 147
1496 4 136 133 134 148
1497 4 136 133 135 149
1498 4 136 133 135 150
1499 4 136 133 135 151
1500 3 251 252 253 254
1501 3 251 252 262 261
1502 1 253 252 251 281
1503 3 253 252 262 261
1504 1 262 252 251 281
1505 3 251 252 253 266
1506 3 251 252 262 280
1507 9 253 252 251 265
1508 5 253 252 251 265
1509 3 253 252 262 280
1510 9 262 252 251 265
1511 5 262 252 251 265
1512 3 262 252 253 266
1513 6 131 132 133 134
1514 7 131 132 133 134
1515 6 131 132 133 135
1516 7 131 132 133 135
1517 6 131 132 133 136
1518 7 131 132 133 136
1519 5 133 132 131 137
1520 3 67 68 69 70
1521 3 67 68 69 75
1522 3 69 68 67 80
1523 5 68 69 70 71
1524 3 68 69 75 76
1525 3 70 69 75 76
1526 5 68 69 70 82
1527 5 68 69 70 83
1528 3 68 69 75 93
1529 3 70 69 68 81
1530 3 70 69 75 93
1531 3 75 69 68 81
1532 5 75 69 70 82
1533 5 75 69 70 83
1534 3 66 67 68 69
1535 3 68 67 66 76
1536 3 66 67 68 81
1537 3 80 67 68 81
1538 3 69 75 76 94
1539 3 93 75 76 94
1540 3 66 76 75 69
1541 3 66 76 75 93
1542 1 33 34 35 36
1543 1 33 34 35 45
1544 2 33 34 64 65
1545 4 35 34 64 65
1546 8 33 34 64 77
1547 8 33 34 64 78
1548 4 35 34 33 46
1549 4 35 34 33 47
1550 4 35 34 64 77
1551 4 35 34 64 78
1552 8 48 34 64 65
1553 10 48 34 64 77
1554 10 48 34 64 78
1555 4 34 64 65 66
1556 2 34 64 65 95
1557 8 34 64 65 79
1558 10 77 64 65 79
1559 8 77 64 65 95
1560 10 78 64 65 79
1561 8 78 64 65 95
1562 3 65 66 67 68
1563 3 65 66 76 75
1564 1 67 66 65 95
1565 3 67 66 76 75
1566 1 76 66 65 95
1567 3 65 66 67 80
1568 3 65 66 76 94
1569 9 67 66 65 79
1570 5 67 66 65 79
1571 3 67 66 76 94
1572 9 76 66 65 79
1573 5 76 66 65 79
1574 3 76 66 67 80
1575 4 65 95 96 97
1576 2 65 95 96 126
1577 8 65 95 96 110
1578 10 108 95 96 110
1579 8 108 95 96 126
1580 10 109 95 96 110
1581 8 109 95 96 126
1582 1 64 65 66 67
1583 1 64 65 66 76
1584 2 64 65 95 96
1585 4 66 65 95 96
1586 8 64 65 95 108
1587 8 64 65 95 109
1588 4 66 65 64 77
1589 4 66 65 64 78
1590 4 66 65 95 108
1591 4 66 65 95 109
1592 8 79 65 95 96
1593 10 79 65 95 108
1594 10 79 65 95 109
1595 1 95 96 97 98
1596 1 95 96 97 107
1597 2 95 96 126 127
1598 4 97 96 126 127
1599 8 95 96 126 139
1600 8 95 96 126 140
1601 4 97 96 95 108
1602 4 97 96 95 109
1603 4 97 96 126 139
1604 4 97 96 126 140
1605 8 110 96 126 127
1606 10 110 96 126 139
1607 10 110 96 126 140
1608 3 96 97 98 99
1609 3 96 97 107 106
1610 1 98 97 96 126
1611 3 98 97 107 106
1612 1 107 97 96 126
1613 3 96 97 98 111
1614 3 96 97 107 125
1615 9 98 97 96 110
1616 5 98 97 96 110
1617 3 98 97 107 125
1618 9 107 97 96 110
1619 5 107 97 96 110
1620 3 107 97 98 111
1621 3 97 107 106 100
1622 3 97 107 106 124
1623 3 97 98 99 100
1624 3 99 98 97 107
1625 3 97 98 99 112
1626 3 111 98 99 112
1627 3 159 169 168 162
1628 3 159 169 168 186
1629 3 158 159 160 161
1630 3 158 159 169 168
1631 1 160 159 158 188
1632 3 160 159 169 168
1633 1 169 159 158 188
1634 3 158 159 160 173
1635 3 158 159 169 187
1636 9 160 159 158 172
1637 5 160 159 158 172
1638 3 160 159 169 187
1639 9 169 159 158 172
1640 5 169 159 158 172
1641 3 169 159 160 173
1642 3 255 261 262 280
1643 3 279 261 262 280
1644 4 96 126 127 128
1645 2 96 126 127 157
1646 8 96 126 127 141
1647 10 139 126 127 141
1648 8 139 126 127 157
1649 10 140 126 127 141
1650 8 140 126 127 157
1651 1 157 158 159 160
1652 1 157 158 159 169
1653 2 157 158 188 189
1654 4 159 158 188 189
1655 8 157 158 188 201
1656 8 157 158 188 202
1657 4 159 158 157 170
1658 4 159 158 157 171
1659 4 159 158 188 201
1660 4 159 158 188 202
1661 8 172 158 188 189
1662 10 172 158 188 201
1663 10 172 158 188 202
1664 4 127 157 158 159
1665 2 127 157 158 188
1666 8 127 157 158 172
1667 10 170 157 158 172
1668 8 170 157 158 188
1669 10 171 157 158 172
1670 8 171 157 158 188
1671 1 126 127 128 129
1672 1 126 127 128 138
1673 2 126 127 157 158
1674 4 128 127 157 158
1675 8 126 127 157 170
1676 8 126 127 157 171
1677 4 128 127 126 139
1678 4 128 127 126 140
1679 4 128 127 157 170
1680 4 128 127 157 171
1681 8 141 127 157 158
1682 10 141 127 157 170
1683 10 141 127 157 171
1684 3 128 129 130 131
1685 3 130 129 128 138
1686 3 128 129 130 143
1687 3 142 129 130 143
1688 3 127 128 129 130
1689 3 127 128 138 137
1690 1 129 128 127 157
1691 3 129 128 138 137
1692 1 138 128 127 157
1693 3 127 128 129 142
1694 3 127 128 138 156
1695 9 129 128 127 141
1696 5 129 128 127 141
1697 3 129 128 138 156
1698 9 138 128 127 141
1699 5 138 128 127 141
1700 3 138 128 129 142
1701 3 129 130 131 132
1702 3 129 130 131 137
1703 3 131 130 129 142
1704 3 128 138 137 131
1705 3 128 138 137 155
1706 5 130 131 132 133
1707 3 130 131 137 138
1708 3 132 131 137 138
1709 5 130 131 132 144
1710 5 130 131 132 145
1711 3 130 131 137 155
1712 3 132 131 130 143
1713 3 132 131 137 155
1714 3 137 131 130 143
1715 5 137 131 132 144
1716 5 137 131 132 145
1717 3 131 137 138 156
1718 3 155 137 138 156
1719 4 158 188 189 190
1720 2 158 188 189 219
1721 8 158 188 189 203
1722 10 201 188 189 203
1723 8 201 188 189 219
1724 10 202 188 189 203
1725 8 202 188 189 219
1726 3 252 262 261 255
1727 3 252 262 261 279
1728 3 282 283 284 285
1729 3 282 283 293 292
1730 1 284 283 282 296
1731 3 284 283 293 292
1732 1 293 283 282 296
1733 3 282 283 284 298
1734 3 282 283 293 312
1735 9 284 283 282 297
1736 5 284 283 282 297
1737 3 284 283 293 312
1738 9 293 283 282 297
1739 5 293 283 282 297
1740 3 293 283 284 298
1741 4 251 281 282 283
1742 2 251 281 282 296
1743 8 251 281 282 297
1744 8 294 281 282 296
1745 10 294 281 282 297
1746 8 295 281 282 296
1747 10 295 281 282 297
1748 1 250 251 252 253
1749 1 250 251 252 262
1750 2 250 251 281 282
1751 4 252 251 281 282
1752 8 250 251 281 294
1753 8 250 251 281 295
1754 4 252 251 250 263
1755 4 252 251 250 264
1756 4 252 251 281 294
1757 4 252 251 281 295
1758 8 265 251 281 282
1759 10 265 251 281 294
1760 10 265 251 281 295
1761 1 281 282 283 284
1762 1 281 282 283 293
1763 8 281 282 296 316
1764 8 281 282 296 317
1765 8 281 282 296 318
1766 4 283 282 281 294
1767 4 283 282 281 295
1768 4 283 282 296 316
1769 4 283 282 296 317
1770 4 283 282 296 318
1771 10 297 282 296 316
1772 10 297 282 296 317
1773 10 297 282 296 318
1774 4 763 793 794 795
1775 2 763 793 794 824
1776 8 763 793 794 808
1777 10 806 793 794 808
1778 8 806 793 794 824
1779 10 807 793 794 808
1780 8 807 793 794 824
1781 4 794 824 825 826
1782 2 794 824 825 855
1783 8 794 824 825 839
1784 10 837 824 825 839
1785 8 837 824 825 855
1786 10 838 824 825 839
1787 8 838 824 825 855
1788 4 220 250 251 252
1789 2 220 250 251 281
1790 8 220 250 251 265
1791 10 263 250 251 265
1792 8 263 250 251 281
1793 10 264 250 251 265
1794 8 264 250 251 281
1795 4 1311 1312 1313 1325
1796 4 1311 1312 1313 1326
1797 4 1311 1312 1313 1327
1798 4 1311 1312 1314 1328
1799 4 1311 1312 1314 1329
1800 4 1311 1312 1314 1330
1801 4 1311 1312 1315 1331
1802 4 1311 1312 1315 1332
1803 4 1311 1312 1315 1333
1804 4 1313 1312 1311 1323
1805 4 1313 1312 1311 1324
1806 4 1313 1312 1314 1328
1807 4 1313 1312 1314 1329
1808 4 1313 1312 1314 1330
1809 4 1313 1312 1315 1331
1810 4 1313 1312 1315 1332
1811 4 1313 1312 1315 1333
1812 4 1314 1312 1311 1323
1813 4 1314 1312 1311 1324
1814 4 1314 1312 1313 1325
1815 4 1314 1312 1313 1326
1816 4 1314 1312 1313 1327
1817 4 1314 1312 1315 1331
1818 4 1314 1312 1315 1332
1819 4 1314 1312 1315 1333
1820 4 1315 1312 1311 1323
1821 4 1315 1312 1311 1324
1822 4 1315 1312 1313 1325
1823 4 1315 1312 1313 1326
1824 4 1315 1312 1313 1327
1825 4 1315 1312 1314 1328
1826 4 1315 1312 1314 1329
1827 4 1315 1312 1314 1330
1828 4 70 71 72 84
1829 4 70 71 72 85
1830 4 70 71 72 86
1831 4 70 71 73 87
1832 4 70 71 73 88
1833 4 70 71 73 89
1834 4 70 71 74 90
1835 4 70 71 74 91
1836 4 70 71 74 92
1837 4 72 71 70 82
1838 4 72 71 70 83
1839 4 72 71 73 87
1840 4 72 71 73 88
1841 4 72 71 73 89
1842 4 72 71 74 90
1843 4 72 71 74 91
1844 4 72 71 74 92
1845 4 73 71 70 82
1846 4 73 71 70 83
1847 4 73 71 72 84
1848 4 73 71 72 85
1849 4 73 71 72 86
1850 4 73 71 74 90
1851 4 73 71 74 91
1852 4 73 71 74 92
1853 4 74 71 70 82
1854 4 74 71 70 83
1855 4 74 71 72 84
1856 4 74 71 72 85
1857 4 74 71 72 86
1858 4 74 71 73 87
1859 4 74 71 73 88
1860 4 74 71 73 89
1861 6 69 70 71 72
1862 7 69 70 71 72
1863 6 69 70 71 73
1864 7 69 70 71 73
1865 6 69 70 71 74
1866 7 69 70 71 74
1867 5 71 70 69 75
1868 4 1404 1405 1406 1418
1869 4 1404 1405 1406 1419
1870 4 1404 1405 1406 1420
1871 4 1404 1405 1407 1421
1872 4 1404 1405 1407 1422
1873 4 1404 1405 1407 1423
1874 4 1404 1405 1408 1424
1875 4 1404 1405 1408 1425
1876 4 1404 1405 1408 1426
1877 4 1406 1405 1404 1416
1878 4 1406 1405 1404 1417
1879 4 1406 1405 1407 1421
1880 4 1406 1405 1407 1422
1881 4 1406 1405 1407 1423
1882 4 1406 1405 1408 1424
1883 4 1406 1405 1408 1425
1884 4 1406 1405 1408 1426
1885 4 1407 1405 1404 1416
1886 4 1407 1405 1404 1417
1887 4 1407 1405 1406 1418
1888 4 1407 1405 1406 1419
1889 4 1407 1405 1406 1420
1890 4 1407 1405 1408 1424
1891 4 1407 1405 1408 1425
1892 4 1407 1405 1408 1426
1893 4 1408 1405 1404 1416
1894 4 1408 1405 1404 1417
1895 4 1408 1405 1406 1418
1896 4 1408 1405 1406 1419
1897 4 1408 1405 1406 1420
1898 4 1408 1405 1407 1421
1899 4 1408 1405 1407 1422
1900 4 1408 1405 1407 1423
1901 6 1403 1404 1405 1406
1902 7 1403 1404 1405 1406
1903 6 1403 1404 1405 1407
1904 7 1403 1404 1405 1407
1905 6 1403 1404 1405 1408
1906 7 1403 1404 1405 1408
1907 5 1405 1404 1403 1409
1908 5 1402 1403 1404 1405
1909 3 1402 1403 1409 1410
1910 3 1404 1403 1409 1410
1911 5 1402 1403 1404 1416
1912 5 1402 1403 1404 1417
1913 3 1402 1403 1409 1427
1914 3 1404 1403 1402 1415
1915 3 1404 1403 1409 1427
1916 3 1409 1403 1402 1415
1917 5 1409 1403 1404 1416
1918 5 1409 1403 1404 1417
1919 3 1401 1402 1403 1404
1920 3 1401 1402 1403 1409
1921 3 1403 1402 1401 1414
1922 3 98 99 100 101
1923 3 98 99 100 106
1924 3 100 99 98 111
1925 5 99 100 101 102
1926 3 99 100 106 107
1927 3 101 100 106 107
1928 5 99 100 101 113
1929 5 99 100 101 114
1930 3 99 100 106 124
1931 3 101 100 99 112
1932 3 101 100 106 124
1933 3 106 100 99 112
1934 5 106 100 101 113
1935 5 106 100 101 114
1936 4 101 102 103 115
1937 4 101 102 103 116
1938 4 101 102 103 117
1939 4 101 102 104 118
1940 4 101 102 104 119
1941 4 101 102 104 120
1942 4 101 102 105 121
1943 4 101 102 105 122
1944 4 101 102 105 123
1945 4 103 102 101 113
1946 4 103 102 101 114
1947 4 103 102 104 118
1948 4 103 102 104 119
1949 4 103 102 104 120
1950 4 103 102 105 121
1951 4 103 102 105 122
1952 4 103 102 105 123
1953 4 104 102 101 113
1954 4 104 102 101 114
1955 4 104 102 103 115
1956 4 104 102 103 116
1957 4 104 102 103 117
1958 4 104 102 105 121
1959 4 104 102 105 122
1960 4 104 102 105 123
1961 4 105 102 101 113
1962 4 105 102 101 114
1963 4 105 102 103 115
1964 4 105 102 103 116
1965 4 105 102 103 117
1966 4 105 102 104 118
1967 4 105 102 104 119
1968 4 105 102 104 120
1969 3 100 106 107 125
1970 3 124 106 107 125
1971 3 508 518 517 511
1972 3 508 518 517 535
1973 4 189 219 220 221
1974 2 189 219 220 250
1975 8 189 219 220 234
1976 10 232 219 220 234
1977 8 232 219 220 250
1978 10 233 219 220 234
1979 8 233 219 220 250
1980 3 191 192 193 194
1981 3 191 192 193 199
1982 3 193 192 191 204
1983 3 189 190 191 192
1984 3 189 190 200 199
1985 1 191 190 189 219
1986 3 191 190 200 199
1987 1 200 190 189 219
1988 3 189 190 191 204
1989 3 189 190 200 218
1990 9 191 190 189 203
1991 5 191 190 189 203
1992 3 191 190 200 218
1993 9 200 190 189 203
1994 5 200 190 189 203
1995 3 200 190 191 204
1996 1 188 189 190 191
1997 1 188 189 190 200
1998 2 188 189 219 220
1999 4 190 189 219 220
2000 8 188 189 219 232
2001 8 188 189 219 233
2002 4 190 189 188 201
2003 4 190 189 188 202
2004 4 190 189 219 232
2005 4 190 189 219 233
2006 8 203 189 219 220
2007 10 203 189 219 232
2008 10 203 189 219 233
2009 3 190 191 192 193
2010 3 192 191 190 200
2011 3 190 191 192 205
2012 3 204 191 192 205
2013 3 220 221 222 223
2014 3 220 221 231 230
2015 1 222 221 220 250
2016 3 222 221 231 230
2017 1 231 221 220 250
2018 3 220 221 222 235
2019 3 220 221 231 249
2020 9 222 221 220 234
2021 5 222 221 220 234
2022 3 222 221 231 249
2023 9 231 221 220 234
2024 5 231 221 220 234
2025 3 231 221 222 235
2026 3 221 222 223 224
2027 3 223 222 221 231
2028 3 221 222 223 236
2029 3 235 222 223 236
2030 3 222 223 224 225
2031 3 222 223 224 230
2032 3 224 223 222 235
2033 3 796 797 798 799
2034 3 796 797 798 804
2035 3 798 797 796 809
2036 3 221 231 230 224
2037 3 221 231 230 248
2038 1 219 220 221 222
2039 1 219 220 221 231
2040 2 219 220 250 251
2041 4 221 220 250 251
2042 8 219 220 250 263
2043 8 219 220 250 264
2044 4 221 220 219 232
2045 4 221 220 219 233
2046 4 221 220 250 263
2047 4 221 220 250 264
2048 8 234 220 250 251
2049 10 234 220 250 263
2050 10 234 220 250 264
2051 3 795 796 797 798
2052 3 797 796 795 805
2053 3 795 796 797 810
2054 3 809 796 797 810
2055 1 824 825 826 827
2056 1 824 825 826 836
2057 2 824 825 855 856
2058 4 826 825 855 856
2059 8 824 825 855 868
2060 8 824 825 855 869
2061 4 826 825 824 837
2062 4 826 825 824 838
2063 4 826 825 855 868
2064 4 826 825 855 869
2065 8 839 825 855 856
2066 10 839 825 855 868
2067 10 839 825 855 869
2068 6 1310 1311 1312 1313
2069 7 1310 1311 1312 1313
2070 6 1310 1311 1312 1314
2071 7 1310 1311 1312 1314
2072 6 1310 1311 1312 1315
2073 7 1310 1311 1312 1315
2074 5 1312 1311 1310 1316
2075 3 511 517 518 536
2076 3 535 517 518 536
2077 3 224 230 231 249
2078 3 248 230 231 249
2079 5 223 224 225 226
2080 3 223 224 230 231
2081 3 225 224 230 231
2082 5 223 224 225 237
2083 5 223 224 225 238
2084 3 223 224 230 248
2085 3 225 224 223 236
2086 3 225 224 230 248
2087 3 230 224 223 236
2088 5 230 224 225 237
2089 5 230 224 225 238
2090 3 1275 1285 1284 1278
2091 3 1275 1285 1284 1303
2092 3 1278 1284 1285 1304
2093 3 1303 1284 1285 1304
2094 3 857 858 859 860
2095 3 859 858 857 867
2096 3 857 858 859 872
2097 3 871 858 859 872
2098 3 858 859 860 861
2099 3 858 859 860 866
2100 3 860 859 858 871
2101 1 855 856 857 858
2102 1 855 856 857 867
2103 2 855 856 886 887
2104 4 857 856 886 887
2105 8 855 856 886 899
2106 8 855 856 886 900
2107 4 857 856 855 868
2108 4 857 856 855 869
2109 4 857 856 886 899
2110 4 857 856 886 900
2111 8 870 856 886 887
2112 10 870 856 886 899
2113 10 870 856 886 900
2114 3 856 857 858 859
2115 3 856 857 867 866
2116 1 858 857 856 886
2117 3 858 857 867 866
2118 1 867 857 856 886
2119 3 856 857 858 871
2120 3 856 857 867 885
2121 9 858 857 856 870
2122 5 858 857 856 870
2123 3 858 857 867 885
2124 9 867 857 856 870
2125 5 867 857 856 870
2126 3 867 857 858 871
2127 5 859 860 861 862
2128 3 859 860 866 867
2129 3 861 860 866 867
2130 5 859 860 861 873
2131 5 859 860 861 874
2132 3 859 860 866 884
2133 3 861 860 859 872
2134 3 861 860 866 884
2135 3 866 860 859 872
2136 5 866 860 861 873
2137 5 866 860 861 874
2138 3 860 866 867 885
2139 3 884 866 867 885
2140 3 857 867 866 860
2141 3 857 867 866 884
2142 5 1277 1278 1279 1280
2143 3 1277 1278 1284 1285
2144 3 1279 1278 1284 1285
2145 5 1277 1278 1279 1292
2146 5 1277 1278 1279 1293
2147 3 1277 1278 1284 1303
2148 3 1279 1278 1277 1291
2149 3 1279 1278 1284 1303
2150 3 1284 1278 1277 1291
2151 5 1284 1278 1279 1292
2152 5 1284 1278 1279 1293
2153 3 1307 1317 1316 1310
2154 3 1307 1317 1316 1334
2155 3 1308 1309 1310 1311
2156 3 1308 1309 1310 1316
2157 3 1310 1309 1308 1321
2158 3 1307 1308 1309 1310
2159 3 1309 1308 1307 1317
2160 3 1307 1308 1309 1322
2161 3 1321 1308 1309 1322
2162 3 1306 1307 1308 1309
2163 3 1306 1307 1317 1316
2164 1 1308 1307 1306 1336
2165 3 1308 1307 1317 1316
2166 1 1317 1307 1306 1336
2167 3 1306 1307 1308 1321
2168 3 1306 1307 1317 1335
2169 9 1308 1307 1306 1320
2170 5 1308 1307 1306 1320
2171 3 1308 1307 1317 1335
2172 9 1317 1307 1306 1320
2173 5 1317 1307 1306 1320
2174 3 1317 1307 1308 1321
2175 4 1274 1305 1306 1307
2176 2 1274 1305 1306 1336
2177 8 1274 1305 1306 1320
2178 10 1318 1305 1306 1320
2179 8 1318 1305 1306 1336
2180 10 1319 1305 1306 1320
2181 8 1319 1305 1306 1336
2182 1 1305 1306 1307 1308
2183 1 1305 1306 1307 1317
2184 2 1305 1306 1336 1337
2185 4 1307 1306 1336 1337
2186 8 1305 1306 1336 1349
2187 8 1305 1306 1336 1350
2188 4 1307 1306 1305 1318
2189 4 1307 1306 1305 1319
2190 4 1307 1306 1336 1349
2191 4 1307 1306 1336 1350
2192 8 1320 1306 1336 1337
2193 10 1320 1306 1336 1349
2194 10 1320 1306 1336 1350
2195 3 1338 1339 1340 1341
2196 3 1340 1339 1338 1348
2197 3 1338 1339 1340 1353
2198 3 1352 1339 1340 1353
2199 4 1306 1336 1337 1338
2200 2 1306 1336 1337 1367
2201 8 1306 1336 1337 1351
2202 10 1349 1336 1337 1351
2203 8 1349 1336 1337 1367
2204 10 1350 1336 1337 1351
2205 8 1350 1336 1337 1367
2206 3 1337 1338 1339 1340
2207 3 1337 1338 1348 1347
2208 1 1339 1338 1337 1367
2209 3 1339 1338 1348 1347
2210 1 1348 1338 1337 1367
2211 3 1337 1338 1339 1352
2212 3 1337 1338 1348 1366
2213 9 1339 1338 1337 1351
2214 5 1339 1338 1337 1351
2215 3 1339 1338 1348 1366
2216 9 1348 1338 1337 1351
2217 5 1348 1338 1337 1351
2218 3 1348 1338 1339 1352
2219 1 1336 1337 1338 1339
2220 1 1336 1337 1338 1348
2221 2 1336 1337 1367 1368
2222 4 1338 1337 1367 1368
2223 8 1336 1337 1367 1380
2224 8 1336 1337 1367 1381
2225 4 1338 1337 1336 1349
2226 4 1338 1337 1336 1350
2227 4 1338 1337 1367 1380
2228 4 1338 1337 1367 1381
2229 8 1351 1337 1367 1368
2230 10 1351 1337 1367 1380
2231 10 1351 1337 1367 1381
2232 4 1337 1367 1368 1369
2233 2 1337 1367 1368 1398
2234 8 1337 1367 1368 1382
2235 10 1380 1367 1368 1382
2236 8 1380 1367 1368 1398
2237 10 1381 1367 1368 1382
2238 8 1381 1367 1368 1398
2239 3 1338 1348 1347 1341
2240 3 1338 1348 1347 1365
2241 1 1367 1368 1369 1370
2242 1 1367 1368 1369 1379
2243 2 1367 1368 1398 1399
2244 4 1369 1368 1398 1399
2245 8 1367 1368 1398 1411
2246 8 1367 1368 1398 1412
2247 4 1369 1368 1367 1380
2248 4 1369 1368 1367 1381
2249 4 1369 1368 1398 1411
2250 4 1369 1368 1398 1412
2251 8 1382 1368 1398 1399
2252 10 1382 1368 1398 1411
2253 10 1382 1368 1398 1412
2254 4 1117 1118 1119 1131
2255 4 1117 1118 1119 1132
2256 4 1117 1118 1119 1133
2257 4 1117 1118 1120 1134
2258 4 1117 1118 1120 1135
2259 4 1117 1118 1120 1136
2260 4 1117 1118 1121 1137
2261 4 1117 1118 1121 1138
2262 4 1117 1118 1121 1139
2263 4 1119 1118 1117 1129
2264 4 1119 1118 1117 1130
2265 4 1119 1118 1120 1134
2266 4 1119 1118 1120 1135
2267 4 1119 1118 1120 1136
2268 4 1119 1118 1121 1137
2269 4 1119 1118 1121 1138
2270 4 1119 1118 1121 1139
2271 4 1120 1118 1117 1129
2272 4 1120 1118 1117 1130
2273 4 1120 1118 1119 1131
2274 4 1120 1118 1119 1132
2275 4 1120 1118 1119 1133
2276 4 1120 1118 1121 1137
2277 4 1120 1118 1121 1138
2278 4 1120 1118 1121 1139
2279 4 1121 1118 1117 1129
2280 4 1121 1118 1117 1130
2281 4 1121 1118 1119 1131
2282 4 1121 1118 1119 1132
2283 4 1121 1118 1119 1133
2284 4 1121 1118 1120 1134
2285 4 1121 1118 1120 1135
2286 4 1121 1118 1120 1136
2287 3 1116 1122 1123 1141
2288 3 1140 1122 1123 1141
2289 5 1115 1116 1117 1118
2290 3 1115 1116 1122 1123
2291 3 1117 1116 1122 1123
2292 5 1115 1116 1117 1129
2293 5 1115 1116 1117 1130
2294 3 1115 1116 1122 1140
2295 3 1117 1116 1115 1128
2296 3 1117 1116 1122 1140
2297 3 1122 1116 1115 1128
2298 5 1122 1116 1117 1129
2299 5 1122 1116 1117 1130
2300 1 917 918 919 920
2301 1 917 918 919 929
2302 8 917 918 932 952
2303 8 917 918 932 953
2304 8 917 918 932 954
2305 4 919 918 917 930
2306 4 919 918 917 931
2307 4 919 918 932 952
2308 4 919 918 932 953
2309 4 919 918 932 954
2310 10 933 918 932 952
2311 10 933 918 932 953
2312 10 933 918 932 954
2313 6 1116 1117 1118 1119
2314 7 1116 1117 1118 1119
2315 6 1116 1117 1118 1120
2316 7 1116 1117 1118 1120
2317 6 1116 1117 1118 1121
2318 7 1116 1117 1118 1121
2319 5 1118 1117 1116 1122
2320 4 887 917 918 919
2321 2 887 917 918 932
2322 8 887 917 918 933
2323 8 930 917 918 932
2324 10 930 917 918 933
2325 8 931 917 918 932
2326 10 931 917 918 933
2327 1 886 887 888 889
2328 1 886 887 888 898
2329 2 886 887 917 918
2330 4 888 887 917 918
2331 8 886 887 917 930
2332 8 886 887 917 931
2333 4 888 887 886 899
2334 4 888 887 886 900
2335 4 888 887 917 930
2336 4 888 887 917 931
2337 8 901 887 917 918
2338 10 901 887 917 930
2339 10 901 887 917 931
2340 3 918 919 920 921
2341 3 918 919 929 928
2342 1 920 919 918 932
2343 3 920 919 929 928
2344 1 929 919 918 932
2345 3 918 919 920 934
2346 3 918 919 929 948
2347 9 920 919 918 933
2348 5 920 919 918 933
2349 3 920 919 929 948
2350 9 929 919 918 933
2351 5 929 919 918 933
2352 3 929 919 920 934
2353 3 919 920 921 922
2354 3 921 920 919 929
2355 3 919 920 921 935
2356 3 934 920 921 935
2357 3 920 921 922 923
2358 3 920 921 922 928
2359 3 922 921 920 934
2360 3 919 929 928 922
2361 3 919 929 928 947
2362 5 921 922 923 924
2363 3 921 922 928 929
2364 3 923 922 928 929
2365 5 921 922 923 936
2366 5 921 922 923 937
2367 3 921 922 928 947
2368 3 923 922 921 935
2369 3 923 922 928 947
2370 3 928 922 921 935
2371 5 928 922 923 936
2372 5 928 922 923 937
2373 4 856 886 887 888
2374 2 856 886 887 917
2375 8 856 886 887 901
2376 10 899 886 887 901
2377 8 899 886 887 917
2378 10 900 886 887 901
2379 8 900 886 887 917
2380 3 887 888 889 890
2381 3 887 888 898 897
2382 1 889 888 887 917
2383 3 889 888 898 897
2384 1 898 888 887 917
2385 3 887 888 889 902
2386 3 887 888 898 916
2387 9 889 888 887 901
2388 5 889 888 887 901
2389 3 889 888 898 916
2390 9 898 888 887 901
2391 5 898 888 887 901
2392 3 898 888 889 902
2393 3 888 898 897 891
2394 3 888 898 897 915
2395 5 890 891 892 893
2396 3 890 891 897 898
2397 3 892 891 897 898
2398 5 890 891 892 904
2399 5 890 891 892 905
2400 3 890 891 897 915
2401 3 892 891 890 903
2402 3 892 891 897 915
2403 3 897 891 890 903
2404 5 897 891 892 904
2405 5 897 891 892 905
2406 4 892 893 894 906
2407 4 892 893 894 907
2408 4 892 893 894 908
2409 4 892 893 895 909
2410 4 892 893 895 910
2411 4 892 893 895 911
2412 4 892 893 896 912
2413 4 892 893 896 913
2414 4 892 893 896 914
2415 4 894 893 892 904
2416 4 894 893 892 905
2417 4 894 893 895 909
2418 4 894 893 895 910
2419 4 894 893 895 911
2420 4 894 893 896 912
2421 4 894 893 896 913
2422 4 894 893 896 914
2423 4 895 893 892 904
2424 4 895 893 892 905
2425 4 895 893 894 906
2426 4 895 893 894 907
2427 4 895 893 894 908
2428 4 895 893 896 912
2429 4 895 893 896 913
2430 4 895 893 896 914
2431 4 896 893 892 904
2432 4 896 893 892 905
2433 4 896 893 894 906
2434 4 896 893 894 907
2435 4 896 893 894 908
2436 4 896 893 895 909
2437 4 896 893 895 910
2438 4 896 893 895 911
2439 3 1274 1275 1276 1277
2440 3 1274 1275 1285 1284
2441 1 1276 1275 1274 1305
2442 3 1276 1275 1285 1284
2443 1 1285 1275 1274 1305
2444 3 1274 1275 1276 1290
2445 3 1274 1275 1285 1304
2446 9 1276 1275 1274 1289
2447 3 1276 1275 1285 1304
2448 9 1285 1275 1274 1289
2449 5 1285 1275 1274 1289
2450 3 1285 1275 1276 1290
2451 1 1273 1274 1275 1276
2452 1 1273 1274 1275 1285
2453 2 1273 1274 1305 1306
2454 4 1275 1274 1305 1306
2455 8 1273 1274 1305 1318
2456 8 1273 1274 1305 1319
2457 4 1275 1274 1305 1318
2458 4 1275 1274 1305 1319
2459 8 1289 1274 1305 1306
2460 10 1289 1274 1305 1318
2461 10 1289 1274 1305 1319
2462 3 1276 1277 1278 1279
2463 3 1276 1277 1278 1284
2464 3 1278 1277 1276 1290
2465 4 1286 1273 1274 1275
2466 2 1286 1273 1274 1305
2467 8 1274 1273 1286 1585
2468 8 1274 1273 1286 1586
2469 8 1274 1273 1286 1587
2470 4 1287 1273 1274 1275
2471 4 1288 1273 1274 1275
2472 8 1286 1273 1274 1289
2473 10 1287 1273 1274 1289
2474 8 1287 1273 1274 1305
2475 10 1287 1273 1286 1585
2476 10 1287 1273 1286 1586
2477 10 1287 1273 1286 1587
2478 10 1288 1273 1274 1289
2479 8 1288 1273 1274 1305
2480 10 1288 1273 1286 1585
2481 10 1288 1273 1286 1586
2482 10 1288 1273 1286 1587
2483 3 1275 1276 1277 1278
2484 3 1277 1276 1275 1285
2485 3 1275 1276 1277 1291
2486 3 1290 1276 1277 1291
2487 4 1210 1211 1212 1224
2488 4 1210 1211 1212 1225
2489 4 1210 1211 1212 1226
2490 4 1210 1211 1213 1227
2491 4 1210 1211 1213 1228
2492 4 1210 1211 1213 1229
2493 4 1210 1211 1214 1230
2494 4 1210 1211 1214 1231
2495 4 1210 1211 1214 1232
2496 4 1212 1211 1210 1222
2497 4 1212 1211 1210 1223
2498 4 1212 1211 1213 1227
2499 4 1212 1211 1213 1228
2500 4 1212 1211 1213 1229
2501 4 1212 1211 1214 1230
2502 4 1212 1211 1214 1231
2503 4 1212 1211 1214 1232
2504 4 1213 1211 1210 1222
2505 4 1213 1211 1210 1223
2506 4 1213 1211 1212 1224
2507 4 1213 1211 1212 1225
2508 4 1213 1211 1212 1226
2509 4 1213 1211 1214 1230
2510 4 1213 1211 1214 1231
2511 4 1213 1211 1214 1232
2512 4 1214 1211 1210 1222
2513 4 1214 1211 1210 1223
2514 4 1214 1211 1212 1224
2515 4 1214 1211 1212 1225
2516 4 1214 1211 1212 1226
2517 4 1214 1211 1213 1227
2518 4 1214 1211 1213 1228
2519 4 1214 1211 1213 1229
2520 6 1209 1210 1211 1212
2521 7 1209 1210 1211 1212
2522 6 1209 1210 1211 1213
2523 7 1209 1210 1211 1213
2524 6 1209 1210 1211 1214
2525 7 1209 1210 1211 1214
2526 5 1211 1210 1209 1215
2527 3 1209 1215 1216 1234
2528 3 1233 1215 1216 1234
2529 5 1208 1209 1210 1211
2530 3 1208 1209 1215 1216
2531 3 1210 1209 1215 1216
2532 5 1208 1209 1210 1222
2533 5 1208 1209 1210 1223
2534 3 1208 1209 1215 1233
2535 3 1210 1209 1208 1221
2536 3 1210 1209 1215 1233
2537 3 1215 1209 1208 1221
2538 5 1215 1209 1210 1222
2539 5 1215 1209 1210 1223
2540 3 1207 1208 1209 1210
2541 3 1207 1208 1209 1215
2542 3 1209 1208 1207 1220
2543 3 1206 1207 1208 1209
2544 3 1208 1207 1206 1216
2545 3 1206 1207 1208 1221
2546 3 1220 1207 1208 1221
2547 4 650 637 638 639
2548 2 650 637 638 669
2549 8 638 637 650 949
2550 8 638 637 650 950
2551 8 638 637 650 951
2552 4 651 637 638 639
2553 4 652 637 638 639
2554 8 650 637 638 653
2555 10 651 637 638 653
2556 8 651 637 638 669
2557 10 651 637 650 949
2558 10 651 637 650 950
2559 10 651 637 650 951
2560 10 652 637 638 653
2561 8 652 637 638 669
2562 10 652 637 650 949
2563 10 652 637 650 950
2564 10 652 637 650 951
2565 3 1114 1115 1116 1117
2566 3 1114 1115 1116 1122
2567 3 1116 1115 1114 1127
2568 3 1113 1114 1115 1116
2569 3 1115 1114 1113 1123
2570 3 1113 1114 1115 1128
2571 3 1127 1114 1115 1128
2572 3 1112 1113 1114 1115
2573 3 1112 1113 1123 1122
2574 1 1114 1113 1112 1142
2575 3 1114 1113 1123 1122
2576 1 1123 1113 1112 1142
2577 3 1112 1113 1114 1127
2578 3 1112 1113 1123 1141
2579 9 1114 1113 1112 1126
2580 5 1114 1113 1112 1126
2581 3 1114 1113 1123 1141
2582 9 1123 1113 1112 1126
2583 5 1123 1113 1112 1126
2584 3 1123 1113 1114 1127
2585 6 922 923 924 925
2586 7 922 923 924 925
2587 6 922 923 924 926
2588 7 922 923 924 926
2589 6 922 923 924 927
2590 7 922 923 924 927
2591 5 924 923 922 928
2592 6 1054 1055 1056 1057
2593 7 1054 1055 1056 1057
2594 6 1054 1055 1056 1058
2595 7 1054 1055 1056 1058
2596 6 1054 1055 1056 1059
2597 7 1054 1055 1056 1059
2598 5 1056 1055 1054 1060
2599 3 1052 1053 1054 1055
2600 3 1052 1053 1054 1060
2601 3 1054 1053 1052 1065
2602 3 1051 1052 1053 1054
2603 3 1053 1052 1051 1061
2604 3 1051 1052 1053 1066
2605 3 1065 1052 1053 1066
2606 3 1050 1051 1052 1053
2607 3 1050 1051 1061 1060
2608 1 1052 1051 1050 1080
2609 3 1052 1051 1061 1060
2610 1 1061 1051 1050 1080
2611 3 1050 1051 1052 1065
2612 3 1050 1051 1061 1079
2613 9 1052 1051 1050 1064
2614 5 1052 1051 1050 1064
2615 3 1052 1051 1061 1079
2616 9 1061 1051 1050 1064
2617 5 1061 1051 1050 1064
2618 3 1061 1051 1052 1065
2619 5 1053 1054 1055 1056
2620 3 1053 1054 1060 1061
2621 3 1055 1054 1060 1061
2622 5 1053 1054 1055 1067
2623 5 1053 1054 1055 1068
2624 3 1053 1054 1060 1078
2625 3 1055 1054 1053 1066
2626 3 1055 1054 1060 1078
2627 3 1060 1054 1053 1066
2628 5 1060 1054 1055 1067
2629 5 1060 1054 1055 1068
2630 3 922 928 929 948
2631 3 947 928 929 948
2632 4 923 924 925 938
2633 4 923 924 925 939
2634 4 923 924 925 940
2635 4 923 924 926 941
2636 4 923 924 926 942
2637 4 923 924 926 943
2638 4 923 924 927 944
2639 4 923 924 927 945
2640 4 923 924 927 946
2641 4 925 924 923 936
2642 4 925 924 923 937
2643 4 925 924 926 941
2644 4 925 924 926 942
2645 4 925 924 926 943
2646 4 925 924 927 944
2647 4 925 924 927 945
2648 4 925 924 927 946
2649 4 926 924 923 936
2650 4 926 924 923 937
2651 4 926 924 925 938
2652 4 926 924 925 939
2653 4 926 924 925 940
2654 4 926 924 927 944
2655 4 926 924 927 945
2656 4 926 924 927 946
2657 4 927 924 923 936
2658 4 927 924 923 937
2659 4 927 924 925 938
2660 4 927 924 925 939
2661 4 927 924 925 940
2662 4 927 924 926 941
2663 4 927 924 926 942
2664 4 927 924 926 943
2665 3 1054 1060 1061 1079
2666 3 1078 1060 1061 1079
2667 3 1051 1061 1060 1054
2668 3 1051 1061 1060 1078
2669 3 891 897 898 916
2670 3 915 897 898 916
2671 4 701 731 732 733
2672 2 701 731 732 762
2673 8 701 731 732 746
2674 10 744 731 732 746
2675 8 744 731 732 762
2676 10 745 731 732 746
2677 8 745 731 732 762
2678 1 700 701 702 703
2679 1 700 701 702 712
2680 2 700 701 731 732
2681 4 702 701 731 732
2682 8 700 701 731 744
2683 8 700 701 731 745
2684 4 702 701 700 713
2685 4 702 701 700 714
2686 4 702 701 731 744
2687 4 702 701 731 745
2688 8 715 701 731 732
2689 10 715 701 731 744
2690 10 715 701 731 745
2691 3 701 702 703 704
2692 3 701 702 712 711
2693 1 703 702 701 731
2694 3 703 702 712 711
2695 1 712 702 701 731
2696 3 701 702 703 716
2697 3 701 702 712 730
2698 9 703 702 701 715
2699 5 703 702 701 715
2700 3 703 702 712 730
2701 9 712 702 701 715
2702 5 712 702 701 715
2703 3 712 702 703 716
2704 3 702 703 704 705
2705 3 704 703 702 712
2706 3 702 703 704 717
2707 3 716 703 704 717
2708 3 702 712 711 705
2709 3 702 712 711 729
2710 3 705 711 712 730
2711 3 729 711 712 730
2712 3 732 733 734 735
2713 3 732 733 743 742
2714 1 734 733 732 762
2715 3 734 733 743 742
2716 1 743 733 732 762
2717 3 732 733 734 747
2718 3 732 733 743 761
2719 9 734 733 732 746
2720 5 734 733 732 746
2721 3 734 733 743 761
2722 9 743 733 732 746
2723 5 743 733 732 746
2724 3 743 733 734 747
2725 3 733 734 735 736
2726 3 735 734 733 743
2727 3 733 734 735 748
2728 3 747 734 735 748
2729 3 733 743 742 736
2730 3 733 743 742 760
2731 1 731 732 733 734
2732 1 731 732 733 743
2733 2 731 732 762 763
2734 4 733 732 762 763
2735 8 731 732 762 775
2736 8 731 732 762 776
2737 4 733 732 731 744
2738 4 733 732 731 745
2739 4 733 732 762 775
2740 4 733 732 762 776
2741 8 746 732 762 763
2742 10 746 732 762 775
2743 10 746 732 762 776
2744 3 734 735 736 737
2745 3 734 735 736 742
2746 3 736 735 734 747
2747 5 735 736 737 738
2748 3 735 736 742 743
2749 3 737 736 742 743
2750 5 735 736 737 749
2751 5 735 736 737 750
2752 3 735 736 742 760
2753 3 737 736 735 748
2754 3 737 736 742 760
2755 3 742 736 735 748
2756 5 742 736 737 749
2757 5 742 736 737 750
2758 3 736 742 743 761
2759 3 760 742 743 761
2760 4 670 700 701 702
2761 2 670 700 701 731
2762 8 670 700 701 715
2763 10 713 700 701 715
2764 8 713 700 701 731
2765 10 714 700 701 715
2766 8 714 700 701 731
2767 4 1466 1467 1468 1480
2768 4 1466 1467 1468 1481
2769 4 1466 1467 1468 1482
2770 4 1466 1467 1469 1483
2771 4 1466 1467 1469 1484
2772 4 1466 1467 1469 1485
2773 4 1466 1467 1470 1486
2774 4 1466 1467 1470 1487
2775 4 1466 1467 1470 1488
2776 4 1468 1467 1466 1478
2777 4 1468 1467 1466 1479
2778 4 1468 1467 1469 1483
2779 4 1468 1467 1469 1484
2780 4 1468 1467 1469 1485
2781 4 1468 1467 1470 1486
2782 4 1468 1467 1470 1487
2783 4 1468 1467 1470 1488
2784 4 1469 1467 1466 1478
2785 4 1469 1467 1466 1479
2786 4 1469 1467 1468 1480
2787 4 1469 1467 1468 1481
2788 4 1469 1467 1468 1482
2789 4 1469 1467 1470 1486
2790 4 1469 1467 1470 1487
2791 4 1469 1467 1470 1488
2792 4 1470 1467 1466 1478
2793 4 1470 1467 1466 1479
2794 4 1470 1467 1468 1480
2795 4 1470 1467 1468 1481
2796 4 1470 1467 1468 1482
2797 4 1470 1467 1469 1483
2798 4 1470 1467 1469 1484
2799 4 1470 1467 1469 1485
2800 1 669 670 671 672
2801 1 669 670 671 681
2802 2 669 670 700 701
2803 4 671 670 700 701
2804 8 669 670 700 713
2805 8 669 670 700 714
2806 4 671 670 669 682
2807 4 671 670 669 683
2808 4 671 670 700 713
2809 4 671 670 700 714
2810 8 684 670 700 701
2811 10 684 670 700 713
2812 10 684 670 700 714
2813 3 670 671 672 673
2814 3 670 671 681 680
2815 1 672 671 670 700
2816 3 672 671 681 680
2817 1 681 671 670 700
2818 3 670 671 672 685
2819 3 670 671 681 699
2820 9 672 671 670 684
2821 5 672 671 670 684
2822 3 672 671 681 699
2823 9 681 671 670 684
2824 5 681 671 670 684
2825 3 681 671 672 685
2826 4 638 669 670 671
2827 2 638 669 670 700
2828 8 638 669 670 684
2829 10 682 669 670 684
2830 8 682 669 670 700
2831 10 683 669 670 684
2832 8 683 669 670 700
2833 1 637 638 639 640
2834 1 637 638 639 649
2835 2 637 638 669 670
2836 4 639 638 669 670
2837 8 637 638 669 682
2838 8 637 638 669 683
2839 4 639 638 669 682
2840 4 639 638 669 683
2841 8 653 638 669 670
2842 10 653 638 669 682
2843 10 653 638 669 683
2844 3 671 681 680 674
2845 3 671 681 680 698
2846 6 1465 1466 1467 1468
2847 7 1465 1466 1467 1468
2848 6 1465 1466 1467 1469
2849 7 1465 1466 1467 1469
2850 6 1465 1466 1467 1470
2851 7 1465 1466 1467 1470
2852 5 1467 1466 1465 1471
2853 3 1463 1464 1465 1466
2854 3 1463 1464 1465 1471
2855 3 1465 1464 1463 1476
2856 5 1464 1465 1466 1467
2857 3 1464 1465 1471 1472
2858 3 1466 1465 1471 1472
2859 5 1464 1465 1466 1478
2860 5 1464 1465 1466 1479
2861 3 1464 1465 1471 1489
2862 3 1466 1465 1464 1477
2863 3 1466 1465 1471 1489
2864 3 1471 1465 1464 1477
2865 5 1471 1465 1466 1478
2866 5 1471 1465 1466 1479
2867 4 1497 1498 1499 1511
2868 4 1497 1498 1499 1512
2869 4 1497 1498 1499 1513
2870 4 1497 1498 1500 1514
2871 4 1497 1498 1500 1515
2872 4 1497 1498 1500 1516
2873 4 1497 1498 1501 1517
2874 4 1497 1498 1501 1518
2875 4 1497 1498 1501 1519
2876 4 1499 1498 1497 1509
2877 4 1499 1498 1497 1510
2878 4 1499 1498 1500 1514
2879 4 1499 1498 1500 1515
2880 4 1499 1498 1500 1516
2881 4 1499 1498 1501 1517
2882 4 1499 1498 1501 1518
2883 4 1499 1498 1501 1519
2884 4 1500 1498 1497 1509
2885 4 1500 1498 1497 1510
2886 4 1500 1498 1499 1511
2887 4 1500 1498 1499 1512
2888 4 1500 1498 1499 1513
2889 4 1500 1498 1501 1517
2890 4 1500 1498 1501 1518
2891 4 1500 1498 1501 1519
2892 4 1501 1498 1497 1509
2893 4 1501 1498 1497 1510
2894 4 1501 1498 1499 1511
2895 4 1501 1498 1499 1512
2896 4 1501 1498 1499 1513
2897 4 1501 1498 1500 1514
2898 4 1501 1498 1500 1515
2899 4 1501 1498 1500 1516
2900 6 1496 1497 1498 1499
2901 7 1496 1497 1498 1499
2902 6 1496 1497 1498 1500
2903 7 1496 1497 1498 1500
2904 6 1496 1497 1498 1501
2905 7 1496 1497 1498 1501
2906 5 1498 1497 1496 1502
2907 3 1496 1502 1503 1521
2908 3 1520 1502 1503 1521
2909 5 1495 1496 1497 1498
2910 3 1495 1496 1502 1503
2911 3 1497 1496 1502 1503
2912 5 1495 1496 1497 1509
2913 5 1495 1496 1497 1510
2914 3 1495 1496 1502 1520
2915 3 1497 1496 1495 1508
2916 3 1497 1496 1502 1520
2917 3 1502 1496 1495 1508
2918 5 1502 1496 1497 1509
2919 5 1502 1496 1497 1510
2920 3 1492 1493 1494 1495
2921 3 1492 1493 1503 1502
2922 1 1494 1493 1492 1522
2923 3 1494 1493 1503 1502
2924 1 1503 1493 1492 1522
2925 3 1492 1493 1494 1507
2926 3 1492 1493 1503 1521
2927 9 1494 1493 1492 1506
2928 5 1494 1493 1492 1506
2929 3 1494 1493 1503 1521
2930 9 1503 1493 1492 1506
2931 5 1503 1493 1492 1506
2932 3 1503 1493 1494 1507
2933 3 1462 1463 1464 1465
2934 3 1464 1463 1462 1472
2935 3 1462 1463 1464 1477
2936 3 1476 1463 1464 1477
2937 3 1465 1471 1472 1490
2938 3 1489 1471 1472 1490
2939 3 1494 1495 1496 1497
2940 3 1494 1495 1496 1502
2941 3 1496 1495 1494 1507
2942 3 1493 1494 1495 1496
2943 3 1495 1494 1493 1503
2944 3 1493 1494 1495 1508
2945 3 1507 1494 1495 1508
2946 4 737 738 739 751
2947 4 737 738 739 752
2948 4 737 738 739 753
2949 4 737 738 740 754
2950 4 737 738 740 755
2951 4 737 738 740 756
2952 4 737 738 741 757
2953 4 737 738 741 758
2954 4 737 738 741 759
2955 4 739 738 737 749
2956 4 739 738 737 750
2957 4 739 738 740 754
2958 4 739 738 740 755
2959 4 739 738 740 756
2960 4 739 738 741 757
2961 4 739 738 741 758
2962 4 739 738 741 759
2963 4 740 738 737 749
2964 4 740 738 737 750
2965 4 740 738 739 751
2966 4 740 738 739 752
2967 4 740 738 739 753
2968 4 740 738 741 757
2969 4 740 738 741 758
2970 4 740 738 741 759
2971 4 741 738 737 749
2972 4 741 738 737 750
2973 4 741 738 739 751
2974 4 741 738 739 752
2975 4 741 738 739 753
2976 4 741 738 740 754
2977 4 741 738 740 755
2978 4 741 738 740 756
2979 6 736 737 738 739
2980 7 736 737 738 739
2981 6 736 737 738 740
2982 7 736 737 738 740
2983 6 736 737 738 741
2984 7 736 737 738 741
2985 5 738 737 736 742
2986 1 793 794 795 796
2987 1 793 794 795 805
2988 2 793 794 824 825
2989 4 795 794 824 825
2990 8 793 794 824 837
2991 8 793 794 824 838
2992 4 795 794 793 806
2993 4 795 794 793 807
2994 4 795 794 824 837
2995 4 795 794 824 838
2996 8 808 794 824 825
2997 10 808 794 824 837
2998 10 808 794 824 838
2999 3 794 795 796 797
3000 3 794 795 805 804
3001 1 796 795 794 824
3002 3 796 795 805 804
3003 1 805 795 794 824
3004 3 794 795 796 809
3005 3 794 795 805 823
3006 9 796 795 794 808
3007 5 796 795 794 808
3008 3 796 795 805 823
3009 9 805 795 794 808
3010 5 805 795 794 808
3011 3 805 795 796 809
3012 4 732 762 763 764
3013 2 732 762 763 793
3014 8 732 762 763 777
3015 10 775 762 763 777
3016 8 775 762 763 793
3017 10 776 762 763 777
3018 8 776 762 763 793
3019 1 762 763 764 765
3020 1 762 763 764 774
3021 2 762 763 793 794
3022 4 764 763 793 794
3023 8 762 763 793 806
3024 8 762 763 793 807
3025 4 764 763 762 775
3026 4 764 763 762 776
3027 4 764 763 793 806
3028 4 764 763 793 807
3029 8 777 763 793 794
3030 10 777 763 793 806
3031 10 777 763 793 807
3032 3 763 764 765 766
3033 3 763 764 774 773
3034 1 765 764 763 793
3035 3 765 764 774 773
3036 1 774 764 763 793
3037 3 763 764 765 778
3038 3 763 764 774 792
3039 9 765 764 763 777
3040 5 765 764 763 777
3041 3 765 764 774 792
3042 9 774 764 763 777
3043 5 774 764 763 777
3044 3 774 764 765 778
3045 3 764 765 766 767
3046 3 766 765 764 774
3047 3 764 765 766 779
3048 3 778 765 766 779
3049 3 765 766 767 768
3050 3 765 766 767 773
3051 3 767 766 765 778
3052 5 766 767 768 769
3053 3 766 767 773 774
3054 3 768 767 773 774
3055 5 766 767 768 780
3056 5 766 767 768 781
3057 3 766 767 773 791
3058 3 768 767 766 779
3059 3 768 767 773 791
3060 3 773 767 766 779
3061 5 773 767 768 780
3062 5 773 767 768 781
3063 3 767 773 774 792
3064 3 791 773 774 792
3065 3 764 774 773 767
3066 3 764 774 773 791
3067 6 767 768 769 770
3068 7 767 768 769 770
3069 6 767 768 769 771
3070 7 767 768 769 771
3071 6 767 768 769 772
3072 7 767 768 769 772
3073 5 769 768 767 773
3074 3 674 680 681 699
3075 3 698 680 681 699
3076 3 1434 1440 1441 1459
3077 3 1458 1440 1441 1459
3078 3 1369 1379 1378 1372
3079 3 1369 1379 1378 1396
3080 6 100 101 102 103
3081 7 100 101 102 103
3082 6 100 101 102 104
3083 7 100 101 102 104
3084 6 100 101 102 105
3085 7 100 101 102 105
3086 5 102 101 100 106
3087 3 1403 1409 1410 1428
3088 3 1427 1409 1410 1428
3089 3 1400 1410 1409 1403
3090 3 1400 1410 1409 1427
3091 3 1431 1441 1440 1434
3092 3 1431 1441 1440 1458
3093 3 1400 1401 1402 1403
3094 3 1402 1401 1400 1410
3095 3 1400 1401 1402 1415
3096 3 1414 1401 1402 1415
3097 3 1399 1400 1401 1402
3098 3 1399 1400 1410 1409
3099 1 1401 1400 1399 1429
3100 3 1401 1400 1410 1409
3101 1 1410 1400 1399 1429
3102 3 1399 1400 1401 1414
3103 3 1399 1400 1410 1428
3104 9 1401 1400 1399 1413
3105 5 1401 1400 1399 1413
3106 3 1401 1400 1410 1428
3107 9 1410 1400 1399 1413
3108 5 1410 1400 1399 1413
3109 3 1410 1400 1401 1414
3110 1 1398 1399 1400 1401
3111 1 1398 1399 1400 1410
3112 2 1398 1399 1429 1430
3113 4 1400 1399 1429 1430
3114 8 1398 1399 1429 1442
3115 8 1398 1399 1429 1443
3116 4 1400 1399 1398 1411
3117 4 1400 1399 1398 1412
3118 4 1400 1399 1429 1442
3119 4 1400 1399 1429 1443
3120 8 1413 1399 1429 1430
3121 10 1413 1399 1429 1442
3122 10 1413 1399 1429 1443
3123 3 1430 1431 1432 1433
3124 3 1430 1431 1441 1440
3125 1 1432 1431 1430 1460
3126 3 1432 1431 1441 1440
3127 1 1441 1431 1430 1460
3128 3 1430 1431 1432 1445
3129 3 1430 1431 1441 1459
3130 9 1432 1431 1430 1444
3131 5 1432 1431 1430 1444
3132 3 1432 1431 1441 1459
3133 9 1441 1431 1430 1444
3134 5 1441 1431 1430 1444
3135 3 1441 1431 1432 1445
3136 3 1462 1472 1471 1465
3137 3 1462 1472 1471 1489
3138 1 1429 1430 1431 1432
3139 1 1429 1430 1431 1441
3140 2 1429 1430 1460 1461
3141 4 1431 1430 1460 1461
3142 8 1429 1430 1460 1473
3143 8 1429 1430 1460 1474
3144 4 1431 1430 1429 1442
3145 4 1431 1430 1429 1443
3146 4 1431 1430 1460 1473
3147 4 1431 1430 1460 1474
3148 8 1444 1430 1460 1461
3149 10 1444 1430 1460 1473
3150 10 1444 1430 1460 1474
3151 4 1399 1429 1430 1431
3152 2 1399 1429 1430 1460
3153 8 1399 1429 1430 1444
3154 10 1442 1429 1430 1444
3155 8 1442 1429 1430 1460
3156 10 1443 1429 1430 1444
3157 8 1443 1429 1430 1460
3158 3 1461 1462 1463 1464
3159 3 1461 1462 1472 1471
3160 1 1463 1462 1461 1491
3161 3 1463 1462 1472 1471
3162 1 1472 1462 1461 1491
3163 3 1461 1462 1463 1476
3164 3 1461 1462 1472 1490
3165 9 1463 1462 1461 1475
3166 5 1463 1462 1461 1475
3167 3 1463 1462 1472 1490
3168 9 1472 1462 1461 1475
3169 5 1472 1462 1461 1475
3170 3 1472 1462 1463 1476
3171 4 1430 1460 1461 1462
3172 2 1430 1460 1461 1491
3173 8 1430 1460 1461 1475
3174 10 1473 1460 1461 1475
3175 8 1473 1460 1461 1491
3176 10 1474 1460 1461 1475
3177 8 1474 1460 1461 1491
3178 1 1460 1461 1462 1463
3179 1 1460 1461 1462 1472
3180 2 1460 1461 1491 1492
3181 4 1462 1461 1491 1492
3182 8 1460 1461 1491 1504
3183 8 1460 1461 1491 1505
3184 4 1462 1461 1460 1473
3185 4 1462 1461 1460 1474
3186 4 1462 1461 1491 1504
3187 4 1462 1461 1491 1505
3188 8 1475 1461 1491 1492
3189 10 1475 1461 1491 1504
3190 10 1475 1461 1491 1505
3191 3 798 804 805 823
3192 3 822 804 805 823
3193 5 797 798 799 800
3194 3 797 798 804 805
3195 3 799 798 804 805
3196 5 797 798 799 811
3197 5 797 798 799 812
3198 3 797 798 804 822
3199 3 799 798 797 810
3200 3 799 798 804 822
3201 3 804 798 797 810
3202 5 804 798 799 811
3203 5 804 798 799 812
3204 6 798 799 800 801
3205 7 798 799 800 801
3206 6 798 799 800 802
3207 7 798 799 800 802
3208 6 798 799 800 803
3209 7 798 799 800 803
3210 5 800 799 798 804
3211 4 799 800 801 813
3212 4 799 800 801 814
3213 4 799 800 801 815
3214 4 799 800 802 816
3215 4 799 800 802 817
3216 4 799 800 802 818
3217 4 799 800 803 819
3218 4 799 800 803 820
3219 4 799 800 803 821
3220 4 801 800 799 811
3221 4 801 800 799 812
3222 4 801 800 802 816
3223 4 801 800 802 817
3224 4 801 800 802 818
3225 4 801 800 803 819
3226 4 801 800 803 820
3227 4 801 800 803 821
3228 4 802 800 799 811
3229 4 802 800 799 812
3230 4 802 800 801 813
3231 4 802 800 801 814
3232 4 802 800 801 815
3233 4 802 800 803 819
3234 4 802 800 803 820
3235 4 802 800 803 821
3236 4 803 800 799 811
3237 4 803 800 799 812
3238 4 803 800 801 813
3239 4 803 800 801 814
3240 4 803 800 801 815
3241 4 803 800 802 816
3242 4 803 800 802 817
3243 4 803 800 802 818
3244 6 1527 1528 1529 1530
3245 7 1527 1528 1529 1530
3246 6 1527 1528 1529 1531
3247 7 1527 1528 1529 1531
3248 6 1527 1528 1529 1532
3249 7 1527 1528 1529 1532
3250 5 1529 1528 1527 1533
3251 4 1528 1529 1530 1542
3252 4 1528 1529 1530 1543
3253 4 1528 1529 1530 1544
3254 4 1528 1529 1531 1545
3255 4 1528 1529 1531 1546
3256 4 1528 1529 1531 1547
3257 4 1528 1529 1532 1548
3258 4 1528 1529 1532 1549
3259 4 1528 1529 1532 1550
3260 4 1530 1529 1528 1540
3261 4 1530 1529 1528 1541
3262 4 1530 1529 1531 1545
3263 4 1530 1529 1531 1546
3264 4 1530 1529 1531 1547
3265 4 1530 1529 1532 1548
3266 4 1530 1529 1532 1549
3267 4 1530 1529 1532 1550
3268 4 1531 1529 1528 1540
3269 4 1531 1529 1528 1541
3270 4 1531 1529 1530 1542
3271 4 1531 1529 1530 1543
3272 4 1531 1529 1530 1544
3273 4 1531 1529 1532 1548
3274 4 1531 1529 1532 1549
3275 4 1531 1529 1532 1550
3276 4 1532 1529 1528 1540
3277 4 1532 1529 1528 1541
3278 4 1532 1529 1530 1542
3279 4 1532 1529 1530 1543
3280 4 1532 1529 1530 1544
3281 4 1532 1529 1531 1545
3282 4 1532 1529 1531 1546
3283 4 1532 1529 1531 1547
3284 3 795 805 804 798
3285 3 795 805 804 822
3286 4 825 855 856 857
3287 2 825 855 856 886
3288 8 825 855 856 870
3289 10 868 855 856 870
3290 8 868 855 856 886
3291 10 869 855 856 870
3292 8 869 855 856 886
3293 4 768 769 770 782
3294 4 768 769 770 783
3295 4 768 769 770 784
3296 4 768 769 771 785
3297 4 768 769 771 786
3298 4 768 769 771 787
3299 4 768 769 772 788
3300 4 768 769 772 789
3301 4 768 769 772 790
3302 4 770 769 768 780
3303 4 770 769 768 781
3304 4 770 769 771 785
3305 4 770 769 771 786
3306 4 770 769 771 787
3307 4 770 769 772 788
3308 4 770 769 772 789
3309 4 770 769 772 790
3310 4 771 769 768 780
3311 4 771 769 768 781
3312 4 771 769 770 782
3313 4 771 769 770 783
3314 4 771 769 770 784
3315 4 771 769 772 788
3316 4 771 769 772 789
3317 4 771 769 772 790
3318 4 772 769 768 780
3319 4 772 769 768 781
3320 4 772 769 770 782
3321 4 772 769 770 783
3322 4 772 769 770 784
3323 4 772 769 771 785
3324 4 772 769 771 786
3325 4 772 769 771 787
3326 3 1368 1369 1370 1371
3327 3 1368 1369 1379 1378
3328 1 1370 1369 1368 1398
3329 3 1370 1369 1379 1378
3330 1 1379 1369 1368 1398
3331 3 1368 1369 1370 1383
3332 3 1368 1369 1379 1397
3333 9 1370 1369 1368 1382
3334 5 1370 1369 1368 1382
3335 3 1370 1369 1379 1397
3336 9 1379 1369 1368 1382
3337 5 1379 1369 1368 1382
3338 3 1379 1369 1370 1383
3339 4 1368 1398 1399 1400
3340 2 1368 1398 1399 1429
3341 8 1368 1398 1399 1413
3342 10 1411 1398 1399 1413
3343 8 1411 1398 1399 1429
3344 10 1412 1398 1399 1413
3345 8 1412 1398 1399 1429
3346 4 861 862 863 875
3347 4 861 862 863 876
3348 4 861 862 863 877
3349 4 861 862 864 878
3350 4 861 862 864 879
3351 4 861 862 864 880
3352 4 861 862 865 881
3353 4 861 862 865 882
3354 4 861 862 865 883
3355 4 863 862 861 873
3356 4 863 862 861 874
3357 4 863 862 864 878
3358 4 863 862 864 879
3359 4 863 862 864 880
3360 4 863 862 865 881
3361 4 863 862 865 882
3362 4 863 862 865 883
3363 4 864 862 861 873
3364 4 864 862 861 874
3365 4 864 862 863 875
3366 4 864 862 863 876
3367 4 864 862 863 877
3368 4 864 862 865 881
3369 4 864 862 865 882
3370 4 864 862 865 883
3371 4 865 862 861 873
3372 4 865 862 861 874
3373 4 865 862 863 875
3374 4 865 862 863 876
3375 4 865 862 863 877
3376 4 865 862 864 878
3377 4 865 862 864 879
3378 4 865 862 864 880
3379 6 860 861 862 863
3380 7 860 861 862 863
3381 6 860 861 862 864
3382 7 860 861 862 864
3383 6 860 861 862 865
3384 7 860 861 862 865
3385 5 862 861 860 866
3386 6 1278 1279 1280 1281
3387 7 1278 1279 1280 1281
3388 6 1278 1279 1280 1282
3389 7 1278 1279 1280 1282
3390 6 1278 1279 1280 1283
3391 7 1278 1279 1280 1283
3392 5 1280 1279 1278 1284
3393 3 1339 1340 1341 1342
3394 3 1339 1340 1341 1347
3395 3 1341 1340 1339 1352
3396 3 1369 1370 1371 1372
3397 3 1371 1370 1369 1379
3398 3 1369 1370 1371 1384
3399 3 1383 1370 1371 1384
3400 3 1341 1347 1348 1366
3401 3 1365 1347 1348 1366
3402 6 1341 1342 1343 1344
3403 7 1341 1342 1343 1344
3404 6 1341 1342 1343 1345
3405 7 1341 1342 1343 1345
3406 6 1341 1342 1343 1346
3407 7 1341 1342 1343 1346
3408 5 1343 1342 1341 1347
3409 5 1340 1341 1342 1343
3410 3 1340 1341 1347 1348
3411 3 1342 1341 1347 1348
3412 5 1340 1341 1342 1354
3413 5 1340 1341 1342 1355
3414 3 1340 1341 1347 1365
3415 3 1342 1341 1340 1353
3416 3 1342 1341 1347 1365
3417 3 1347 1341 1340 1353
3418 5 1347 1341 1342 1354
3419 5 1347 1341 1342 1355
3420 4 1342 1343 1344 1356
3421 4 1342 1343 1344 1357
3422 4 1342 1343 1344 1358
3423 4 1342 1343 1345 1359
3424 4 1342 1343 1345 1360
3425 4 1342 1343 1345 1361
3426 4 1342 1343 1346 1362
3427 4 1342 1343 1346 1363
3428 4 1342 1343 1346 1364
3429 4 1344 1343 1342 1354
3430 4 1344 1343 1342 1355
3431 4 1344 1343 1345 1359
3432 4 1344 1343 1345 1360
3433 4 1344 1343 1345 1361
3434 4 1344 1343 1346 1362
3435 4 1344 1343 1346 1363
3436 4 1344 1343 1346 1364
3437 4 1345 1343 1342 1354
3438 4 1345 1343 1342 1355
3439 4 1345 1343 1344 1356
3440 4 1345 1343 1344 1357
3441 4 1345 1343 1344 1358
3442 4 1345 1343 1346 1362
3443 4 1345 1343 1346 1363
3444 4 1345 1343 1346 1364
3445 4 1346 1343 1342 1354
3446 4 1346 1343 1342 1355
3447 4 1346 1343 1344 1356
3448 4 1346 1343 1344 1357
3449 4 1346 1343 1344 1358
3450 4 1346 1343 1345 1359
3451 4 1346 1343 1345 1360
3452 4 1346 1343 1345 1361
3453 4 1205 1235 1236 1237
3454 2 1205 1235 1236 1250
3455 8 1205 1235 1236 1251
3456 8 1248 1235 1236 1250
3457 10 1248 1235 1236 1251
3458 8 1249 1235 1236 1250
3459 10 1249 1235 1236 1251
3460 1 1235 1236 1237 1238
3461 1 1235 1236 1237 1247
3462 8 1235 1236 1250 1270
3463 8 1235 1236 1250 1271
3464 8 1235 1236 1250 1272
3465 4 1237 1236 1235 1248
3466 4 1237 1236 1235 1249
3467 4 1237 1236 1250 1270
3468 4 1237 1236 1250 1271
3469 4 1237 1236 1250 1272
3470 10 1251 1236 1250 1270
3471 10 1251 1236 1250 1271
3472 10 1251 1236 1250 1272
3473 3 1236 1237 1238 1239
3474 3 1236 1237 1247 1246
3475 1 1238 1237 1236 1250
3476 3 1238 1237 1247 1246
3477 1 1247 1237 1236 1250
3478 3 1236 1237 1238 1252
3479 3 1236 1237 1247 1266
3480 9 1238 1237 1236 1251
3481 5 1238 1237 1236 1251
3482 3 1238 1237 1247 1266
3483 9 1247 1237 1236 1251
3484 5 1247 1237 1236 1251
3485 3 1247 1237 1238 1252
3486 3 1237 1247 1246 1240
3487 3 1237 1247 1246 1265
3488 3 1237 1238 1239 1240
3489 3 1239 1238 1237 1247
3490 3 1237 1238 1239 1253
3491 3 1252 1238 1239 1253
3492 4 1559 1560 1561 1574
3493 4 1559 1560 1561 1575
3494 4 1559 1560 1561 1576
3495 4 1559 1560 1562 1577
3496 4 1559 1560 1562 1578
3497 4 1559 1560 1562 1579
3498 4 1559 1560 1563 1580
3499 4 1559 1560 1563 1581
3500 4 1559 1560 1563 1582
3501 4 1561 1560 1559 1572
3502 4 1561 1560 1559 1573
3503 4 1561 1560 1562 1577
3504 4 1561 1560 1562 1578
3505 4 1561 1560 1562 1579
3506 4 1561 1560 1563 1580
3507 4 1561 1560 1563 1581
3508 4 1561 1560 1563 1582
3509 4 1562 1560 1559 1572
3510 4 1562 1560 1559 1573
3511 4 1562 1560 1561 1574
3512 4 1562 1560 1561 1575
3513 4 1562 1560 1561 1576
3514 4 1562 1560 1563 1580
3515 4 1562 1560 1563 1581
3516 4 1562 1560 1563 1582
3517 4 1563 1560 1559 1572
3518 4 1563 1560 1559 1573
3519 4 1563 1560 1561 1574
3520 4 1563 1560 1561 1575
3521 4 1563 1560 1561 1576
3522 4 1563 1560 1562 1577
3523 4 1563 1560 1562 1578
3524 4 1563 1560 1562 1579
3525 6 1558 1559 1560 1561
3526 7 1558 1559 1560 1561
3527 6 1558 1559 1560 1562
3528 7 1558 1559 1560 1562
3529 6 1558 1559 1560 1563
3530 7 1558 1559 1560 1563
3531 5 1560 1559 1558 1564
3532 6 418 419 420 421
3533 7 418 419 420 421
3534 6 418 419 420 422
3535 7 418 419 420 422
3536 6 418 419 420 423
3537 7 418 419 420 423
3538 5 420 419 418 424
3539 4 419 420 421 433
3540 4 419 420 421 434
3541 4 419 420 421 435
3542 4 419 420 422 436
3543 4 419 420 422 437
3544 4 419 420 422 438
3545 4 419 420 423 439
3546 4 419 420 423 440
3547 4 419 420 423 441
3548 4 421 420 419 431
3549 4 421 420 419 432
3550 4 421 420 422 436
3551 4 421 420 422 437
3552 4 421 420 422 438
3553 4 421 420 423 439
3554 4 421 420 423 440
3555 4 421 420 423 441
3556 4 422 420 419 431
3557 4 422 420 419 432
3558 4 422 420 421 433
3559 4 422 420 421 434
3560 4 422 420 421 435
3561 4 422 420 423 439
3562 4 422 420 423 440
3563 4 422 420 423 441
3564 4 423 420 419 431
3565 4 423 420 419 432
3566 4 423 420 421 433
3567 4 423 420 421 434
3568 4 423 420 421 435
3569 4 423 420 422 436
3570 4 423 420 422 437
3571 4 423 420 422 438
3572 5 417 418 419 420
3573 3 417 418 424 425
3574 3 419 418 424 425
3575 5 417 418 419 431
3576 5 417 418 419 432
3577 3 417 418 424 442
3578 3 419 418 417 430
3579 3 419 418 424 442
3580 3 424 418 417 430
3581 5 424 418 419 431
3582 5 424 418 419 432
3583 3 418 424 425 443
3584 3 442 424 425 443
3585 4 1279 1280 1281 1294
3586 4 1279 1280 1281 1295
3587 4 1279 1280 1281 1296
3588 4 1279 1280 1282 1297
3589 4 1279 1280 1282 1298
3590 4 1279 1280 1282 1299
3591 4 1279 1280 1283 1300
3592 4 1279 1280 1283 1301
3593 4 1279 1280 1283 1302
3594 4 1281 1280 1279 1292
3595 4 1281 1280 1279 1293
3596 4 1281 1280 1282 1297
3597 4 1281 1280 1282 1298
3598 4 1281 1280 1282 1299
3599 4 1281 1280 1283 1300
3600 4 1281 1280 1283 1301
3601 4 1281 1280 1283 1302
3602 4 1282 1280 1279 1292
3603 4 1282 1280 1279 1293
3604 4 1282 1280 1281 1294
3605 4 1282 1280 1281 1295
3606 4 1282 1280 1281 1296
3607 4 1282 1280 1283 1300
3608 4 1282 1280 1283 1301
3609 4 1282 1280 1283 1302
3610 4 1283 1280 1279 1292
3611 4 1283 1280 1279 1293
3612 4 1283 1280 1281 1294
3613 4 1283 1280 1281 1295
3614 4 1283 1280 1281 1296
3615 4 1283 1280 1282 1297
3616 4 1283 1280 1282 1298
3617 4 1283 1280 1282 1299
3618 4 1024 1025 1026 1038
3619 4 1024 1025 1026 1039
3620 4 1024 1025 1026 1040
3621 4 1024 1025 1027 1041
3622 4 1024 1025 1027 1042
3623 4 1024 1025 1027 1043
3624 4 1024 1025 1028 1044
3625 4 1024 1025 1028 1045
3626 4 1024 1025 1028 1046
3627 4 1026 1025 1024 1036
3628 4 1026 1025 1024 1037
3629 4 1026 1025 1027 1041
3630 4 1026 1025 1027 1042
3631 4 1026 1025 1027 1043
3632 4 1026 1025 1028 1044
3633 4 1026 1025 1028 1045
3634 4 1026 1025 1028 1046
3635 4 1027 1025 1024 1036
3636 4 1027 1025 1024 1037
3637 4 1027 1025 1026 1038
3638 4 1027 1025 1026 1039
3639 4 1027 1025 1026 1040
3640 4 1027 1025 1028 1044
3641 4 1027 1025 1028 1045
3642 4 1027 1025 1028 1046
3643 4 1028 1025 1024 1036
3644 4 1028 1025 1024 1037
3645 4 1028 1025 1026 1038
3646 4 1028 1025 1026 1039
3647 4 1028 1025 1026 1040
3648 4 1028 1025 1027 1041
3649 4 1028 1025 1027 1042
3650 4 1028 1025 1027 1043
3651 6 1023 1024 1025 1026
3652 7 1023 1024 1025 1026
3653 6 1023 1024 1025 1027
3654 7 1023 1024 1025 1027
3655 6 1023 1024 1025 1028
3656 7 1023 1024 1025 1028
3657 5 1025 1024 1023 1029
3658 3 1023 1029 1030 1048
3659 3 1047 1029 1030 1048
3660 3 1206 1216 1215 1209
3661 3 1206 1216 1215 1233
3662 3 1205 1206 1207 1208
3663 3 1205 1206 1216 1215
3664 1 1207 1206 1205 1235
3665 3 1207 1206 1216 1215
3666 1 1216 1206 1205 1235
3667 3 1205 1206 1207 1220
3668 3 1205 1206 1216 1234
3669 9 1207 1206 1205 1219
3670 5 1207 1206 1205 1219
3671 3 1207 1206 1216 1234
3672 9 1216 1206 1205 1219
3673 5 1216 1206 1205 1219
3674 3 1216 1206 1207 1220
3675 3 639 649 648 642
3676 3 639 649 648 667
3677 3 642 648 649 668
3678 3 667 648 649 668
3679 1 1204 1205 1206 1207
3680 1 1204 1205 1206 1216
3681 2 1204 1205 1235 1236
3682 4 1206 1205 1235 1236
3683 8 1204 1205 1235 1248
3684 8 1204 1205 1235 1249
3685 4 1206 1205 1204 1217
3686 4 1206 1205 1204 1218
3687 4 1206 1205 1235 1248
3688 4 1206 1205 1235 1249
3689 8 1219 1205 1235 1236
3690 10 1219 1205 1235 1248
3691 10 1219 1205 1235 1249
3692 4 643 644 645 658
3693 4 643 644 645 659
3694 4 643 644 645 660
3695 4 643 644 646 661
3696 4 643 644 646 662
3697 4 643 644 646 663
3698 4 643 644 647 664
3699 4 643 644 647 665
3700 4 643 644 647 666
3701 4 645 644 643 656
3702 4 645 644 643 657
3703 4 645 644 646 661
3704 4 645 644 646 662
3705 4 645 644 646 663
3706 4 645 644 647 664
3707 4 645 644 647 665
3708 4 645 644 647 666
3709 4 646 644 643 656
3710 4 646 644 643 657
3711 4 646 644 645 658
3712 4 646 644 645 659
3713 4 646 644 645 660
3714 4 646 644 647 664
3715 4 646 644 647 665
3716 4 646 644 647 666
3717 4 647 644 643 656
3718 4 647 644 643 657
3719 4 647 644 645 658
3720 4 647 644 645 659
3721 4 647 644 645 660
3722 4 647 644 646 661
3723 4 647 644 646 662
3724 4 647 644 646 663
3725 5 641 642 643 644
3726 3 641 642 648 649
3727 3 643 642 648 649
3728 5 641 642 643 656
3729 5 641 642 643 657
3730 3 641 642 648 667
3731 3 643 642 641 655
3732 3 643 642 648 667
3733 3 648 642 641 655
3734 5 648 642 643 656
3735 5 648 642 643 657
3736 6 642 643 644 645
3737 7 642 643 644 645
3738 6 642 643 644 646
3739 7 642 643 644 646
3740 6 642 643 644 647
3741 7 642 643 644 647
3742 5 644 643 642 648
3743 4 1174 1204 1205 1206
3744 2 1174 1204 1205 1235
3745 8 1174 1204 1205 1219
3746 10 1217 1204 1205 1219
3747 8 1217 1204 1205 1235
3748 10 1218 1204 1205 1219
3749 8 1218 1204 1205 1235
3750 3 1175 1185 1184 1178
3751 3 1175 1185 1184 1202
3752 1 1173 1174 1175 1176
3753 1 1173 1174 1175 1185
3754 2 1173 1174 1204 1205
3755 4 1175 1174 1204 1205
3756 8 1173 1174 1204 1217
3757 8 1173 1174 1204 1218
3758 4 1175 1174 1173 1186
3759 4 1175 1174 1173 1187
3760 4 1175 1174 1204 1217
3761 4 1175 1174 1204 1218
3762 8 1188 1174 1204 1205
3763 10 1188 1174 1204 1217
3764 10 1188 1174 1204 1218
3765 3 1174 1175 1176 1177
3766 3 1174 1175 1185 1184
3767 1 1176 1175 1174 1204
3768 3 1176 1175 1185 1184
3769 1 1185 1175 1174 1204
3770 3 1174 1175 1176 1189
3771 3 1174 1175 1185 1203
3772 9 1176 1175 1174 1188
3773 5 1176 1175 1174 1188
3774 3 1176 1175 1185 1203
3775 9 1185 1175 1174 1188
3776 5 1185 1175 1174 1188
3777 3 1185 1175 1176 1189
3778 3 1175 1176 1177 1178
3779 3 1177 1176 1175 1185
3780 3 1175 1176 1177 1190
3781 3 1189 1176 1177 1190
3782 3 1176 1177 1178 1179
3783 3 1176 1177 1178 1184
3784 3 1178 1177 1176 1189
3785 3 1113 1123 1122 1116
3786 3 1113 1123 1122 1140
3787 4 1112 1142 1143 1144
3788 2 1112 1142 1143 1173
3789 8 1112 1142 1143 1157
3790 10 1155 1142 1143 1157
3791 8 1155 1142 1143 1173
3792 10 1156 1142 1143 1157
3793 8 1156 1142 1143 1173
3794 4 1081 1111 1112 1113
3795 2 1081 1111 1112 1142
3796 8 1081 1111 1112 1126
3797 10 1124 1111 1112 1126
3798 8 1124 1111 1112 1142
3799 10 1125 1111 1112 1126
3800 8 1125 1111 1112 1142
3801 1 1111 1112 1113 1114
3802 1 1111 1112 1113 1123
3803 2 1111 1112 1142 1143
3804 4 1113 1112 1142 1143
3805 8 1111 1112 1142 1155
3806 8 1111 1112 1142 1156
3807 4 1113 1112 1111 1124
3808 4 1113 1112 1111 1125
3809 4 1113 1112 1142 1155
3810 4 1113 1112 1142 1156
3811 8 1126 1112 1142 1143
3812 10 1126 1112 1142 1155
3813 10 1126 1112 1142 1156
3814 4 1143 1173 1174 1175
3815 2 1143 1173 1174 1204
3816 8 1143 1173 1174 1188
3817 10 1186 1173 1174 1188
3818 8 1186 1173 1174 1204
3819 10 1187 1173 1174 1188
3820 8 1187 1173 1174 1204
3821 1 1142 1143 1144 1145
3822 1 1142 1143 1144 1154
3823 2 1142 1143 1173 1174
3824 4 1144 1143 1173 1174
3825 8 1142 1143 1173 1186
3826 8 1142 1143 1173 1187
3827 4 1144 1143 1142 1155
3828 4 1144 1143 1142 1156
3829 4 1144 1143 1173 1186
3830 4 1144 1143 1173 1187
3831 8 1157 1143 1173 1174
3832 10 1157 1143 1173 1186
3833 10 1157 1143 1173 1187
3834 3 1143 1144 1145 1146
3835 3 1143 1144 1154 1153
3836 1 1145 1144 1143 1173
3837 3 1145 1144 1154 1153
3838 1 1154 1144 1143 1173
3839 3 1143 1144 1145 1158
3840 3 1143 1144 1154 1172
3841 9 1145 1144 1143 1157
3842 5 1145 1144 1143 1157
3843 3 1145 1144 1154 1172
3844 9 1154 1144 1143 1157
3845 5 1154 1144 1143 1157
3846 3 1154 1144 1145 1158
3847 3 1144 1154 1153 1147
3848 3 1144 1154 1153 1171
3849 5 1239 1240 1241 1242
3850 3 1239 1240 1246 1247
3851 3 1241 1240 1246 1247
3852 5 1239 1240 1241 1254
3853 5 1239 1240 1241 1255
3854 3 1239 1240 1246 1265
3855 3 1241 1240 1239 1253
3856 3 1241 1240 1246 1265
3857 3 1246 1240 1239 1253
3858 5 1246 1240 1241 1254
3859 5 1246 1240 1241 1255
3860 3 1238 1239 1240 1241
3861 3 1238 1239 1240 1246
3862 3 1240 1239 1238 1252
3863 3 1082 1083 1084 1085
3864 3 1084 1083 1082 1092
3865 3 1082 1083 1084 1097
3866 3 1096 1083 1084 1097
3867 3 1083 1084 1085 1086
3868 3 1083 1084 1085 1091
3869 3 1085 1084 1083 1096
3870 1 1049 1050 1051 1052
3871 1 1049 1050 1051 1061
3872 2 1049 1050 1080 1081
3873 4 1051 1050 1080 1081
3874 8 1049 1050 1080 1093
3875 8 1049 1050 1080 1094
3876 4 1051 1050 1049 1062
3877 4 1051 1050 1049 1063
3878 4 1051 1050 1080 1093
3879 4 1051 1050 1080 1094
3880 8 1064 1050 1080 1081
3881 10 1064 1050 1080 1093
3882 10 1064 1050 1080 1094
3883 1 1080 1081 1082 1083
3884 1 1080 1081 1082 1092
3885 2 1080 1081 1111 1112
3886 4 1082 1081 1111 1112
3887 8 1080 1081 1111 1124
3888 8 1080 1081 1111 1125
3889 4 1082 1081 1080 1093
3890 4 1082 1081 1080 1094
3891 4 1082 1081 1111 1124
3892 4 1082 1081 1111 1125
3893 8 1095 1081 1111 1112
3894 10 1095 1081 1111 1124
3895 10 1095 1081 1111 1125
3896 3 1081 1082 1083 1084
3897 3 1081 1082 1092 1091
3898 1 1083 1082 1081 1111
3899 3 1083 1082 1092 1091
3900 1 1092 1082 1081 1111
3901 3 1081 1082 1083 1096
3902 3 1081 1082 1092 1110
3903 9 1083 1082 1081 1095
3904 5 1083 1082 1081 1095
3905 3 1083 1082 1092 1110
3906 9 1092 1082 1081 1095
3907 5 1092 1082 1081 1095
3908 3 1092 1082 1083 1096
3909 5 1084 1085 1086 1087
3910 3 1084 1085 1091 1092
3911 3 1086 1085 1091 1092
3912 5 1084 1085 1086 1098
3913 5 1084 1085 1086 1099
3914 3 1084 1085 1091 1109
3915 3 1086 1085 1084 1097
3916 3 1086 1085 1091 1109
3917 3 1091 1085 1084 1097
3918 5 1091 1085 1086 1098
3919 5 1091 1085 1086 1099
3920 3 1082 1092 1091 1085
3921 3 1082 1092 1091 1109
3922 4 1050 1080 1081 1082
3923 2 1050 1080 1081 1111
3924 8 1050 1080 1081 1095
3925 10 1093 1080 1081 1095
3926 8 1093 1080 1081 1111
3927 10 1094 1080 1081 1095
3928 8 1094 1080 1081 1111
3929 3 1085 1091 1092 1110
3930 3 1109 1091 1092 1110
3931 3 1020 1021 1022 1023
3932 3 1022 1021 1020 1030
3933 3 1020 1021 1022 1035
3934 3 1034 1021 1022 1035
3935 3 1019 1020 1021 1022
3936 3 1019 1020 1030 1029
3937 1 1021 1020 1019 1049
3938 3 1021 1020 1030 1029
3939 1 1030 1020 1019 1049
3940 3 1019 1020 1021 1034
3941 3 1019 1020 1030 1048
3942 9 1021 1020 1019 1033
3943 5 1021 1020 1019 1033
3944 3 1021 1020 1030 1048
3945 9 1030 1020 1019 1033
3946 5 1030 1020 1019 1033
3947 3 1030 1020 1021 1034
3948 3 1021 1022 1023 1024
3949 3 1021 1022 1023 1029
3950 3 1023 1022 1021 1034
3951 3 1020 1030 1029 1023
3952 3 1020 1030 1029 1047
3953 5 1022 1023 1024 1025
3954 3 1022 1023 1029 1030
3955 3 1024 1023 1029 1030
3956 5 1022 1023 1024 1036
3957 5 1022 1023 1024 1037
3958 3 1022 1023 1029 1047
3959 3 1024 1023 1022 1035
3960 3 1024 1023 1029 1047
3961 3 1029 1023 1022 1035
3962 5 1029 1023 1024 1036
3963 5 1029 1023 1024 1037
3964 3 703 704 705 706
3965 3 703 704 705 711
3966 3 705 704 703 716
3967 5 704 705 706 707
3968 3 704 705 711 712
3969 3 706 705 711 712
3970 5 704 705 706 718
3971 5 704 705 706 719
3972 3 704 705 711 729
3973 3 706 705 704 717
3974 3 706 705 711 729
3975 3 711 705 704 717
3976 5 711 705 706 718
3977 5 711 705 706 719
3978 6 705 706 707 708
3979 7 705 706 707 708
3980 6 705 706 707 709
3981 7 705 706 707 709
3982 6 705 706 707 710
3983 7 705 706 707 710
3984 5 707 706 705 711
3985 4 706 707 708 720
3986 4 706 707 708 721
3987 4 706 707 708 722
3988 4 706 707 709 723
3989 4 706 707 709 724
3990 4 706 707 709 725
3991 4 706 707 710 726
3992 4 706 707 710 727
3993 4 706 707 710 728
3994 4 708 707 706 718
3995 4 708 707 706 719
3996 4 708 707 709 723
3997 4 708 707 709 724
3998 4 708 707 709 725
3999 4 708 707 710 726
4000 4 708 707 710 727
4001 4 708 707 710 728
4002 4 709 707 706 718
4003 4 709 707 706 719
4004 4 709 707 708 720
4005 4 709 707 708 721
4006 4 709 707 708 722
4007 4 709 707 710 726
4008 4 709 707 710 727
4009 4 709 707 710 728
4010 4 710 707 706 718
4011 4 710 707 706 719
4012 4 710 707 708 720
4013 4 710 707 708 721
4014 4 710 707 708 722
4015 4 710 707 709 723
4016 4 710 707 709 724
4017 4 710 707 709 725
4018 3 958 959 960 961
4019 3 958 959 960 966
4020 3 960 959 958 972
4021 3 957 958 959 960
4022 3 959 958 957 967
4023 3 957 958 959 973
4024 3 972 958 959 973
4025 3 956 957 958 959
4026 3 956 957 967 966
4027 1 958 957 956 987
4028 3 958 957 967 966
4029 1 967 957 956 987
4030 3 956 957 958 972
4031 3 956 957 967 986
4032 9 958 957 956 971
4033 3 958 957 967 986
4034 9 967 957 956 971
4035 5 967 957 956 971
4036 3 967 957 958 972
4037 5 959 960 961 962
4038 3 959 960 966 967
4039 3 961 960 966 967
4040 5 959 960 961 974
4041 5 959 960 961 975
4042 3 959 960 966 985
4043 3 961 960 959 973
4044 3 961 960 966 985
4045 3 966 960 959 973
4046 5 966 960 961 974
4047 5 966 960 961 975
4048 6 960 961 962 963
4049 7 960 961 962 963
4050 6 960 961 962 964
4051 7 960 961 962 964
4052 6 960 961 962 965
4053 7 960 961 962 965
4054 5 962 961 960 966
4055 3 638 639 640 641
4056 3 638 639 649 648
4057 1 640 639 638 669
4058 3 640 639 649 648
4059 1 649 639 638 669
4060 3 638 639 640 654
4061 3 638 639 649 668
4062 9 640 639 638 653
4063 3 640 639 649 668
4064 9 649 639 638 653
4065 5 649 639 638 653
4066 3 649 639 640 654
4067 3 640 641 642 643
4068 3 640 641 642 648
4069 3 642 641 640 654
4070 3 671 672 673 674
4071 3 673 672 671 681
4072 3 671 672 673 686
4073 3 685 672 673 686
4074 3 639 640 641 642
4075 3 641 640 639 649
4076 3 639 640 641 655
4077 3 654 640 641 655
4078 4 1435 1436 1437 1449
4079 4 1435 1436 1437 1450
4080 4 1435 1436 1437 1451
4081 4 1435 1436 1438 1452
4082 4 1435 1436 1438 1453
4083 4 1435 1436 1438 1454
4084 4 1435 1436 1439 1455
4085 4 1435 1436 1439 1456
4086 4 1435 1436 1439 1457
4087 4 1437 1436 1435 1447
4088 4 1437 1436 1435 1448
4089 4 1437 1436 1438 1452
4090 4 1437 1436 1438 1453
4091 4 1437 1436 1438 1454
4092 4 1437 1436 1439 1455
4093 4 1437 1436 1439 1456
4094 4 1437 1436 1439 1457
4095 4 1438 1436 1435 1447
4096 4 1438 1436 1435 1448
4097 4 1438 1436 1437 1449
4098 4 1438 1436 1437 1450
4099 4 1438 1436 1437 1451
4100 4 1438 1436 1439 1455
4101 4 1438 1436 1439 1456
4102 4 1438 1436 1439 1457
4103 4 1439 1436 1435 1447
4104 4 1439 1436 1435 1448
4105 4 1439 1436 1437 1449
4106 4 1439 1436 1437 1450
4107 4 1439 1436 1437 1451
4108 4 1439 1436 1438 1452
4109 4 1439 1436 1438 1453
4110 4 1439 1436 1438 1454
4111 3 672 673 674 675
4112 3 672 673 674 680
4113 3 674 673 672 685
4114 3 1493 1503 1502 1496
4115 3 1493 1503 1502 1520
4116 3 1147 1153 1154 1172
4117 3 1171 1153 1154 1172
4118 3 1144 1145 1146 1147
4119 3 1146 1145 1144 1154
4120 3 1144 1145 1146 1159
4121 3 1158 1145 1146 1159
4122 3 1145 1146 1147 1148
4123 3 1145 1146 1147 1153
4124 3 1147 1146 1145 1158
4125 4 1148 1149 1150 1162
4126 4 1148 1149 1150 1163
4127 4 1148 1149 1150 1164
4128 4 1148 1149 1151 1165
4129 4 1148 1149 1151 1166
4130 4 1148 1149 1151 1167
4131 4 1148 1149 1152 1168
4132 4 1148 1149 1152 1169
4133 4 1148 1149 1152 1170
4134 4 1150 1149 1148 1160
4135 4 1150 1149 1148 1161
4136 4 1150 1149 1151 1165
4137 4 1150 1149 1151 1166
4138 4 1150 1149 1151 1167
4139 4 1150 1149 1152 1168
4140 4 1150 1149 1152 1169
4141 4 1150 1149 1152 1170
4142 4 1151 1149 1148 1160
4143 4 1151 1149 1148 1161
4144 4 1151 1149 1150 1162
4145 4 1151 1149 1150 1163
4146 4 1151 1149 1150 1164
4147 4 1151 1149 1152 1168
4148 4 1151 1149 1152 1169
4149 4 1151 1149 1152 1170
4150 4 1152 1149 1148 1160
4151 4 1152 1149 1148 1161
4152 4 1152 1149 1150 1162
4153 4 1152 1149 1150 1163
4154 4 1152 1149 1150 1164
4155 4 1152 1149 1151 1165
4156 4 1152 1149 1151 1166
4157 4 1152 1149 1151 1167
4158 5 1146 1147 1148 1149
4159 3 1146 1147 1153 1154
4160 3 1148 1147 1153 1154
4161 5 1146 1147 1148 1160
4162 5 1146 1147 1148 1161
4163 3 1146 1147 1153 1171
4164 3 1148 1147 1146 1159
4165 3 1148 1147 1153 1171
4166 3 1153 1147 1146 1159
4167 5 1153 1147 1148 1160
4168 5 1153 1147 1148 1161
4169 6 1147 1148 1149 1150
4170 7 1147 1148 1149 1150
4171 6 1147 1148 1149 1151
4172 7 1147 1148 1149 1151
4173 6 1147 1148 1149 1152
4174 7 1147 1148 1149 1152
4175 5 1149 1148 1147 1153
4176 4 1019 1049 1050 1051
4177 2 1019 1049 1050 1080
4178 8 1019 1049 1050 1064
4179 10 1062 1049 1050 1064
4180 8 1062 1049 1050 1080
4181 10 1063 1049 1050 1064
4182 8 1063 1049 1050 1080
4183 4 988 1018 1019 1020
4184 2 988 1018 1019 1049
4185 8 988 1018 1019 1033
4186 10 1031 1018 1019 1033
4187 8 1031 1018 1019 1049
4188 10 1032 1018 1019 1033
4189 8 1032 1018 1019 1049
4190 1 1018 1019 1020 1021
4191 1 1018 1019 1020 1030
4192 2 1018 1019 1049 1050
4193 4 1020 1019 1049 1050
4194 8 1018 1019 1049 1062
4195 8 1018 1019 1049 1063
4196 4 1020 1019 1018 1031
4197 4 1020 1019 1018 1032
4198 4 1020 1019 1049 1062
4199 4 1020 1019 1049 1063
4200 8 1033 1019 1049 1050
4201 10 1033 1019 1049 1062
4202 10 1033 1019 1049 1063
4203 3 992 998 999 1017
4204 3 1016 998 999 1017
4205 5 991 992 993 994
4206 3 991 992 998 999
4207 3 993 992 998 999
4208 5 991 992 993 1005
4209 5 991 992 993 1006
4210 3 991 992 998 1016
4211 3 993 992 991 1004
4212 3 993 992 998 1016
4213 3 998 992 991 1004
4214 5 998 992 993 1005
4215 5 998 992 993 1006
4216 3 989 999 998 992
4217 3 989 999 998 1016
4218 3 988 989 990 991
4219 3 988 989 999 998
4220 1 990 989 988 1018
4221 3 990 989 999 998
4222 1 999 989 988 1018
4223 3 988 989 990 1003
4224 3 988 989 999 1017
4225 9 990 989 988 1002
4226 5 990 989 988 1002
4227 3 990 989 999 1017
4228 9 999 989 988 1002
4229 5 999 989 988 1002
4230 3 999 989 990 1003
4231 3 989 990 991 992
4232 3 991 990 989 999
4233 3 989 990 991 1004
4234 3 1003 990 991 1004
4235 1 1491 1492 1493 1494
4236 1 1491 1492 1493 1503
4237 2 1491 1492 1522 1523
4238 4 1493 1492 1522 1523
4239 8 1491 1492 1522 1535
4240 8 1491 1492 1522 1536
4241 4 1493 1492 1491 1504
4242 4 1493 1492 1491 1505
4243 4 1493 1492 1522 1535
4244 4 1493 1492 1522 1536
4245 8 1506 1492 1522 1523
4246 10 1506 1492 1522 1535
4247 10 1506 1492 1522 1536
4248 4 1492 1522 1523 1524
4249 2 1492 1522 1523 1553
4250 8 1492 1522 1523 1537
4251 10 1535 1522 1523 1537
4252 8 1535 1522 1523 1553
4253 10 1536 1522 1523 1537
4254 8 1536 1522 1523 1553
4255 3 990 991 992 993
4256 3 990 991 992 998
4257 3 992 991 990 1003
4258 1 987 988 989 990
4259 1 987 988 989 999
4260 2 987 988 1018 1019
4261 4 989 988 1018 1019
4262 8 987 988 1018 1031
4263 8 987 988 1018 1032
4264 4 989 988 987 1000
4265 4 989 988 987 1001
4266 4 989 988 1018 1031
4267 4 989 988 1018 1032
4268 8 1002 988 1018 1019
4269 10 1002 988 1018 1031
4270 10 1002 988 1018 1032
4271 4 956 987 988 989
4272 2 956 987 988 1018
4273 8 956 987 988 1002
4274 10 1000 987 988 1002
4275 8 1000 987 988 1018
4276 10 1001 987 988 1002
4277 8 1001 987 988 1018
4278 1 955 956 957 958
4279 1 955 956 957 967
4280 2 955 956 987 988
4281 4 957 956 987 988
4282 8 955 956 987 1000
4283 8 955 956 987 1001
4284 4 957 956 987 1000
4285 4 957 956 987 1001
4286 8 971 956 987 988
4287 10 971 956 987 1000
4288 10 971 956 987 1001
4289 3 960 966 967 986
4290 3 985 966 967 986
4291 6 573 574 575 576
4292 7 573 574 575 576
4293 6 573 574 575 577
4294 7 573 574 575 577
4295 6 573 574 575 578
4296 7 573 574 575 578
4297 5 575 574 573 579
4298 3 957 967 966 960
4299 3 957 967 966 985
4300 4 968 955 956 957
4301 2 968 955 956 987
4302 8 956 955 968 1267
4303 8 956 955 968 1268
4304 8 956 955 968 1269
4305 4 969 955 956 957
4306 4 970 955 956 957
4307 8 968 955 956 971
4308 10 969 955 956 971
4309 8 969 955 956 987
4310 10 969 955 968 1267
4311 10 969 955 968 1268
4312 10 969 955 968 1269
4313 10 970 955 956 971
4314 8 970 955 956 987
4315 10 970 955 968 1267
4316 10 970 955 968 1268
4317 10 970 955 968 1269
4318 4 574 575 576 588
4319 4 574 575 576 589
4320 4 574 575 576 590
4321 4 574 575 577 591
4322 4 574 575 577 592
4323 4 574 575 577 593
4324 4 574 575 578 594
4325 4 574 575 578 595
4326 4 574 575 578 596
4327 4 576 575 574 586
4328 4 576 575 574 587
4329 4 576 575 577 591
4330 4 576 575 577 592
4331 4 576 575 577 593
4332 4 576 575 578 594
4333 4 576 575 578 595
4334 4 576 575 578 596
4335 4 577 575 574 586
4336 4 577 575 574 587
4337 4 577 575 576 588
4338 4 577 575 576 589
4339 4 577 575 576 590
4340 4 577 575 578 594
4341 4 577 575 578 595
4342 4 577 575 578 596
4343 4 578 575 574 586
4344 4 578 575 574 587
4345 4 578 575 576 588
4346 4 578 575 576 589
4347 4 578 575 576 590
4348 4 578 575 577 591
4349 4 578 575 577 592
4350 4 578 575 577 593
4351 4 675 676 677 689
4352 4 675 676 677 690
4353 4 675 676 677 691
4354 4 675 676 678 692
4355 4 675 676 678 693
4356 4 675 676 678 694
4357 4 675 676 679 695
4358 4 675 676 679 696
4359 4 675 676 679 697
4360 4 677 676 675 687
4361 4 677 676 675 688
4362 4 677 676 678 692
4363 4 677 676 678 693
4364 4 677 676 678 694
4365 4 677 676 679 695
4366 4 677 676 679 696
4367 4 677 676 679 697
4368 4 678 676 675 687
4369 4 678 676 675 688
4370 4 678 676 677 689
4371 4 678 676 677 690
4372 4 678 676 677 691
4373 4 678 676 679 695
4374 4 678 676 679 696
4375 4 678 676 679 697
4376 4 679 676 675 687
4377 4 679 676 675 688
4378 4 679 676 677 689
4379 4 679 676 677 690
4380 4 679 676 677 691
4381 4 679 676 678 692
4382 4 679 676 678 693
4383 4 679 676 678 694
4384 5 673 674 675 676
4385 3 673 674 680 681
4386 3 675 674 680 681
4387 5 673 674 675 687
4388 5 673 674 675 688
4389 3 673 674 680 698
4390 3 675 674 673 686
4391 3 675 674 680 698
4392 3 680 674 673 686
4393 5 680 674 675 687
4394 5 680 674 675 688
4395 5 1433 1434 1435 1436
4396 3 1433 1434 1440 1441
4397 3 1435 1434 1440 1441
4398 5 1433 1434 1435 1447
4399 5 1433 1434 1435 1448
4400 3 1433 1434 1440 1458
4401 3 1435 1434 1433 1446
4402 3 1435 1434 1440 1458
4403 3 1440 1434 1433 1446
4404 5 1440 1434 1435 1447
4405 5 1440 1434 1435 1448
4406 3 1372 1378 1379 1397
4407 3 1396 1378 1379 1397
4408 6 674 675 676 677
4409 7 674 675 676 677
4410 6 674 675 676 678
4411 7 674 675 676 678
4412 6 674 675 676 679
4413 7 674 675 676 679
4414 5 676 675 674 680
4415 6 1434 1435 1436 1437
4416 7 1434 1435 1436 1437
4417 6 1434 1435 1436 1438
4418 7 1434 1435 1436 1438
4419 6 1434 1435 1436 1439
4420 7 1434 1435 1436 1439
4421 5 1436 1435 1434 1440
4422 4 1373 1374 1375 1387
4423 4 1373 1374 1375 1388
4424 4 1373 1374 1375 1389
4425 4 1373 1374 1376 1390
4426 4 1373 1374 1376 1391
4427 4 1373 1374 1376 1392
4428 4 1373 1374 1377 1393
4429 4 1373 1374 1377 1394
4430 4 1373 1374 1377 1395
4431 4 1375 1374 1373 1385
4432 4 1375 1374 1373 1386
4433 4 1375 1374 1376 1390
4434 4 1375 1374 1376 1391
4435 4 1375 1374 1376 1392
4436 4 1375 1374 1377 1393
4437 4 1375 1374 1377 1394
4438 4 1375 1374 1377 1395
4439 4 1376 1374 1373 1385
4440 4 1376 1374 1373 1386
4441 4 1376 1374 1375 1387
4442 4 1376 1374 1375 1388
4443 4 1376 1374 1375 1389
4444 4 1376 1374 1377 1393
4445 4 1376 1374 1377 1394
4446 4 1376 1374 1377 1395
4447 4 1377 1374 1373 1385
4448 4 1377 1374 1373 1386
4449 4 1377 1374 1375 1387
4450 4 1377 1374 1375 1388
4451 4 1377 1374 1375 1389
4452 4 1377 1374 1376 1390
4453 4 1377 1374 1376 1391
4454 4 1377 1374 1376 1392
4455 6 1372 1373 1374 1375
4456 7 1372 1373 1374 1375
4457 6 1372 1373 1374 1376
4458 7 1372 1373 1374 1376
4459 6 1372 1373 1374 1377
4460 7 1372 1373 1374 1377
4461 5 1374 1373 1372 1378
4462 5 1371 1372 1373 1374
4463 3 1371 1372 1378 1379
4464 3 1373 1372 1378 1379
4465 5 1371 1372 1373 1385
4466 5 1371 1372 1373 1386
4467 3 1371 1372 1378 1396
4468 3 1373 1372 1371 1384
4469 3 1373 1372 1378 1396
4470 3 1378 1372 1371 1384
4471 5 1378 1372 1373 1385
4472 5 1378 1372 1373 1386
4473 4 1461 1491 1492 1493
4474 2 1461 1491 1492 1522
4475 8 1461 1491 1492 1506
4476 10 1504 1491 1492 1506
4477 8 1504 1491 1492 1522
4478 10 1505 1491 1492 1506
4479 8 1505 1491 1492 1522
4480 3 1431 1432 1433 1434
4481 3 1433 1432 1431 1441
4482 3 1431 1432 1433 1446
4483 3 1445 1432 1433 1446
4484 3 1432 1433 1434 1435
4485 3 1432 1433 1434 1440
4486 3 1434 1433 1432 1445
4487 3 1555 1556 1557 1558
4488 3 1557 1556 1555 1565
4489 3 1555 1556 1557 1571
4490 3 1570 1556 1557 1571
4491 3 1556 1557 1558 1559
4492 3 1556 1557 1558 1564
4493 3 1558 1557 1556 1570
4494 5 1526 1527 1528 1529
4495 3 1526 1527 1533 1534
4496 3 1528 1527 1533 1534
4497 5 1526 1527 1528 1540
4498 5 1526 1527 1528 1541
4499 3 1526 1527 1533 1551
4500 3 1528 1527 1526 1539
4501 3 1528 1527 1533 1551
4502 3 1533 1527 1526 1539
4503 5 1533 1527 1528 1540
4504 5 1533 1527 1528 1541
4505 3 1527 1533 1534 1552
4506 3 1551 1533 1534 1552
4507 3 1525 1526 1527 1528
4508 3 1525 1526 1527 1533
4509 3 1527 1526 1525 1538
4510 3 1524 1525 1526 1527
4511 3 1526 1525 1524 1534
4512 3 1524 1525 1526 1539
4513 3 1538 1525 1526 1539
4514 4 1523 1553 1554 1555
4515 2 1523 1553 1554 1568
4516 8 1523 1553 1554 1569
4517 8 1566 1553 1554 1568
4518 10 1566 1553 1554 1569
4519 8 1567 1553 1554 1568
4520 10 1567 1553 1554 1569
4521 3 1554 1555 1556 1557
4522 3 1554 1555 1565 1564
4523 1 1556 1555 1554 1568
4524 3 1556 1555 1565 1564
4525 1 1565 1555 1554 1568
4526 3 1554 1555 1556 1570
4527 3 1554 1555 1565 1584
4528 9 1556 1555 1554 1569
4529 5 1556 1555 1554 1569
4530 3 1556 1555 1565 1584
4531 9 1565 1555 1554 1569
4532 5 1565 1555 1554 1569
4533 3 1565 1555 1556 1570
4534 3 1524 1534 1533 1527
4535 3 1524 1534 1533 1551
4536 1 1553 1554 1555 1556
4537 1 1553 1554 1555 1565
4538 8 1553 1554 1568 1588
4539 8 1553 1554 1568 1589
4540 8 1553 1554 1568 1590
4541 4 1555 1554 1553 1566
4542 4 1555 1554 1553 1567
4543 4 1555 1554 1568 1588
4544 4 1555 1554 1568 1589
4545 4 1555 1554 1568 1590
4546 10 1569 1554 1568 1588
4547 10 1569 1554 1568 1589
4548 10 1569 1554 1568 1590
4549 3 1523 1524 1525 1526
4550 3 1523 1524 1534 1533
4551 1 1525 1524 1523 1553
4552 3 1525 1524 1534 1533
4553 1 1534 1524 1523 1553
4554 3 1523 1524 1525 1538
4555 3 1523 1524 1534 1552
4556 9 1525 1524 1523 1537
4557 5 1525 1524 1523 1537
4558 3 1525 1524 1534 1552
4559 9 1534 1524 1523 1537
4560 5 1534 1524 1523 1537
4561 3 1534 1524 1525 1538
4562 1 1522 1523 1524 1525
4563 1 1522 1523 1524 1534
4564 2 1522 1523 1553 1554
4565 4 1524 1523 1553 1554
4566 8 1522 1523 1553 1566
4567 8 1522 1523 1553 1567
4568 4 1524 1523 1522 1535
4569 4 1524 1523 1522 1536
4570 4 1524 1523 1553 1566
4571 4 1524 1523 1553 1567
4572 8 1537 1523 1553 1554
4573 10 1537 1523 1553 1566
4574 10 1537 1523 1553 1567
4575 3 1555 1565 1564 1558
4576 3 1555 1565 1564 1583
4577 3 1558 1564 1565 1584
4578 3 1583 1564 1565 1584
4579 3 1370 1371 1372 1373
4580 3 1370 1371 1372 1378
4581 3 1372 1371 1370 1383
4582 5 1557 1558 1559 1560
4583 3 1557 1558 1564 1565
4584 3 1559 1558 1564 1565
4585 5 1557 1558 1559 1572
4586 5 1557 1558 1559 1573
4587 3 1557 1558 1564 1583
4588 3 1559 1558 1557 1571
4589 3 1559 1558 1564 1583
4590 3 1564 1558 1557 1571
4591 5 1564 1558 1559 1572
4592 5 1564 1558 1559 1573
4593 6 449 450 451 452
4594 7 449 450 451 452
4595 6 449 450 451 453
4596 7 449 450 451 453
4597 6 449 450 451 454
4598 7 449 450 451 454
4599 5 451 450 449 455
4600 3 449 455 456 474
4601 3 473 455 456 474
4602 3 446 456 455 449
4603 3 446 456 455 473
4604 3 1240 1246 1247 1266
4605 3 1265 1246 1247 1266
4606 4 481 482 483 495
4607 4 481 482 483 496
4608 4 481 482 483 497
4609 4 481 482 484 498
4610 4 481 482 484 499
4611 4 481 482 484 500
4612 4 481 482 485 501
4613 4 481 482 485 502
4614 4 481 482 485 503
4615 4 483 482 481 493
4616 4 483 482 481 494
4617 4 483 482 484 498
4618 4 483 482 484 499
4619 4 483 482 484 500
4620 4 483 482 485 501
4621 4 483 482 485 502
4622 4 483 482 485 503
4623 4 484 482 481 493
4624 4 484 482 481 494
4625 4 484 482 483 495
4626 4 484 482 483 496
4627 4 484 482 483 497
4628 4 484 482 485 501
4629 4 484 482 485 502
4630 4 484 482 485 503
4631 4 485 482 481 493
4632 4 485 482 481 494
4633 4 485 482 483 495
4634 4 485 482 483 496
4635 4 485 482 483 497
4636 4 485 482 484 498
4637 4 485 482 484 499
4638 4 485 482 484 500
4639 6 480 481 482 483
4640 7 480 481 482 483
4641 6 480 481 482 484
4642 7 480 481 482 484
4643 6 480 481 482 485
4644 7 480 481 482 485
4645 5 482 481 480 486
4646 3 416 417 418 419
4647 3 416 417 418 424
4648 3 418 417 416 429
4649 3 480 486 487 505
4650 3 504 486 487 505
4651 5 479 480 481 482
4652 3 479 480 486 487
4653 3 481 480 486 487
4654 5 479 480 481 493
4655 5 479 480 481 494
4656 3 479 480 486 504
4657 3 481 480 479 492
4658 3 481 480 486 504
4659 3 486 480 479 492
4660 5 486 480 481 493
4661 5 486 480 481 494
4662 3 477 487 486 480
4663 3 477 487 486 504
4664 3 415 425 424 418
4665 3 415 425 424 442
4666 3 1178 1184 1185 1203
4667 3 1202 1184 1185 1203
4668 5 1177 1178 1179 1180
4669 3 1177 1178 1184 1185
4670 3 1179 1178 1184 1185
4671 5 1177 1178 1179 1191
4672 5 1177 1178 1179 1192
4673 3 1177 1178 1184 1202
4674 3 1179 1178 1177 1190
4675 3 1179 1178 1184 1202
4676 3 1184 1178 1177 1190
4677 5 1184 1178 1179 1191
4678 5 1184 1178 1179 1192
4679 6 1240 1241 1242 1243
4680 7 1240 1241 1242 1243
4681 6 1240 1241 1242 1244
4682 7 1240 1241 1242 1244
4683 6 1240 1241 1242 1245
4684 7 1240 1241 1242 1245
4685 5 1242 1241 1240 1246
4686 6 1085 1086 1087 1088
4687 7 1085 1086 1087 1088
4688 6 1085 1086 1087 1089
4689 7 1085 1086 1087 1089
4690 6 1085 1086 1087 1090
4691 7 1085 1086 1087 1090
4692 5 1087 1086 1085 1091
4693 6 992 993 994 995
4694 7 992 993 994 995
4695 6 992 993 994 996
4696 7 992 993 994 996
4697 6 992 993 994 997
4698 7 992 993 994 997
4699 5 994 993 992 998
4700 3 573 579 580 598
4701 3 597 579 580 598
4702 4 961 962 963 976
4703 4 961 962 963 977
4704 4 961 962 963 978
4705 4 961 962 964 979
4706 4 961 962 964 980
4707 4 961 962 964 981
4708 4 961 962 965 982
4709 4 961 962 965 983
4710 4 961 962 965 984
4711 4 963 962 961 974
4712 4 963 962 961 975
4713 4 963 962 964 979
4714 4 963 962 964 980
4715 4 963 962 964 981
4716 4 963 962 965 982
4717 4 963 962 965 983
4718 4 963 962 965 984
4719 4 964 962 961 974
4720 4 964 962 961 975
4721 4 964 962 963 976
4722 4 964 962 963 977
4723 4 964 962 963 978
4724 4 964 962 965 982
4725 4 964 962 965 983
4726 4 964 962 965 984
4727 4 965 962 961 974
4728 4 965 962 961 975
4729 4 965 962 963 976
4730 4 965 962 963 977
4731 4 965 962 963 978
4732 4 965 962 964 979
4733 4 965 962 964 980
4734 4 965 962 964 981
4735 5 572 573 574 575
4736 3 572 573 579 580
4737 3 574 573 579 580
4738 5 572 573 574 586
4739 5 572 573 574 587
4740 3 572 573 579 597
4741 3 574 573 572 585
4742 3 574 573 579 597
4743 3 579 573 572 585
4744 5 579 573 574 586
4745 5 579 573 574 587
4746 4 543 544 545 557
4747 4 543 544 545 558
4748 4 543 544 545 559
4749 4 543 544 546 560
4750 4 543 544 546 561
4751 4 543 544 546 562
4752 4 543 544 547 563
4753 4 543 544 547 564
4754 4 543 544 547 565
4755 4 545 544 543 555
4756 4 545 544 543 556
4757 4 545 544 546 560
4758 4 545 544 546 561
4759 4 545 544 546 562
4760 4 545 544 547 563
4761 4 545 544 547 564
4762 4 545 544 547 565
4763 4 546 544 543 555
4764 4 546 544 543 556
4765 4 546 544 545 557
4766 4 546 544 545 558
4767 4 546 544 545 559
4768 4 546 544 547 563
4769 4 546 544 547 564
4770 4 546 544 547 565
4771 4 547 544 543 555
4772 4 547 544 543 556
4773 4 547 544 545 557
4774 4 547 544 545 558
4775 4 547 544 545 559
4776 4 547 544 546 560
4777 4 547 544 546 561
4778 4 547 544 546 562
4779 6 542 543 544 545
4780 7 542 543 544 545
4781 6 542 543 544 546
4782 7 542 543 544 546
4783 6 542 543 544 547
4784 7 542 543 544 547
4785 5 544 543 542 548
4786 3 540 541 542 543
4787 3 540 541 542 548
4788 3 542 541 540 553
4789 3 570 580 579 573
4790 3 570 580 579 597

Impropers

1 1 383 385 384 394
2 1 445 447 446 456
3 1 450 448 449 455
4 1 446 448 447 460
5 1 447 449 448 461
6 1 388 386 387 393
7 1 384 386 385 398
8 1 512 510 511 517
9 1 508 510 509 522
10 1 507 509 508 518
11 1 354 356 355 368
12 1 357 355 356 362
13 1 353 355 354 367
14 1 352 354 353 363
15 1 476 478 477 487
16 1 481 479 480 486
17 1 477 479 478 491
18 1 414 416 415 425
19 1 385 387 386 399
20 1 384 393 394 412
21 1 387 394 393 411
22 1 353 362 363 381
23 1 356 363 362 380
24 1 604 611 610 629
25 1 601 610 611 630
26 1 602 604 603 617
27 1 605 603 604 610
28 1 601 603 602 616
29 1 251 253 252 262
30 1 160 162 161 174
31 1 163 161 162 168
32 1 159 161 160 173
33 1 158 160 159 169
34 1 253 255 254 267
35 1 600 602 601 611
36 1 256 254 255 261
37 1 252 254 253 266
38 1 283 292 293 312
39 1 282 284 283 293
40 1 286 293 292 311
41 1 284 286 285 299
42 1 569 571 570 580
43 1 574 572 573 579
44 1 570 572 571 584
45 1 287 285 286 292
46 1 283 285 284 298
47 1 159 168 169 187
48 1 191 193 192 205
49 1 540 542 541 554
50 1 190 199 200 218
51 1 539 548 549 567
52 1 193 200 199 217
53 1 542 549 548 566
54 1 538 540 539 549
55 1 830 828 829 835
56 1 826 828 827 840
57 1 827 829 828 841
58 1 826 835 836 854
59 1 829 836 835 853
60 1 825 827 826 836
61 1 892 890 891 897
62 1 888 890 889 902
63 1 1308 1310 1309 1322
64 1 1307 1316 1317 1335
65 1 509 511 510 523
66 1 887 889 888 898
67 1 7 5 6 12
68 1 3 5 4 18
69 1 4 6 5 19
70 1 4 13 3 2
71 1 6 13 12 31
72 1 3 12 13 32
73 1 34 36 35 45
74 1 39 37 38 44
75 1 35 37 36 49
76 1 38 45 44 62
77 1 36 38 37 50
78 1 35 44 45 63
79 1 322 324 323 337
80 1 321 330 331 350
81 1 325 323 324 330
82 1 321 323 322 336
83 1 322 331 321 320
84 1 324 331 330 349
85 1 70 68 69 75
86 1 66 68 67 80
87 1 67 69 68 81
88 1 65 67 66 76
89 1 66 75 76 94
90 1 69 76 75 93
91 1 100 107 106 124
92 1 96 98 97 107
93 1 162 169 168 186
94 1 252 261 262 280
95 1 127 129 128 138
96 1 132 130 131 137
97 1 128 130 129 142
98 1 131 138 137 155
99 1 129 131 130 143
100 1 128 137 138 156
101 1 255 262 261 279
102 1 1401 1403 1402 1415
103 1 1404 1402 1403 1409
104 1 1400 1402 1401 1414
105 1 101 99 100 106
106 1 97 99 98 111
107 1 98 100 99 112
108 1 97 106 107 125
109 1 511 518 517 535
110 1 194 192 193 199
111 1 190 192 191 204
112 1 189 191 190 200
113 1 220 222 221 231
114 1 225 223 224 230
115 1 221 223 222 235
116 1 799 797 798 804
117 1 795 797 796 809
118 1 224 231 230 248
119 1 794 796 795 805
120 1 508 517 518 536
121 1 221 230 231 249
122 1 222 224 223 236
123 1 1276 1285 1275 1274
124 1 1278 1285 1284 1303
125 1 1275 1284 1285 1304
126 1 856 858 857 867
127 1 861 859 860 866
128 1 857 859 858 871
129 1 858 860 859 872
130 1 857 866 867 885
131 1 860 867 866 884
132 1 1276 1278 1277 1291
133 1 1310 1317 1316 1334
134 1 1311 1309 1310 1316
135 1 1307 1309 1308 1321
136 1 1306 1308 1307 1317
137 1 1337 1339 1338 1348
138 1 1341 1348 1347 1365
139 1 1113 1122 1123 1141
140 1 1114 1116 1115 1128
141 1 918 920 919 929
142 1 923 921 922 928
143 1 919 921 920 934
144 1 922 929 928 947
145 1 920 922 921 935
146 1 891 898 897 915
147 1 889 891 890 903
148 1 1279 1277 1278 1284
149 1 1275 1277 1276 1290
150 1 1206 1215 1216 1234
151 1 1207 1209 1208 1221
152 1 1210 1208 1209 1215
153 1 1206 1208 1207 1220
154 1 1205 1207 1206 1216
155 1 1117 1115 1116 1122
156 1 1113 1115 1114 1127
157 1 1112 1114 1113 1123
158 1 1055 1053 1054 1060
159 1 1051 1053 1052 1065
160 1 1050 1052 1051 1061
161 1 1052 1054 1053 1066
162 1 919 928 929 948
163 1 1051 1060 1061 1079
164 1 1054 1061 1060 1078
165 1 888 897 898 916
166 1 701 703 702 712
167 1 705 712 711 729
168 1 702 711 712 730
169 1 732 734 733 743
170 1 736 743 742 760
171 1 737 735 736 742
172 1 733 735 734 747
173 1 734 736 735 748
174 1 733 742 743 761
175 1 674 681 680 698
176 1 1466 1464 1465 1471
177 1 1462 1464 1463 1476
178 1 1463 1465 1464 1477
179 1 1493 1502 1503 1521
180 1 1494 1496 1495 1508
181 1 1461 1463 1462 1472
182 1 1462 1471 1472 1490
183 1 1497 1495 1496 1502
184 1 1493 1495 1494 1507
185 1 1492 1494 1493 1503
186 1 763 765 764 774
187 1 768 766 767 773
188 1 764 766 765 778
189 1 765 767 766 779
190 1 764 773 774 792
191 1 767 774 773 791
192 1 671 680 681 699
193 1 1431 1440 1441 1459
194 1 1372 1379 1378 1396
195 1 1400 1409 1410 1428
196 1 1403 1410 1409 1427
197 1 1434 1441 1440 1458
198 1 1399 1401 1400 1410
199 1 1465 1472 1471 1489
200 1 795 804 805 823
201 1 796 798 797 810
202 1 798 805 804 822
203 1 1342 1340 1341 1347
204 1 1338 1340 1339 1352
205 1 1368 1370 1369 1379
206 1 1338 1347 1348 1366
207 1 1339 1341 1340 1353
208 1 1240 1247 1246 1265
209 1 1236 1238 1237 1247
210 1 416 418 417 430
211 1 415 424 425 443
212 1 1020 1029 1030 1048
213 1 1209 1216 1215 1233
214 1 640 649 639 638
215 1 642 649 648 667
216 1 639 648 649 668
217 1 640 642 641 655
218 1 1178 1185 1184 1202
219 1 1174 1176 1175 1185
220 1 1179 1177 1178 1184
221 1 1175 1177 1176 1189
222 1 1116 1123 1122 1140
223 1 1147 1154 1153 1171
224 1 1238 1240 1239 1253
225 1 1241 1239 1240 1246
226 1 1237 1239 1238 1252
227 1 1081 1083 1082 1092
228 1 1086 1084 1085 1091
229 1 1082 1084 1083 1096
230 1 1083 1085 1084 1097
231 1 1085 1092 1091 1109
232 1 1082 1091 1092 1110
233 1 1019 1021 1020 1030
234 1 1024 1022 1023 1029
235 1 1020 1022 1021 1034
236 1 1023 1030 1029 1047
237 1 1021 1023 1022 1035
238 1 706 704 705 711
239 1 702 704 703 716
240 1 703 705 704 717
241 1 961 959 960 966
242 1 957 959 958 972
243 1 958 960 959 973
244 1 643 641 642 648
245 1 639 641 640 654
246 1 670 672 671 681
247 1 675 673 674 680
248 1 671 673 672 685
249 1 1496 1503 1502 1520
250 1 1144 1153 1154 1172
251 1 1143 1145 1144 1154
252 1 1148 1146 1147 1153
253 1 1144 1146 1145 1158
254 1 1145 1147 1146 1159
255 1 989 998 999 1017
256 1 990 992 991 1004
257 1 992 999 998 1016
258 1 988 990 989 999
259 1 993 991 992 998
260 1 989 991 990 1003
261 1 957 966 967 986
262 1 958 967 957 956
263 1 960 967 966 985
264 1 672 674 673 686
265 1 1432 1434 1433 1446
266 1 1369 1378 1379 1397
267 1 1370 1372 1371 1384
268 1 1430 1432 1431 1441
269 1 1435 1433 1434 1440
270 1 1431 1433 1432 1445
271 1 1554 1556 1555 1565
272 1 1559 1557 1558 1564
273 1 1555 1557 1556 1570
274 1 1525 1527 1526 1539
275 1 1524 1533 1534 1552
276 1 1528 1526 1527 1533
277 1 1524 1526 1525 1538
278 1 1523 1525 1524 1534
279 1 1527 1534 1533 1551
280 1 1558 1565 1564 1583
281 1 1555 1564 1565 1584
282 1 1373 1371 1372 1378
283 1 1369 1371 1370 1383
284 1 1556 1558 1557 1571
285 1 446 455 456 474
286 1 449 456 455 473
287 1 1237 1246 1247 1266
288 1 419 417 418 424
289 1 415 417 416 429
290 1 477 486 487 505
291 1 478 480 479 492
292 1 480 487 486 504
293 1 418 425 424 442
294 1 1175 1184 1185 1203
295 1 1176 1178 1177 1190
296 1 570 579 580 598
297 1 571 573 572 585
298 1 543 541 542 548
299 1 539 541 540 553
300 1 573 580 579 597
